
     Program PWSCF v.7.4.1 starts on  4Aug2026 at 12:56:28 

     This program is part of the open-source Quantum ESPRESSO suite
     for quantum simulation of materials; please cite
         "P. Giannozzi et al., J. Phys.:Condens. Matter 21 395502 (2009);
         "P. Giannozzi et al., J. Phys.:Condens. Matter 29 465901 (2017);
         "P. Giannozzi et al., J. Chem. Phys. 152 154105 (2020);
          URL http://www.quantum-espresso.org", 
     in publications or presentations arising from this work. More details at
     http://www.quantum-espresso.org/quote

     Parallel version (MPI), running on    24 processors

     MPI processes distributed on     1 nodes
     94941 MiB available memory on the printing compute node when the environment starts
 
     Reading input from diamond_pd_scf.in

     Current dimensions of program PWSCF are:
     Max number of different atomic species (ntypx) = 10
     Max number of k-points (npk) =  40000
     Max angular momentum in pseudopotentials (lmaxx) =  4
     file C.pbe-n-kjpaw_psl.1.0.0.UPF: wavefunction(s)  2S 2P renormalized
     file N.pbe-n-kjpaw_psl.1.0.0.UPF: wavefunction(s)  2S renormalized
     Message from routine setup:
     the system is metallic, specify occupations
 
     R & G space division:  proc/nbgrp/npool/nimage =      24
     Subspace diagonalization in iterative solution of the eigenvalue problem:
     one sub-group per band group will be used
     scalapack distributed-memory algorithm (size of sub-group:  4*  4 procs)

 
     Parallelization info
     --------------------
     sticks:   dense  smooth     PW     G-vecs:    dense   smooth      PW
     Min         244     244     61                14112    14112    1765
     Max         245     245     62                14117    14117    1768
     Sum        5877    5877   1473               338755   338755   42379
 
     Using Slab Decomposition
 


     bravais-lattice index     =            0
     lattice parameter (alat)  =      20.2515  a.u.
     unit-cell volume          =    8305.5769 (a.u.)^3
     number of atoms/cell      =          215
     number of atomic types    =            2
     number of electrons       =       859.00 (up: 430.00, down: 429.00)
     number of Kohn-Sham states=          860
     kinetic-energy cutoff     =      45.0000  Ry
     charge density cutoff     =     180.0000  Ry
     scf convergence threshold =      1.0E-08
     mixing beta               =       0.7000
     number of iterations used =            8  plain     mixing
     Exchange-correlation= SLA  PW   PBX  PBC
                           (   1   4   3   4   0   0   0)

     celldm(1)=  20.251472  celldm(2)=   0.000000  celldm(3)=   0.000000
     celldm(4)=   0.000000  celldm(5)=   0.000000  celldm(6)=   0.000000

     crystal axes: (cart. coord. in units of alat)
               a(1) = (  -0.707107   0.000000   0.707107 )  
               a(2) = (   0.408248   0.816497   0.408248 )  
               a(3) = (  -0.577350   0.577350  -0.577350 )  

     reciprocal axes: (cart. coord. in units 2 pi/alat)
               b(1) = ( -0.707107  0.000000  0.707107 )  
               b(2) = (  0.408248  0.816497  0.408248 )  
               b(3) = ( -0.577350  0.577350 -0.577350 )  


     PseudoPot. # 1 for C  read from file:
     ../../../pseudos/C.pbe-n-kjpaw_psl.1.0.0.UPF
     MD5 check sum: 5f16ad9a65e90284d1d834d4ab3b0f7d
     Pseudo is Projector augmented-wave + core cor, Zval =  4.0
     Generated using &quot;atomic&quot; code by A. Dal Corso  v.6.3
     Shape of augmentation charge: PSQ
     Using radial grid of 1073 points,  4 beta functions with: 
                l(1) =   0
                l(2) =   0
                l(3) =   1
                l(4) =   1
     Q(r) pseudized with 0 coefficients 


     PseudoPot. # 2 for N  read from file:
     ../../../pseudos/N.pbe-n-kjpaw_psl.1.0.0.UPF
     MD5 check sum: a6186d50559fdcbe4b2d0187dd61a119
     Pseudo is Projector augmented-wave + core cor, Zval =  5.0
     Generated using &quot;atomic&quot; code by A. Dal Corso  v.6.3
     Shape of augmentation charge: PSQ
     Using radial grid of 1085 points,  4 beta functions with: 
                l(1) =   0
                l(2) =   0
                l(3) =   1
                l(4) =   1
     Q(r) pseudized with 0 coefficients 


     atomic species   valence    mass     pseudopotential
     C                 4.00    12.01070     C ( 1.00)
     N                 5.00    14.00670     N ( 1.00)

     Starting magnetic structure 
     atomic species   magnetization
     C               0.000
     N               0.000

     No symmetry found


                                    s                        frac. trans.

      isym =  1     identity                                     

 cryst.   s( 1) = (     1          0          0      )
                  (     0          1          0      )
                  (     0          0          1      )

 cart.    s( 1) = (  1.0000000  0.0000000  0.0000000 )
                  (  0.0000000  1.0000000  0.0000000 )
                  (  0.0000000  0.0000000  1.0000000 )


   Cartesian axes

     site n.     atom                  positions (alat units)
         1        C      tau(   1) = (  -0.0000662   0.0002117   0.0000148  )
         2        C      tau(   2) = (  -0.1925229   0.1927900  -0.1922377  )
         3        C      tau(   3) = (  -0.3848694   0.3851500  -0.3849408  )
         4        C      tau(   4) = (   0.1357942   0.2724531   0.1360795  )
         5        C      tau(   5) = (  -0.0567349   0.4650642  -0.0561086  )
         6        C      tau(   6) = (  -0.2487335   0.6573865  -0.2489110  )
         7        C      tau(   7) = (   0.2721470   0.5445689   0.2720756  )
         8        C      tau(   8) = (   0.0797331   0.7370858   0.0795556  )
         9        C      tau(   9) = (  -0.1126533   0.9295414  -0.1128913  )
        10        C      tau(  10) = (  -0.2357558   0.0000731   0.2357381  )
        11        C      tau(  11) = (  -0.4282421   0.1925406   0.0432754  )
        12        C      tau(  12) = (  -0.6204949   0.3851964  -0.1490827  )
        13        C      tau(  13) = (  -0.0996660   0.2722666   0.3718516  )
        14        C      tau(  14) = (  -0.2943730   0.4646814   0.1816224  )
        15        C      tau(  15) = (  -0.4826217   0.6580665  -0.0106518  )
        16        C      tau(  16) = (   0.0362846   0.5445579   0.5076968  )
        17        C      tau(  17) = (  -0.1585613   0.7366967   0.3134085  )
        18        C      tau(  18) = (  -0.3477254   0.9285953   0.1224104  )
        19        C      tau(  19) = (  -0.4714137   0.0000456   0.4714026  )
        20        C      tau(  20) = (  -0.6640782   0.1922629   0.2789482  )
        21        C      tau(  21) = (  -0.8562101   0.3851095   0.0865465  )
        22        C      tau(  22) = (  -0.3352780   0.2720433   0.6077484  )
        23        C      tau(  23) = (  -0.5282780   0.4640653   0.4156769  )
        24        C      tau(  24) = (  -0.7192270   0.6568148   0.2225024  )
        25        C      tau(  25) = (  -0.1993266   0.5444961   0.7434300  )
        26        C      tau(  26) = (  -0.3915192   0.7363301   0.5502102  )
        27        C      tau(  27) = (  -0.5840750   0.9293471   0.3585776  )
        28        C      tau(  28) = (  -0.0499344   0.1363504   0.1858941  )
        29        C      tau(  29) = (  -0.2425561   0.3293567  -0.0057245  )
        30        C      tau(  30) = (  -0.4346927   0.5212276  -0.1989239  )
        31        C      tau(  31) = (   0.0860699   0.4085430   0.3218976  )
        32        C      tau(  32) = (  -0.1092495   0.6019738   0.1293762  )
        33        C      tau(  33) = (  -0.2983587   0.7937223  -0.0618302  )
        34        C      tau(  34) = (   0.2223277   0.6806777   0.4580037  )
        35        C      tau(  35) = (   0.0299034   0.8732218   0.2655202  )
        36        C      tau(  36) = (  -0.1624864   1.0656866   0.0730871  )
        37        C      tau(  37) = (  -0.2854539   0.1359219   0.4218031  )
        38        C      tau(  38) = (  -0.4783826   0.3277487   0.2294657  )
        39        C      tau(  39) = (  -0.6696348   0.5213261   0.0374203  )
        40        C      tau(  40) = (  -0.1494645   0.4083174   0.5576998  )
        41        C      tau(  41) = (  -0.3432365   0.5981770   0.3639802  )
        42        C      tau(  42) = (  -0.5315724   0.7918037   0.1720401  )
        43        C      tau(  43) = (  -0.0135800   0.6805498   0.6935486  )
        44        C      tau(  44) = (  -0.2059753   0.8727943   0.5008599  )
        45        C      tau(  45) = (  -0.3981627   1.0656326   0.3087641  )
        46        C      tau(  46) = (  -0.5212511   0.1362043   0.6573996  )
        47        C      tau(  47) = (  -0.7139544   0.3285282   0.4650900  )
        48        C      tau(  48) = (  -0.9060024   0.5211446   0.2723744  )
        49        C      tau(  49) = (  -0.3851896   0.4083338   0.7934323  )
        50        C      tau(  50) = (  -0.5776720   0.6007920   0.6009573  )
        51        C      tau(  51) = (  -0.7698621   0.7932756   0.4083638  )
        52        C      tau(  52) = (  -0.2490919   0.6805622   0.9293902  )
        53        C      tau(  53) = (  -0.4414503   0.8728726   0.7367722  )
        54        C      tau(  54) = (  -0.6339127   1.0655496   0.5445017  )
        55        C      tau(  55) = (  -0.2141443   0.0965064   0.0216842  )
        56        C      tau(  56) = (  -0.4065261   0.2890191  -0.1706983  )
        57        C      tau(  57) = (  -0.5989866   0.4813934  -0.3633106  )
        58        C      tau(  58) = (  -0.0790053   0.3690408   0.1578263  )
        59        C      tau(  59) = (  -0.2706872   0.5628024  -0.0320615  )
        60        C      tau(  60) = (  -0.4628928   0.7536494  -0.2272760  )
        61        C      tau(  61) = (   0.0579508   0.6407630   0.2937196  )
        62        C      tau(  62) = (  -0.1355517   0.8332259   0.1009768  )
        63        C      tau(  63) = (  -0.3268282   1.0258106  -0.0912548  )
        64        C      tau(  64) = (  -0.4499412   0.0960106   0.2573158  )
        65        C      tau(  65) = (  -0.6422674   0.2887433   0.0648969  )
        66        C      tau(  66) = (  -0.8345117   0.4813583  -0.1273831  )
        67        C      tau(  67) = (  -0.3138347   0.3676747   0.3940136  )
        68        C      tau(  68) = (  -0.5043787   0.5590773   0.2028380  )
        69        C      tau(  69) = (  -0.6981471   0.7533734   0.0086881  )
        70        C      tau(  70) = (  -0.1783765   0.6405253   0.5286786  )
        71        C      tau(  71) = (  -0.3689511   0.8312623   0.3346615  )
        72        C      tau(  72) = (  -0.5624925   1.0257595   0.1444343  )
        73        C      tau(  73) = (  -0.6856100   0.0963241   0.4930406  )
        74        C      tau(  74) = (  -0.8780036   0.2887571   0.3006183  )
        75        C      tau(  75) = (  -1.0703468   0.4812924   0.1081353  )
        76        C      tau(  76) = (  -0.5496413   0.3683972   0.6294031  )
        77        C      tau(  77) = (  -0.7418994   0.5609437   0.4367298  )
        78        C      tau(  78) = (  -0.9340654   0.7533442   0.2441571  )
        79        C      tau(  79) = (  -0.4133283   0.6406874   0.7650485  )
        80        C      tau(  80) = (  -0.6056779   0.8331134   0.5725480  )
        81        C      tau(  81) = (  -0.7982109   1.0256842   0.3802035  )
        82        C      tau(  82) = (  -0.0284556   0.2326259  -0.0279889  )
        83        C      tau(  83) = (  -0.2205848   0.4249498  -0.2202401  )
        84        C      tau(  84) = (  -0.4130829   0.6174349  -0.4130750  )
        85        C      tau(  85) = (   0.1074729   0.5045500   0.1078176  )
        86        C      tau(  86) = (  -0.0845653   0.6973064  -0.0846296  )
        87        C      tau(  87) = (  -0.2768578   0.8899692  -0.2772238  )
        88        C      tau(  88) = (   0.2439198   0.7768505   0.2439277  )
        89        C      tau(  89) = (   0.0516118   0.9696693   0.0512458  )
        90        C      tau(  90) = (  -0.1409266   1.1617590  -0.1409634  )
        91        C      tau(  91) = (  -0.2639412   0.2318612   0.2076823  )
        92        C      tau(  92) = (  -0.4563218   0.4249415   0.0153820  )
        93        C      tau(  93) = (  -0.6487770   0.6174187  -0.1769836  )
        94        C      tau(  94) = (  -0.1281505   0.5045692   0.3435532  )
        95        C      tau(  95) = (  -0.5125899   0.8896996  -0.0413894  )
        96        C      tau(  96) = (   0.0078436   0.7767416   0.4796370  )
        97        C      tau(  97) = (  -0.1841561   0.9693910   0.2870444  )
        98        C      tau(  98) = (  -0.3764585   1.1620816   0.0944902  )
        99        C      tau(  99) = (  -0.4997481   0.2321326   0.4434233  )
       100        C      tau( 100) = (  -0.6924724   0.4244825   0.2509732  )
       101        C      tau( 101) = (  -0.8842105   0.6172798   0.0584605  )
       102        C      tau( 102) = (  -0.3636496   0.5042683   0.5797961  )
       103        C      tau( 103) = (  -0.5558322   0.6968079   0.3867582  )
       104        C      tau( 104) = (  -0.7482520   0.8891902   0.1942637  )
       105        C      tau( 105) = (  -0.2275675   0.7766081   0.7151035  )
       106        C      tau( 106) = (  -0.4196894   0.9689129   0.5228263  )
       107        C      tau( 107) = (  -0.6123036   1.1617152   0.3304243  )
       108        C      tau( 108) = (  -0.0731574   0.1163386   0.0449289  )
       109        C      tau( 109) = (  -0.2657473   0.3090726  -0.1470813  )
       110        C      tau( 110) = (  -0.4580522   0.5010601  -0.3404135  )
       111        C      tau( 111) = (   0.0624271   0.3887010   0.1810932  )
       112        C      tau( 112) = (  -0.1296292   0.5816717  -0.0115080  )
       113        C      tau( 113) = (  -0.3220786   0.7733383  -0.2059225  )
       114        C      tau( 114) = (   0.1994800   0.6606042   0.3171187  )
       115        C      tau( 115) = (   0.0085465   0.8535614   0.1247026  )
       116        C      tau( 116) = (  -0.1858373   1.0454057  -0.0678206  )
       117        C      tau( 117) = (  -0.3089598   0.1157285   0.2808794  )
       118        C      tau( 118) = (  -0.5013818   0.3083027   0.0883322  )
       119        C      tau( 119) = (  -0.6931685   0.5011955  -0.1039020  )
       120        C      tau( 120) = (  -0.1728112   0.3880272   0.4169028  )
       121        C      tau( 121) = (  -0.5568702   0.7737123   0.0316527  )
       122        C      tau( 122) = (  -0.0370235   0.6604030   0.5522430  )
       123        C      tau( 123) = (  -0.2290373   0.8532579   0.3594856  )
       124        C      tau( 124) = (  -0.4223328   1.0472362   0.1682307  )
       125        C      tau( 125) = (  -0.5446052   0.1159201   0.5164783  )
       126        C      tau( 126) = (  -0.7371424   0.3081924   0.3241345  )
       127        C      tau( 127) = (  -0.9292467   0.5011428   0.1314118  )
       128        C      tau( 128) = (  -0.4085863   0.3879135   0.6526906  )
       129        C      tau( 129) = (  -0.6010127   0.5804999   0.4601599  )
       130        C      tau( 130) = (  -0.7926786   0.7730630   0.2674763  )
       131        C      tau( 131) = (  -0.2723467   0.6605334   0.7883118  )
       132        C      tau( 132) = (  -0.4647074   0.8526422   0.5954475  )
       133        C      tau( 133) = (  -0.6574331   1.0457790   0.4036846  )
       134        C      tau( 134) = (  -0.1231749   0.2523758   0.2309439  )
       135        C      tau( 135) = (  -0.3165746   0.4458874   0.0397677  )
       136        C      tau( 136) = (  -0.5076538   0.6370957  -0.1555246  )
       137        C      tau( 137) = (   0.0130313   0.5244383   0.3668396  )
       138        C      tau( 138) = (  -0.1667222   0.7205148   0.1751331  )
       139        C      tau( 139) = (  -0.3720431   0.9097122  -0.0183811  )
       140        C      tau( 140) = (   0.1494310   0.7966652   0.5028105  )
       141        C      tau( 141) = (  -0.0431090   0.9892819   0.3105475  )
       142        C      tau( 142) = (  -0.2355598   1.1817033   0.1181149  )
       143        C      tau( 143) = (  -0.3587007   0.2514948   0.4670428  )
       144        C      tau( 144) = (  -0.5519660   0.4428245   0.2751930  )
       145        C      tau( 145) = (  -0.7427467   0.6371712   0.0818036  )
       146        C      tau( 146) = (  -0.2226965   0.5242730   0.6023604  )
       147        C      tau( 147) = (  -0.4153268   0.7156804   0.4083120  )
       148        C      tau( 148) = (  -0.6077788   0.9106419   0.2181479  )
       149        C      tau( 149) = (  -0.0866310   0.7964122   0.7385454  )
       150        C      tau( 150) = (  -0.2789041   0.9888907   0.5459810  )
       151        C      tau( 151) = (  -0.4714305   1.1819507   0.3539665  )
       152        C      tau( 152) = (  -0.5945679   0.2522705   0.7023421  )
       153        C      tau( 153) = (  -0.7868876   0.4448769   0.5099519  )
       154        C      tau( 154) = (  -0.9791135   0.6371160   0.3168165  )
       155        C      tau( 155) = (  -0.4581069   0.5246386   0.8383222  )
       156        C      tau( 156) = (  -0.6505352   0.7169517   0.6456441  )
       157        C      tau( 157) = (  -0.8429878   0.9093771   0.4532164  )
       158        C      tau( 158) = (  -0.3220481   0.7966000   0.9743956  )
       159        C      tau( 159) = (  -0.5143290   0.9890503   0.7819901  )
       160        C      tau( 160) = (  -0.7070829   1.1815287   0.5894391  )
       161        C      tau( 161) = (  -0.2873478   0.2125408   0.0667711  )
       162        C      tau( 162) = (  -0.4795883   0.4049087  -0.1257800  )
       163        C      tau( 163) = (  -0.6719351   0.5973683  -0.3185557  )
       164        C      tau( 164) = (  -0.1527798   0.4856307   0.2035625  )
       165        C      tau( 165) = (  -0.3447196   0.6773254  -0.0028642  )
       166        C      tau( 166) = (  -0.5360759   0.8696681  -0.1824195  )
       167        C      tau( 167) = (  -0.0136042   0.7569722   0.3385250  )
       168        C      tau( 168) = (  -0.2072045   0.9497087   0.1464575  )
       169        C      tau( 169) = (  -0.4000034   1.1418025  -0.0463288  )
       170        C      tau( 170) = (  -0.5232226   0.2115751   0.3025209  )
       171        C      tau( 171) = (  -0.7150761   0.4048016   0.1099809  )
       172        C      tau( 172) = (  -0.9076197   0.5972070  -0.0824433  )
       173        C      tau( 173) = (  -0.3874821   0.4827350   0.4396768  )
       174        C      tau( 174) = (  -0.5772000   0.6764034   0.2464387  )
       175        C      tau( 175) = (  -0.7714276   0.8693844   0.0534575  )
       176        C      tau( 176) = (  -0.2508863   0.7565166   0.5736640  )
       177        C      tau( 177) = (  -0.4439300   0.9503983   0.3819967  )
       178        C      tau( 178) = (  -0.6359139   1.1420403   0.1894831  )
       179        C      tau( 179) = (  -0.7587210   0.2124403   0.5381890  )
       180        C      tau( 180) = (  -0.9511082   0.4050164   0.3453208  )
       181        C      tau( 181) = (  -1.1435019   0.5972818   0.1529419  )
       182        C      tau( 182) = (  -0.6227295   0.4847083   0.6741100  )
       183        C      tau( 183) = (  -0.8147711   0.6771014   0.4814082  )
       184        C      tau( 184) = (  -1.0074576   0.8693973   0.2888615  )
       185        C      tau( 185) = (  -0.4859249   0.7567837   0.8100051  )
       186        C      tau( 186) = (  -0.6787044   0.9492389   0.6174998  )
       187        C      tau( 187) = (  -0.8712922   1.1416848   0.4252298  )
       188        C      tau( 188) = (  -0.1017401   0.3490439   0.0170479  )
       189        C      tau( 189) = (  -0.2941214   0.5411147  -0.1770958  )
       190        C      tau( 190) = (  -0.4863659   0.7334683  -0.3686354  )
       191        C      tau( 191) = (   0.0360792   0.6212348   0.1531048  )
       192        C      tau( 192) = (  -0.1572212   0.8131523  -0.0400827  )
       193        C      tau( 193) = (  -0.3501882   1.0057056  -0.2322407  )
       194        C      tau( 194) = (   0.1713061   0.8930462   0.2890366  )
       195        C      tau( 195) = (  -0.0214613   1.0854682   0.0964862  )
       196        C      tau( 196) = (  -0.2139775   1.2777198  -0.0960493  )
       197        C      tau( 197) = (  -0.3376059   0.3464713   0.2535379  )
       198        C      tau( 198) = (  -0.5275338   0.5407127   0.0610803  )
       199        C      tau( 199) = (  -0.7216508   0.7333916  -0.1323120  )
       200        C      tau( 200) = (  -0.2018660   0.6197330   0.3867481  )
       201        C      tau( 201) = (  -0.3986902   0.8247790   0.1985653  )
       202        C      tau( 202) = (  -0.5858768   1.0057258   0.0034385  )
       203        C      tau( 203) = (  -0.0649695   0.8927292   0.5243693  )
       204        C      tau( 204) = (  -0.2571454   1.0854894   0.3321699  )
       205        C      tau( 205) = (  -0.4498806   1.2779189   0.1398055  )
       206        C      tau( 206) = (  -0.5731097   0.3478696   0.4887024  )
       207        C      tau( 207) = (  -0.7648572   0.5408062   0.2957669  )
       208        C      tau( 208) = (  -0.9573949   0.7331952   0.1033208  )
       209        C      tau( 209) = (  -0.4366500   0.6204427   0.6239741  )
       210        C      tau( 210) = (  -0.6289631   0.8130088   0.4316941  )
       211        C      tau( 211) = (  -0.8214254   1.0057843   0.2393503  )
       212        C      tau( 212) = (  -0.3005592   0.8925702   0.7601565  )
       213        C      tau( 213) = (  -0.4930607   1.0854590   0.5677151  )
       214        C      tau( 214) = (  -0.6854811   1.2777974   0.3754355  )
       215        N      tau( 215) = (  -0.3690456   0.5707405   0.2305607  )

   Crystallographic axes

     site n.     atom                  positions (cryst. coord.)
         1        C      tau(   1) = (  0.0000573  0.0001519  0.0001519  )
         2        C      tau(   2) = (  0.0002017  0.0003345  0.3334490  )
         3        C      tau(   3) = ( -0.0000505  0.0002000  0.6668166  )
         4        C      tau(   4) = (  0.0002017  0.3334490  0.0003345  )
         5        C      tau(   5) = (  0.0004429  0.3336551  0.3336551  )
         6        C      tau(   6) = ( -0.0001255  0.3335913  0.6668574  )
         7        C      tau(   7) = ( -0.0000505  0.6668166  0.0002000  )
         8        C      tau(   8) = ( -0.0001255  0.6668574  0.3335913  )
         9        C      tau(   9) = ( -0.0001683  0.6668892  0.6668892  )
        10        C      tau(  10) = (  0.3333965  0.0000524  0.0000524  )
        11        C      tau(  11) = (  0.3334133  0.0000468  0.3334240  )
        12        C      tau(  12) = (  0.3333387  0.0003328  0.6667091  )
        13        C      tau(  13) = (  0.3334133  0.3334240  0.0000468  )
        14        C      tau(  14) = (  0.3365796  0.3333806  0.3333806  )
        15        C      tau(  15) = (  0.3337331  0.3359310  0.6647264  )
        16        C      tau(  16) = (  0.3333387  0.6667091  0.0003328  )
        17        C      tau(  17) = (  0.3337331  0.6647264  0.3359310  )
        18        C      tau(  18) = (  0.3324363  0.6662105  0.6662105  )
        19        C      tau(  19) = (  0.6666718  0.0000327  0.0000327  )
        20        C      tau(  20) = (  0.6668203 -0.0002466  0.3333580  )
        21        C      tau(  21) = (  0.6666296  0.0002267  0.6667085  )
        22        C      tau(  22) = (  0.6668203  0.3333580 -0.0002466  )
        23        C      tau(  23) = (  0.6674769  0.3329385  0.3329385  )
        24        C      tau(  24) = (  0.6659033  0.3335001  0.6659963  )
        25        C      tau(  25) = (  0.6666296  0.6667085  0.0002267  )
        26        C      tau(  26) = (  0.6659033  0.6659963  0.3335001  )
        27        C      tau(  27) = (  0.6665560  0.6667498  0.6667498  )
        28        C      tau(  28) = (  0.1667559  0.1668349  0.0002256  )
        29        C      tau(  29) = (  0.1674652  0.1675585  0.3334991  )
        30        C      tau(  30) = (  0.1667138  0.1669077  0.6667496  )
        31        C      tau(  31) = (  0.1667554  0.5001260  0.0003323  )
        32        C      tau(  32) = (  0.1687339  0.4997262  0.3359296  )
        33        C      tau(  33) = (  0.1672509  0.5010251  0.6662110  )
        34        C      tau(  34) = (  0.1666481  0.8335151  0.0001999  )
        35        C      tau(  35) = (  0.1666063  0.8335888  0.3335919  )
        36        C      tau(  36) = (  0.1665756  0.8336324  0.6668891  )
        37        C      tau(  37) = (  0.5001062  0.1666441 -0.0002467  )
        38        C      tau(  38) = (  0.5005243  0.1659858  0.3329380  )
        39        C      tau(  39) = (  0.4999635  0.1675604  0.6659970  )
        40        C      tau(  40) = (  0.5000407  0.5000511  0.0000474  )
        41        C      tau(  41) = (  0.5000777  0.4968781  0.3333813  )
        42        C      tau(  42) = (  0.4975292  0.4997266  0.6647242  )
        43        C      tau(  43) = (  0.5000155  0.8332626  0.0003355  )
        44        C      tau(  44) = (  0.4998080  0.8330197  0.3336563  )
        45        C      tau(  45) = (  0.4998727  0.8335885  0.6668576  )
        46        C      tau(  46) = (  0.8334319  0.1667927  0.0000322  )
        47        C      tau(  47) = (  0.8337103  0.1666437  0.3333577  )
        48        C      tau(  48) = (  0.8332382  0.1668353  0.6667083  )
        49        C      tau(  49) = (  0.8334116  0.5000676  0.0000526  )
        50        C      tau(  50) = (  0.8334168  0.5000508  0.3334237  )
        51        C      tau(  51) = (  0.8331315  0.5001258  0.6667090  )
        52        C      tau(  52) = (  0.8333127  0.8334073  0.0001524  )
        53        C      tau(  53) = (  0.8331291  0.8332621  0.3334491  )
        54        C      tau(  54) = (  0.8332648  0.8335157  0.6668168  )
        55        C      tau(  55) = (  0.1667559  0.0002256  0.1668349  )
        56        C      tau(  56) = (  0.1667554  0.0003323  0.5001260  )
        57        C      tau(  57) = (  0.1666481  0.0001999  0.8335151  )
        58        C      tau(  58) = (  0.1674652  0.3334991  0.1675585  )
        59        C      tau(  59) = (  0.1687339  0.3359296  0.4997262  )
        60        C      tau(  60) = (  0.1666063  0.3335919  0.8335888  )
        61        C      tau(  61) = (  0.1667138  0.6667496  0.1669077  )
        62        C      tau(  62) = (  0.1672509  0.6662110  0.5010251  )
        63        C      tau(  63) = (  0.1665756  0.6668891  0.8336324  )
        64        C      tau(  64) = (  0.5001062 -0.0002467  0.1666441  )
        65        C      tau(  65) = (  0.5000407  0.0000474  0.5000511  )
        66        C      tau(  66) = (  0.5000155  0.0003355  0.8332626  )
        67        C      tau(  67) = (  0.5005243  0.3329380  0.1659858  )
        68        C      tau(  68) = (  0.5000777  0.3333813  0.4968781  )
        69        C      tau(  69) = (  0.4998080  0.3336563  0.8330197  )
        70        C      tau(  70) = (  0.4999635  0.6659970  0.1675604  )
        71        C      tau(  71) = (  0.4975292  0.6647242  0.4997266  )
        72        C      tau(  72) = (  0.4998727  0.6668576  0.8335885  )
        73        C      tau(  73) = (  0.8334319  0.0000322  0.1667927  )
        74        C      tau(  74) = (  0.8334116  0.0000526  0.5000676  )
        75        C      tau(  75) = (  0.8333127  0.0001524  0.8334073  )
        76        C      tau(  76) = (  0.8337103  0.3333577  0.1666437  )
        77        C      tau(  77) = (  0.8334168  0.3334237  0.5000508  )
        78        C      tau(  78) = (  0.8331291  0.3334491  0.8332621  )
        79        C      tau(  79) = (  0.8332382  0.6667083  0.1668352  )
        80        C      tau(  80) = (  0.8331315  0.6667090  0.5001258  )
        81        C      tau(  81) = (  0.8332648  0.6668168  0.8335157  )
        82        C      tau(  82) = (  0.0003300  0.1668948  0.1668948  )
        83        C      tau(  83) = (  0.0002437  0.1670041  0.4998553  )
        84        C      tau(  84) = (  0.0000056  0.1668559  0.8334586  )
        85        C      tau(  85) = (  0.0002437  0.4998553  0.1670041  )
        86        C      tau(  86) = ( -0.0000454  0.5002748  0.5002748  )
        87        C      tau(  87) = ( -0.0002588  0.5004539  0.8337231  )
        88        C      tau(  88) = (  0.0000056  0.8334586  0.1668559  )
        89        C      tau(  89) = ( -0.0002588  0.8337231  0.5004539  )
        90        C      tau(  90) = ( -0.0000261  0.8334911  0.8334911  )
        91        C      tau(  91) = (  0.3334882  0.1663462  0.1663462  )
        92        C      tau(  92) = (  0.3335449  0.1669504  0.4999168  )
        93        C      tau(  93) = (  0.3336083  0.1670049  0.8332200  )
        94        C      tau(  94) = (  0.3335449  0.4999168  0.1669504  )
        95        C      tau(  95) = (  0.3331891  0.5002756  0.8335084  )
        96        C      tau(  96) = (  0.3336083  0.8332200  0.1670049  )
        97        C      tau(  97) = (  0.3331891  0.8335084  0.5002756  )
        98        C      tau(  98) = (  0.3330110  0.8337226  0.8337226  )
        99        C      tau(  99) = (  0.6669229  0.1665410  0.1665410  )
       100        C      tau( 100) = (  0.6671168  0.1663472  0.4999747  )
       101        C      tau( 101) = (  0.6665690  0.1668958  0.8331336  )
       102        C      tau( 102) = (  0.6671168  0.4999747  0.1663472  )
       103        C      tau( 103) = (  0.6665121  0.4999171  0.4999171  )
       104        C      tau( 104) = (  0.6664593  0.4998559  0.8332195  )
       105        C      tau( 105) = (  0.6665690  0.8331336  0.1668958  )
       106        C      tau( 106) = (  0.6664593  0.8332195  0.4998559  )
       107        C      tau( 107) = (  0.6666093  0.8334597  0.8334597  )
       108        C      tau( 108) = (  0.0834997  0.0834659  0.0834659  )
       109        C      tau( 109) = (  0.0839096  0.0838201  0.4167898  )
       110        C      tau( 110) = (  0.0831831  0.0831416  0.7502816  )
       111        C      tau( 111) = (  0.0839096  0.4167898  0.0838201  )
       112        C      tau( 112) = (  0.0835243  0.4173139  0.4173139  )
       113        C      tau( 113) = (  0.0821347  0.4158725  0.7513286  )
       114        C      tau( 114) = (  0.0831831  0.7502816  0.0831416  )
       115        C      tau( 115) = (  0.0821347  0.7513286  0.4158725  )
       116        C      tau( 116) = (  0.0834504  0.7500148  0.7500148  )
       117        C      tau( 117) = (  0.4170793  0.0830281  0.0830281  )
       118        C      tau( 118) = (  0.4169907  0.0831013  0.4164729  )
       119        C      tau( 119) = (  0.4166744  0.0838217  0.7495542  )
       120        C      tau( 120) = (  0.4169907  0.4164729  0.0831013  )
       121        C      tau( 121) = (  0.4161485  0.4173143  0.7499375  )
       122        C      tau( 122) = (  0.4166744  0.7495542  0.0838217  )
       123        C      tau( 123) = (  0.4161485  0.7499375  0.4173143  )
       124        C      tau( 124) = (  0.4175915  0.7513280  0.7513280  )
       125        C      tau( 125) = (  0.7502993  0.0831656  0.0831656  )
       126        C      tau( 126) = (  0.7504360  0.0830283  0.4163852  )
       127        C      tau( 127) = (  0.7499988  0.0834666  0.7499651  )
       128        C      tau( 128) = (  0.7504360  0.4163852  0.0830283  )
       129        C      tau( 129) = (  0.7503624  0.4164732  0.4164732  )
       130        C      tau( 130) = (  0.7496427  0.4167904  0.7495538  )
       131        C      tau( 131) = (  0.7499988  0.7499651  0.0834666  )
       132        C      tau( 132) = (  0.7496427  0.7495538  0.4167904  )
       133        C      tau( 133) = (  0.7503235  0.7502826  0.7502826  )
       134        C      tau( 134) = (  0.2503998  0.2500605  0.0834887  )
       135        C      tau( 135) = (  0.2519721  0.2510596  0.4172478  )
       136        C      tau( 136) = (  0.2489930  0.2494450  0.7507136  )
       137        C      tau( 137) = (  0.2501803  0.5832837  0.0834660  )
       138        C      tau( 138) = (  0.2417282  0.5917316  0.4111333  )
       139        C      tau( 139) = (  0.2500768  0.5833869  0.7506341  )
       140        C      tau( 140) = (  0.2498770  0.9167509  0.0833830  )
       141        C      tau( 141) = (  0.2500729  0.9169266  0.4167565  )
       142        C      tau( 142) = (  0.2500858  0.9169100  0.7500635  )
       143        C      tau( 143) = (  0.5838889  0.2495752  0.0826492  )
       144        C      tau( 144) = (  0.5848897  0.2485726  0.4154598  )
       145        C      tau( 145) = (  0.5830451  0.2504192  0.7494666  )
       146        C      tau( 146) = (  0.5834033  0.5830642  0.0834901  )
       147        C      tau( 147) = (  0.5824005  0.5814868  0.4172483  )
       148        C      tau( 148) = (  0.5840184  0.5844699  0.7507128  )
       149        C      tau( 149) = (  0.5834878  0.9164108  0.0834259  )
       150        C      tau( 150) = (  0.5832819  0.9164596  0.4167393  )
       151        C      tau( 151) = (  0.5836438  0.9171042  0.7502174  )
       152        C      tau( 152) = (  0.9170539  0.2499767  0.0834250  )
       153        C      tau( 153) = (  0.9170040  0.2501819  0.4167387  )
       154        C      tau( 154) = (  0.9163609  0.2498214  0.7502165  )
       155        C      tau( 155) = (  0.9167138  0.5835878  0.0833828  )
       156        C      tau( 156) = (  0.9165372  0.5833918  0.4167561  )
       157        C      tau( 157) = (  0.9165548  0.5833798  0.7500637  )
       158        C      tau( 158) = (  0.9167241  0.9167409  0.0832842  )
       159        C      tau( 159) = (  0.9166360  0.9168284  0.4164943  )
       160        C      tau( 160) = (  0.9167795  0.9166863  0.7500776  )
       161        C      tau( 161) = (  0.2503998  0.0834888  0.2500605  )
       162        C      tau( 162) = (  0.2501803  0.0834660  0.5832837  )
       163        C      tau( 163) = (  0.2498770  0.0833830  0.9167509  )
       164        C      tau( 164) = (  0.2519721  0.4172478  0.2510596  )
       165        C      tau( 165) = (  0.2417282  0.4111334  0.5917316  )
       166        C      tau( 166) = (  0.2500729  0.4167565  0.9169266  )
       167        C      tau( 167) = (  0.2489930  0.7507136  0.2494450  )
       168        C      tau( 168) = (  0.2500768  0.7506341  0.5833869  )
       169        C      tau( 169) = (  0.2500858  0.7500635  0.9169100  )
       170        C      tau( 170) = (  0.5838889  0.0826492  0.2495752  )
       171        C      tau( 171) = (  0.5834033  0.0834901  0.5830642  )
       172        C      tau( 172) = (  0.5834878  0.0834259  0.9164108  )
       173        C      tau( 173) = (  0.5848897  0.4154598  0.2485726  )
       174        C      tau( 174) = (  0.5824005  0.4172483  0.5814868  )
       175        C      tau( 175) = (  0.5832819  0.4167393  0.9164595  )
       176        C      tau( 176) = (  0.5830451  0.7494666  0.2504192  )
       177        C      tau( 177) = (  0.5840184  0.7507128  0.5844699  )
       178        C      tau( 178) = (  0.5836438  0.7502174  0.9171042  )
       179        C      tau( 179) = (  0.9170539  0.0834250  0.2499767  )
       180        C      tau( 180) = (  0.9167138  0.0833828  0.5835878  )
       181        C      tau( 181) = (  0.9167241  0.0832842  0.9167409  )
       182        C      tau( 182) = (  0.9170040  0.4167387  0.2501819  )
       183        C      tau( 183) = (  0.9165372  0.4167561  0.5833918  )
       184        C      tau( 184) = (  0.9166360  0.4164943  0.9168284  )
       185        C      tau( 185) = (  0.9163609  0.7502165  0.2498214  )
       186        C      tau( 186) = (  0.9165548  0.7500637  0.5833798  )
       187        C      tau( 187) = (  0.9167795  0.7500776  0.9166863  )
       188        C      tau( 188) = (  0.0839958  0.2504177  0.2504177  )
       189        C      tau( 189) = (  0.0827496  0.2494447  0.5844701  )
       190        C      tau( 190) = (  0.0832480  0.2498215  0.9171033  )
       191        C      tau( 191) = (  0.0827496  0.5844701  0.2494447  )
       192        C      tau( 192) = (  0.0828294  0.5833871  0.5833872  )
       193        C      tau( 193) = (  0.0834015  0.5833796  0.9169099  )
       194        C      tau( 194) = (  0.0832480  0.9171033  0.2498215  )
       195        C      tau( 195) = (  0.0834015  0.9169099  0.5833796  )
       196        C      tau( 196) = (  0.0833878  0.9166859  0.9166859  )
       197        C      tau( 197) = (  0.4180018  0.2485720  0.2485720  )
       198        C      tau( 198) = (  0.4162130  0.2510612  0.5814877  )
       199        C      tau( 199) = (  0.4167255  0.2501828  0.9164595  )
       200        C      tau( 200) = (  0.4162130  0.5814877  0.2510612  )
       201        C      tau( 201) = (  0.4223234  0.5917286  0.5917286  )
       202        C      tau( 202) = (  0.4167089  0.5833922  0.9169270  )
       203        C      tau( 203) = (  0.4167255  0.9164595  0.2501828  )
       204        C      tau( 204) = (  0.4167089  0.9169270  0.5833922  )
       205        C      tau( 205) = (  0.4169711  0.9168288  0.9168288  )
       206        C      tau( 206) = (  0.7508145  0.2495752  0.2495752  )
       207        C      tau( 207) = (  0.7499744  0.2500611  0.5830640  )
       208        C      tau( 208) = (  0.7500393  0.2499770  0.9164104  )
       209        C      tau( 209) = (  0.7499745  0.5830640  0.2500611  )
       210        C      tau( 210) = (  0.7499979  0.5832842  0.5832842  )
       211        C      tau( 211) = (  0.7500817  0.5835883  0.9167511  )
       212        C      tau( 212) = (  0.7500393  0.9164104  0.2499770  )
       213        C      tau( 213) = (  0.7500817  0.9167511  0.5835883  )
       214        C      tau( 214) = (  0.7501814  0.9167416  0.9167416  )
       215        N      tau( 215) = (  0.4239856  0.4094715  0.4094715  )

     number of k points=     1
                       cart. coord. in units 2pi/alat
        k(    1) = (   0.0000000   0.0000000   0.0000000), wk =   1.0000000

                       cryst. coord.
        k(    1) = (   0.0000000   0.0000000   0.0000000), wk =   1.0000000

     Dense  grid:   338755 G-vectors     FFT dimensions: (  90,  90,  90)

     Dynamical RAM for                 wfc:      23.15 MB

     Dynamical RAM for     wfc (w. buffer):      69.44 MB

     Dynamical RAM for           str. fact:       0.43 MB

     Dynamical RAM for           local pot:       0.00 MB

     Dynamical RAM for          nlocal pot:      46.30 MB

     Dynamical RAM for                qrad:       0.62 MB

     Dynamical RAM for          rho,v,vnew:       2.78 MB

     Dynamical RAM for               rhoin:       0.93 MB

     Dynamical RAM for            rho*nmix:       6.89 MB

     Dynamical RAM for           G-vectors:       0.92 MB

     Dynamical RAM for          h,s,v(r/c):       8.46 MB

     Dynamical RAM for          <psi|beta>:      22.57 MB

     Dynamical RAM for                 psi:      46.30 MB

     Dynamical RAM for                hpsi:      46.30 MB

     Dynamical RAM for                spsi:      46.30 MB

     Dynamical RAM for      wfcinit/wfcrot:      63.23 MB

     Dynamical RAM for           addusdens:      55.58 MB

     Dynamical RAM for          addusforce:     147.69 MB

     Dynamical RAM for         addusstress:      11.09 MB

     Estimated static dynamical RAM per process >     123.53 MB

     Estimated max dynamical RAM per process >     300.35 MB

     Estimated total dynamical RAM >       7.04 GB

     Check: negative core charge=   -0.000075
     Generating pointlists ...
     new r_m :   0.0571 (alat units)  1.1568 (a.u.) for type    1
     new r_m :   0.0572 (alat units)  1.1581 (a.u.) for type    2

     Initial potential from superposition of free atoms

     starting charge     860.9911, renormalised to     859.0000
     Starting wfcs are random
     Checking if some PAW data can be deallocated... 
       PAW data deallocated on   23 nodes for type:  2

     total cpu time spent up to now is       11.5 secs

     per-process dynamical memory:   204.0 Mb

     Self-consistent Calculation

     iteration #  1     ecut=    45.00 Ry     beta= 0.70
     Davidson diagonalization with overlap

---- Real-time Memory Report at c_bands before calling an iterative solver
           385 MiB given to the printing process from OS
           199 MiB allocation reported by mallinfo(arena+hblkhd)
         89831 MiB available memory on the node where the printing process lives
------------------
     ethr =  1.00E-02,  avg # of iterations =  9.0

     total cpu time spent up to now is      148.0 secs

     total energy              =   -3973.28584699 Ry
     estimated scf accuracy    <      12.88819363 Ry

     total magnetization       =     1.00 Bohr mag/cell
     absolute magnetization    =     1.17 Bohr mag/cell

     iteration #  2     ecut=    45.00 Ry     beta= 0.70
     Davidson diagonalization with overlap

---- Real-time Memory Report at c_bands before calling an iterative solver
           673 MiB given to the printing process from OS
           201 MiB allocation reported by mallinfo(arena+hblkhd)
         89111 MiB available memory on the node where the printing process lives
------------------
     ethr =  1.50E-03,  avg # of iterations =  3.0

     total cpu time spent up to now is      183.2 secs

     total energy              =   -3970.38473472 Ry
     estimated scf accuracy    <       8.10048686 Ry

     total magnetization       =     1.00 Bohr mag/cell
     absolute magnetization    =     1.09 Bohr mag/cell

     iteration #  3     ecut=    45.00 Ry     beta= 0.70
     Davidson diagonalization with overlap

---- Real-time Memory Report at c_bands before calling an iterative solver
           682 MiB given to the printing process from OS
           210 MiB allocation reported by mallinfo(arena+hblkhd)
         89018 MiB available memory on the node where the printing process lives
------------------
     ethr =  9.43E-04,  avg # of iterations = 10.0

     total cpu time spent up to now is      233.8 secs

     total energy              =   -3970.75301083 Ry
     estimated scf accuracy    <      30.70204958 Ry

     total magnetization       =     1.00 Bohr mag/cell
     absolute magnetization    =     1.08 Bohr mag/cell

     iteration #  4     ecut=    45.00 Ry     beta= 0.70
     Davidson diagonalization with overlap

---- Real-time Memory Report at c_bands before calling an iterative solver
           694 MiB given to the printing process from OS
           211 MiB allocation reported by mallinfo(arena+hblkhd)
         88927 MiB available memory on the node where the printing process lives
------------------
     ethr =  9.43E-04,  avg # of iterations =  7.0

     total cpu time spent up to now is      277.4 secs

     total energy              =   -3974.36768219 Ry
     estimated scf accuracy    <       1.72464662 Ry

     total magnetization       =     1.00 Bohr mag/cell
     absolute magnetization    =     1.07 Bohr mag/cell

     iteration #  5     ecut=    45.00 Ry     beta= 0.70
     Davidson diagonalization with overlap

---- Real-time Memory Report at c_bands before calling an iterative solver
           700 MiB given to the printing process from OS
           212 MiB allocation reported by mallinfo(arena+hblkhd)
         88923 MiB available memory on the node where the printing process lives
------------------
     ethr =  2.01E-04,  avg # of iterations =  8.0

     total cpu time spent up to now is      317.5 secs

     total energy              =   -3974.49647499 Ry
     estimated scf accuracy    <       0.24092024 Ry

     total magnetization       =     1.00 Bohr mag/cell
     absolute magnetization    =     1.06 Bohr mag/cell

     iteration #  6     ecut=    45.00 Ry     beta= 0.70
     Davidson diagonalization with overlap

---- Real-time Memory Report at c_bands before calling an iterative solver
           705 MiB given to the printing process from OS
           214 MiB allocation reported by mallinfo(arena+hblkhd)
         88893 MiB available memory on the node where the printing process lives
------------------
     ethr =  2.80E-05,  avg # of iterations = 11.0

     total cpu time spent up to now is      360.7 secs

     total energy              =   -3974.48929037 Ry
     estimated scf accuracy    <       0.10281635 Ry

     total magnetization       =     1.00 Bohr mag/cell
     absolute magnetization    =     1.07 Bohr mag/cell

     iteration #  7     ecut=    45.00 Ry     beta= 0.70
     Davidson diagonalization with overlap

---- Real-time Memory Report at c_bands before calling an iterative solver
           710 MiB given to the printing process from OS
           215 MiB allocation reported by mallinfo(arena+hblkhd)
         88869 MiB available memory on the node where the printing process lives
------------------
     ethr =  1.20E-05,  avg # of iterations =  8.0

     total cpu time spent up to now is      400.0 secs

     total energy              =   -3974.49298435 Ry
     estimated scf accuracy    <       0.01880918 Ry

     total magnetization       =     1.00 Bohr mag/cell
     absolute magnetization    =     1.09 Bohr mag/cell

     iteration #  8     ecut=    45.00 Ry     beta= 0.70
     Davidson diagonalization with overlap

---- Real-time Memory Report at c_bands before calling an iterative solver
           716 MiB given to the printing process from OS
           216 MiB allocation reported by mallinfo(arena+hblkhd)
         88851 MiB available memory on the node where the printing process lives
------------------
     ethr =  2.19E-06,  avg # of iterations =  9.5

     total cpu time spent up to now is      445.0 secs

     total energy              =   -3974.49533890 Ry
     estimated scf accuracy    <       0.00416193 Ry

     total magnetization       =     1.00 Bohr mag/cell
     absolute magnetization    =     1.11 Bohr mag/cell

     iteration #  9     ecut=    45.00 Ry     beta= 0.70
     Davidson diagonalization with overlap

---- Real-time Memory Report at c_bands before calling an iterative solver
           719 MiB given to the printing process from OS
           217 MiB allocation reported by mallinfo(arena+hblkhd)
         88831 MiB available memory on the node where the printing process lives
------------------
     ethr =  4.85E-07,  avg # of iterations =  2.0

     total cpu time spent up to now is      479.3 secs

     total energy              =   -3974.49606096 Ry
     estimated scf accuracy    <       0.00108364 Ry

     total magnetization       =     1.00 Bohr mag/cell
     absolute magnetization    =     1.12 Bohr mag/cell

     iteration # 10     ecut=    45.00 Ry     beta= 0.70
     Davidson diagonalization with overlap

---- Real-time Memory Report at c_bands before calling an iterative solver
           723 MiB given to the printing process from OS
           218 MiB allocation reported by mallinfo(arena+hblkhd)
         88796 MiB available memory on the node where the printing process lives
------------------
     ethr =  1.26E-07,  avg # of iterations =  2.0

     total cpu time spent up to now is      513.6 secs

     total energy              =   -3974.49619792 Ry
     estimated scf accuracy    <       0.00019975 Ry

     total magnetization       =     1.00 Bohr mag/cell
     absolute magnetization    =     1.12 Bohr mag/cell

     iteration # 11     ecut=    45.00 Ry     beta= 0.70
     Davidson diagonalization with overlap

---- Real-time Memory Report at c_bands before calling an iterative solver
           728 MiB given to the printing process from OS
           219 MiB allocation reported by mallinfo(arena+hblkhd)
         88761 MiB available memory on the node where the printing process lives
------------------
     ethr =  2.33E-08,  avg # of iterations =  2.0

     total cpu time spent up to now is      547.9 secs

     total energy              =   -3974.49623063 Ry
     estimated scf accuracy    <       0.00010036 Ry

     total magnetization       =     1.00 Bohr mag/cell
     absolute magnetization    =     1.12 Bohr mag/cell

     iteration # 12     ecut=    45.00 Ry     beta= 0.70
     Davidson diagonalization with overlap

---- Real-time Memory Report at c_bands before calling an iterative solver
           730 MiB given to the printing process from OS
           219 MiB allocation reported by mallinfo(arena+hblkhd)
         88754 MiB available memory on the node where the printing process lives
------------------
     ethr =  1.17E-08,  avg # of iterations =  1.5

     total cpu time spent up to now is      579.4 secs

     total energy              =   -3974.49624517 Ry
     estimated scf accuracy    <       0.00001414 Ry

     total magnetization       =     1.00 Bohr mag/cell
     absolute magnetization    =     1.12 Bohr mag/cell

     iteration # 13     ecut=    45.00 Ry     beta= 0.70
     Davidson diagonalization with overlap

---- Real-time Memory Report at c_bands before calling an iterative solver
           731 MiB given to the printing process from OS
           219 MiB allocation reported by mallinfo(arena+hblkhd)
         88756 MiB available memory on the node where the printing process lives
------------------
     ethr =  1.65E-09,  avg # of iterations =  2.0

     total cpu time spent up to now is      613.7 secs

     total energy              =   -3974.49624714 Ry
     estimated scf accuracy    <       0.00000418 Ry

     total magnetization       =     1.00 Bohr mag/cell
     absolute magnetization    =     1.12 Bohr mag/cell

     iteration # 14     ecut=    45.00 Ry     beta= 0.70
     Davidson diagonalization with overlap

---- Real-time Memory Report at c_bands before calling an iterative solver
           733 MiB given to the printing process from OS
           219 MiB allocation reported by mallinfo(arena+hblkhd)
         88759 MiB available memory on the node where the printing process lives
------------------
     ethr =  4.87E-10,  avg # of iterations =  2.0

     total cpu time spent up to now is      648.0 secs

     total energy              =   -3974.49624786 Ry
     estimated scf accuracy    <       0.00000029 Ry

     total magnetization       =     1.00 Bohr mag/cell
     absolute magnetization    =     1.12 Bohr mag/cell

     iteration # 15     ecut=    45.00 Ry     beta= 0.70
     Davidson diagonalization with overlap

---- Real-time Memory Report at c_bands before calling an iterative solver
           734 MiB given to the printing process from OS
           219 MiB allocation reported by mallinfo(arena+hblkhd)
         88757 MiB available memory on the node where the printing process lives
------------------
     ethr =  3.38E-11,  avg # of iterations =  2.0

     total cpu time spent up to now is      682.6 secs

     total energy              =   -3974.49624792 Ry
     estimated scf accuracy    <       0.00000027 Ry

     total magnetization       =     1.00 Bohr mag/cell
     absolute magnetization    =     1.12 Bohr mag/cell

     iteration # 16     ecut=    45.00 Ry     beta= 0.70
     Davidson diagonalization with overlap

---- Real-time Memory Report at c_bands before calling an iterative solver
           734 MiB given to the printing process from OS
           219 MiB allocation reported by mallinfo(arena+hblkhd)
         88761 MiB available memory on the node where the printing process lives
------------------
     ethr =  3.18E-11,  avg # of iterations =  2.0

     total cpu time spent up to now is      716.9 secs

     total energy              =   -3974.49624798 Ry
     estimated scf accuracy    <       0.00000008 Ry

     total magnetization       =     1.00 Bohr mag/cell
     absolute magnetization    =     1.12 Bohr mag/cell

     iteration # 17     ecut=    45.00 Ry     beta= 0.70
     Davidson diagonalization with overlap

---- Real-time Memory Report at c_bands before calling an iterative solver
           735 MiB given to the printing process from OS
           219 MiB allocation reported by mallinfo(arena+hblkhd)
         88764 MiB available memory on the node where the printing process lives
------------------
     ethr =  9.64E-12,  avg # of iterations =  2.0
 
     Magnetic moment per site  (integrated on atomic sphere of radius R)
     atom   1 (R=0.057)  charge=  1.8348  magn=  0.0014
     atom   2 (R=0.057)  charge=  1.8347  magn=  0.0011
     atom   3 (R=0.057)  charge=  1.8363  magn=  0.0012
     atom   4 (R=0.057)  charge=  1.8347  magn=  0.0011
     atom   5 (R=0.057)  charge=  1.8347  magn=  0.0009
     atom   6 (R=0.057)  charge=  1.8375  magn=  0.0008
     atom   7 (R=0.057)  charge=  1.8363  magn=  0.0012
     atom   8 (R=0.057)  charge=  1.8375  magn=  0.0008
     atom   9 (R=0.057)  charge=  1.8357  magn=  0.0012
     atom  10 (R=0.057)  charge=  1.8341  magn=  0.0021
     atom  11 (R=0.057)  charge=  1.8362  magn=  0.0008
     atom  12 (R=0.057)  charge=  1.8365  magn=  0.0008
     atom  13 (R=0.057)  charge=  1.8362  magn=  0.0008
     atom  14 (R=0.057)  charge=  1.8066  magn=  0.0044
     atom  15 (R=0.057)  charge=  1.8296  magn=  0.0007
     atom  16 (R=0.057)  charge=  1.8365  magn=  0.0008
     atom  17 (R=0.057)  charge=  1.8296  magn=  0.0007
     atom  18 (R=0.057)  charge=  1.8429  magn=  0.0043
     atom  19 (R=0.057)  charge=  1.8338  magn=  0.0015
     atom  20 (R=0.057)  charge=  1.8358  magn=  0.0014
     atom  21 (R=0.057)  charge=  1.8357  magn=  0.0009
     atom  22 (R=0.057)  charge=  1.8358  magn=  0.0014
     atom  23 (R=0.057)  charge=  1.8384  magn=  0.0020
     atom  24 (R=0.057)  charge=  1.8303  magn=  0.0009
     atom  25 (R=0.057)  charge=  1.8357  magn=  0.0009
     atom  26 (R=0.057)  charge=  1.8303  magn=  0.0009
     atom  27 (R=0.057)  charge=  1.8376  magn=  0.0008
     atom  28 (R=0.057)  charge=  1.8358  magn=  0.0009
     atom  29 (R=0.057)  charge=  1.8300  magn=  0.0009
     atom  30 (R=0.057)  charge=  1.8378  magn=  0.0008
     atom  31 (R=0.057)  charge=  1.8366  magn=  0.0008
     atom  32 (R=0.057)  charge=  1.8295  magn=  0.0007
     atom  33 (R=0.057)  charge=  1.8427  magn=  0.0043
     atom  34 (R=0.057)  charge=  1.8363  magn=  0.0012
     atom  35 (R=0.057)  charge=  1.8375  magn=  0.0008
     atom  36 (R=0.057)  charge=  1.8357  magn=  0.0012
     atom  37 (R=0.057)  charge=  1.8358  magn=  0.0014
     atom  38 (R=0.057)  charge=  1.8385  magn=  0.0020
     atom  39 (R=0.057)  charge=  1.8301  magn=  0.0009
     atom  40 (R=0.057)  charge=  1.8361  magn=  0.0008
     atom  41 (R=0.057)  charge=  1.8068  magn=  0.0044
     atom  42 (R=0.057)  charge=  1.8298  magn=  0.0007
     atom  43 (R=0.057)  charge=  1.8346  magn=  0.0011
     atom  44 (R=0.057)  charge=  1.8345  magn=  0.0009
     atom  45 (R=0.057)  charge=  1.8375  magn=  0.0008
     atom  46 (R=0.057)  charge=  1.8340  magn=  0.0015
     atom  47 (R=0.057)  charge=  1.8361  magn=  0.0014
     atom  48 (R=0.057)  charge=  1.8356  magn=  0.0009
     atom  49 (R=0.057)  charge=  1.8341  magn=  0.0021
     atom  50 (R=0.057)  charge=  1.8362  magn=  0.0008
     atom  51 (R=0.057)  charge=  1.8363  magn=  0.0008
     atom  52 (R=0.057)  charge=  1.8347  magn=  0.0014
     atom  53 (R=0.057)  charge=  1.8343  magn=  0.0011
     atom  54 (R=0.057)  charge=  1.8363  magn=  0.0012
     atom  55 (R=0.057)  charge=  1.8358  magn=  0.0009
     atom  56 (R=0.057)  charge=  1.8366  magn=  0.0008
     atom  57 (R=0.057)  charge=  1.8363  magn=  0.0012
     atom  58 (R=0.057)  charge=  1.8300  magn=  0.0009
     atom  59 (R=0.057)  charge=  1.8295  magn=  0.0007
     atom  60 (R=0.057)  charge=  1.8375  magn=  0.0008
     atom  61 (R=0.057)  charge=  1.8378  magn=  0.0008
     atom  62 (R=0.057)  charge=  1.8427  magn=  0.0043
     atom  63 (R=0.057)  charge=  1.8357  magn=  0.0012
     atom  64 (R=0.057)  charge=  1.8358  magn=  0.0014
     atom  65 (R=0.057)  charge=  1.8361  magn=  0.0008
     atom  66 (R=0.057)  charge=  1.8346  magn=  0.0011
     atom  67 (R=0.057)  charge=  1.8385  magn=  0.0020
     atom  68 (R=0.057)  charge=  1.8068  magn=  0.0044
     atom  69 (R=0.057)  charge=  1.8345  magn=  0.0009
     atom  70 (R=0.057)  charge=  1.8301  magn=  0.0009
     atom  71 (R=0.057)  charge=  1.8298  magn=  0.0007
     atom  72 (R=0.057)  charge=  1.8375  magn=  0.0008
     atom  73 (R=0.057)  charge=  1.8340  magn=  0.0015
     atom  74 (R=0.057)  charge=  1.8341  magn=  0.0021
     atom  75 (R=0.057)  charge=  1.8347  magn=  0.0014
     atom  76 (R=0.057)  charge=  1.8361  magn=  0.0014
     atom  77 (R=0.057)  charge=  1.8362  magn=  0.0008
     atom  78 (R=0.057)  charge=  1.8343  magn=  0.0011
     atom  79 (R=0.057)  charge=  1.8356  magn=  0.0009
     atom  80 (R=0.057)  charge=  1.8363  magn=  0.0008
     atom  81 (R=0.057)  charge=  1.8363  magn=  0.0012
     atom  82 (R=0.057)  charge=  1.8346  magn=  0.0011
     atom  83 (R=0.057)  charge=  1.8348  magn=  0.0005
     atom  84 (R=0.057)  charge=  1.8353  magn=  0.0011
     atom  85 (R=0.057)  charge=  1.8348  magn=  0.0005
     atom  86 (R=0.057)  charge=  1.8383  magn=  0.0008
     atom  87 (R=0.057)  charge=  1.8372  magn=  0.0036
     atom  88 (R=0.057)  charge=  1.8353  magn=  0.0011
     atom  89 (R=0.057)  charge=  1.8372  magn=  0.0036
     atom  90 (R=0.057)  charge=  1.8353  magn=  0.0019
     atom  91 (R=0.057)  charge=  1.8384  magn=  0.0035
     atom  92 (R=0.057)  charge=  1.8404  magn=  0.0010
     atom  93 (R=0.057)  charge=  1.8348  magn=  0.0005
     atom  94 (R=0.057)  charge=  1.8404  magn=  0.0010
     atom  95 (R=0.057)  charge=  1.8383  magn=  0.0008
     atom  96 (R=0.057)  charge=  1.8348  magn=  0.0005
     atom  97 (R=0.057)  charge=  1.8383  magn=  0.0008
     atom  98 (R=0.057)  charge=  1.8372  magn=  0.0036
     atom  99 (R=0.057)  charge=  1.8352  magn=  0.0021
     atom 100 (R=0.057)  charge=  1.8385  magn=  0.0035
     atom 101 (R=0.057)  charge=  1.8342  magn=  0.0011
     atom 102 (R=0.057)  charge=  1.8385  magn=  0.0035
     atom 103 (R=0.057)  charge=  1.8400  magn=  0.0010
     atom 104 (R=0.057)  charge=  1.8344  magn=  0.0005
     atom 105 (R=0.057)  charge=  1.8342  magn=  0.0011
     atom 106 (R=0.057)  charge=  1.8344  magn=  0.0005
     atom 107 (R=0.057)  charge=  1.8352  magn=  0.0011
     atom 108 (R=0.057)  charge=  1.8342  magn=  0.0013
     atom 109 (R=0.057)  charge=  1.8316  magn=  0.0010
     atom 110 (R=0.057)  charge=  1.8328  magn=  0.0018
     atom 111 (R=0.057)  charge=  1.8316  magn=  0.0010
     atom 112 (R=0.057)  charge=  1.8351  magn=  0.0007
     atom 113 (R=0.057)  charge=  1.8241  magn=  0.0047
     atom 114 (R=0.057)  charge=  1.8328  magn=  0.0018
     atom 115 (R=0.057)  charge=  1.8241  magn=  0.0047
     atom 116 (R=0.057)  charge=  1.8342  magn=  0.0024
     atom 117 (R=0.057)  charge=  1.8340  magn=  0.0033
     atom 118 (R=0.057)  charge=  1.8338  magn=  0.0021
     atom 119 (R=0.057)  charge=  1.8318  magn=  0.0010
     atom 120 (R=0.057)  charge=  1.8338  magn=  0.0021
     atom 121 (R=0.057)  charge=  1.8352  magn=  0.0007
     atom 122 (R=0.057)  charge=  1.8318  magn=  0.0010
     atom 123 (R=0.057)  charge=  1.8352  magn=  0.0007
     atom 124 (R=0.057)  charge=  1.8241  magn=  0.0047
     atom 125 (R=0.057)  charge=  1.8338  magn=  0.0034
     atom 126 (R=0.057)  charge=  1.8340  magn=  0.0033
     atom 127 (R=0.057)  charge=  1.8342  magn=  0.0013
     atom 128 (R=0.057)  charge=  1.8340  magn=  0.0033
     atom 129 (R=0.057)  charge=  1.8338  magn=  0.0021
     atom 130 (R=0.057)  charge=  1.8319  magn=  0.0010
     atom 131 (R=0.057)  charge=  1.8342  magn=  0.0013
     atom 132 (R=0.057)  charge=  1.8319  magn=  0.0010
     atom 133 (R=0.057)  charge=  1.8326  magn=  0.0018
     atom 134 (R=0.057)  charge=  1.8339  magn=  0.0008
     atom 135 (R=0.057)  charge=  1.8286  magn=  0.0034
     atom 136 (R=0.057)  charge=  1.8198  magn=  0.0038
     atom 137 (R=0.057)  charge=  1.8336  magn=  0.0020
     atom 138 (R=0.057)  charge=  1.8023  magn=  0.0294
     atom 139 (R=0.057)  charge=  1.8347  magn=  0.0015
     atom 140 (R=0.057)  charge=  1.8319  magn=  0.0012
     atom 141 (R=0.057)  charge=  1.8338  magn=  0.0010
     atom 142 (R=0.057)  charge=  1.8341  magn=  0.0014
     atom 143 (R=0.057)  charge=  1.8343  magn=  0.0045
     atom 144 (R=0.057)  charge=  1.8371  magn=  0.0129
     atom 145 (R=0.057)  charge=  1.8344  magn=  0.0005
     atom 146 (R=0.057)  charge=  1.8339  magn=  0.0008
     atom 147 (R=0.057)  charge=  1.8286  magn=  0.0034
     atom 148 (R=0.057)  charge=  1.8198  magn=  0.0038
     atom 149 (R=0.057)  charge=  1.8345  magn=  0.0020
     atom 150 (R=0.057)  charge=  1.8343  magn=  0.0009
     atom 151 (R=0.057)  charge=  1.8328  magn=  0.0015
     atom 152 (R=0.057)  charge=  1.8345  magn=  0.0020
     atom 153 (R=0.057)  charge=  1.8342  magn=  0.0009
     atom 154 (R=0.057)  charge=  1.8331  magn=  0.0015
     atom 155 (R=0.057)  charge=  1.8319  magn=  0.0012
     atom 156 (R=0.057)  charge=  1.8338  magn=  0.0010
     atom 157 (R=0.057)  charge=  1.8341  magn=  0.0014
     atom 158 (R=0.057)  charge=  1.8333  magn=  0.0021
     atom 159 (R=0.057)  charge=  1.8326  magn=  0.0025
     atom 160 (R=0.057)  charge=  1.8339  magn=  0.0019
     atom 161 (R=0.057)  charge=  1.8339  magn=  0.0008
     atom 162 (R=0.057)  charge=  1.8336  magn=  0.0020
     atom 163 (R=0.057)  charge=  1.8319  magn=  0.0012
     atom 164 (R=0.057)  charge=  1.8286  magn=  0.0034
     atom 165 (R=0.057)  charge=  1.8023  magn=  0.0294
     atom 166 (R=0.057)  charge=  1.8338  magn=  0.0010
     atom 167 (R=0.057)  charge=  1.8198  magn=  0.0038
     atom 168 (R=0.057)  charge=  1.8347  magn=  0.0015
     atom 169 (R=0.057)  charge=  1.8341  magn=  0.0014
     atom 170 (R=0.057)  charge=  1.8343  magn=  0.0045
     atom 171 (R=0.057)  charge=  1.8339  magn=  0.0008
     atom 172 (R=0.057)  charge=  1.8345  magn=  0.0020
     atom 173 (R=0.057)  charge=  1.8371  magn=  0.0129
     atom 174 (R=0.057)  charge=  1.8286  magn=  0.0034
     atom 175 (R=0.057)  charge=  1.8343  magn=  0.0009
     atom 176 (R=0.057)  charge=  1.8344  magn=  0.0005
     atom 177 (R=0.057)  charge=  1.8198  magn=  0.0038
     atom 178 (R=0.057)  charge=  1.8328  magn=  0.0015
     atom 179 (R=0.057)  charge=  1.8345  magn=  0.0020
     atom 180 (R=0.057)  charge=  1.8319  magn=  0.0012
     atom 181 (R=0.057)  charge=  1.8333  magn=  0.0021
     atom 182 (R=0.057)  charge=  1.8342  magn=  0.0009
     atom 183 (R=0.057)  charge=  1.8338  magn=  0.0010
     atom 184 (R=0.057)  charge=  1.8326  magn=  0.0025
     atom 185 (R=0.057)  charge=  1.8331  magn=  0.0015
     atom 186 (R=0.057)  charge=  1.8341  magn=  0.0014
     atom 187 (R=0.057)  charge=  1.8339  magn=  0.0019
     atom 188 (R=0.057)  charge=  1.8342  magn=  0.0005
     atom 189 (R=0.057)  charge=  1.8199  magn=  0.0038
     atom 190 (R=0.057)  charge=  1.8330  magn=  0.0015
     atom 191 (R=0.057)  charge=  1.8199  magn=  0.0038
     atom 192 (R=0.057)  charge=  1.8350  magn=  0.0015
     atom 193 (R=0.057)  charge=  1.8341  magn=  0.0014
     atom 194 (R=0.057)  charge=  1.8330  magn=  0.0015
     atom 195 (R=0.057)  charge=  1.8341  magn=  0.0014
     atom 196 (R=0.057)  charge=  1.8339  magn=  0.0019
     atom 197 (R=0.057)  charge=  1.8373  magn=  0.0129
     atom 198 (R=0.057)  charge=  1.8286  magn=  0.0034
     atom 199 (R=0.057)  charge=  1.8343  magn=  0.0009
     atom 200 (R=0.057)  charge=  1.8286  magn=  0.0034
     atom 201 (R=0.057)  charge=  1.8023  magn=  0.0294
     atom 202 (R=0.057)  charge=  1.8338  magn=  0.0010
     atom 203 (R=0.057)  charge=  1.8343  magn=  0.0009
     atom 204 (R=0.057)  charge=  1.8338  magn=  0.0010
     atom 205 (R=0.057)  charge=  1.8325  magn=  0.0025
     atom 206 (R=0.057)  charge=  1.8342  magn=  0.0045
     atom 207 (R=0.057)  charge=  1.8339  magn=  0.0008
     atom 208 (R=0.057)  charge=  1.8345  magn=  0.0020
     atom 209 (R=0.057)  charge=  1.8339  magn=  0.0008
     atom 210 (R=0.057)  charge=  1.8336  magn=  0.0020
     atom 211 (R=0.057)  charge=  1.8319  magn=  0.0012
     atom 212 (R=0.057)  charge=  1.8345  magn=  0.0020
     atom 213 (R=0.057)  charge=  1.8319  magn=  0.0012
     atom 214 (R=0.057)  charge=  1.8333  magn=  0.0021
     atom 215 (R=0.057)  charge=  2.9078  magn=  0.1192

     total cpu time spent up to now is      751.3 secs

     End of self-consistent calculation

 ------ SPIN UP ------------


          k = 0.0000 0.0000 0.0000 ( 42379 PWs)   bands (ev):

    -8.2979  -7.6517  -7.2299  -7.2299  -7.1895  -7.1895  -7.1710  -6.6704
    -6.2541  -6.2541  -6.2212  -6.2212  -6.2079  -6.1869  -6.1869  -6.1831
    -6.1831  -6.1783  -6.0749  -5.4881  -5.2480  -5.2480  -5.2469  -5.2184
    -5.2159  -5.2159  -5.1005  -4.5621  -4.2481  -4.2481  -4.2333  -4.2333
    -4.1197  -3.8930  -3.4016  -3.4016  -3.3641  -3.3641  -3.3193  -3.3193
    -3.2958  -3.2931  -3.2926  -3.2926  -3.2872  -3.2856  -3.2856  -3.2793
    -3.2793  -3.2743  -3.2688  -3.2688  -3.2672  -3.2672  -3.2630  -3.2430
    -2.9722  -2.8048  -2.6221  -2.6221  -2.5412  -2.5328  -2.5327  -2.5205
    -2.5205  -2.5159  -2.5136  -2.5135  -2.4961  -2.4806  -2.4806  -2.4713
    -2.4687  -2.4687  -2.4656  -2.4626  -2.4626  -2.4536  -2.4384  -2.4384
    -1.8681  -1.0713  -0.8918  -0.8918  -0.8641  -0.8641  -0.8552  -0.8449
    -0.8449  -0.8251  -0.8131  -0.8131  -0.5438   0.2751   0.3897   0.3897
     0.4441   0.4441   0.5507   0.7112   0.8240   0.8240   0.9149   0.9149
     0.9233   0.9233   0.9257   0.9555   0.9555   0.9665   0.9944   1.0041
     1.0041   1.0125   1.0132   1.0132   1.0160   1.0160   1.0162   1.0357
     1.0359   1.0359   1.0420   1.1578   1.1702   1.1702   1.1815   1.1816
     1.1843   1.1843   1.2021   1.2021   1.2091   1.2091   1.2161   1.2382
     1.2382   1.2387   1.2388   1.2435   1.2435   1.2491   1.2491   1.2919
     1.4335   1.4336   1.9917   2.1985   2.1985   2.2116   2.2299   2.2712
     2.2737   2.2737   2.2823   2.2823   2.3395   2.3395   3.2716   3.6913
     3.6913   3.7182   3.7663   3.8086   3.8086   3.8353   3.8360   3.8360
     3.8430   3.8477   3.8523   3.8523   3.8563   3.8563   3.8572   3.9914
     3.9914   4.0015   4.0169   4.3418   4.3418   4.3810   4.4383   4.4421
     4.4421   4.4483   4.4742   4.4742   4.4958   4.4958   4.5072   4.5077
     4.5077   4.5136   4.5136   4.5224   4.5224   4.5242   4.5378   4.5498
     4.6746   4.6746   5.1715   5.1715   5.3028   5.3059   5.3530   5.3531
     5.3576   5.3756   5.3756   5.3866   5.4212   5.4212   5.4296   5.4337
     5.4337   5.4346   5.4387   5.4387   5.4520   5.4520   5.4579   5.5427
     5.5527   5.5527   5.6106   5.7790   5.7791   5.8087   5.8493   5.8493
     5.8767   5.8767   5.8895   5.8907   5.8907   5.8971   5.9005   5.9046
     5.9046   5.9068   5.9192   5.9192   5.9219   5.9219   5.9273   5.9315
     5.9363   5.9537   5.9537   6.0014   6.0014   6.2556   6.3110   6.3111
     6.8463   6.8463   6.9027   6.9193   6.9266   6.9266   6.9860   7.3552
     7.3552   7.4027   7.4799   7.4799   7.4864   7.4864   7.4956   7.5065
     7.5566   7.5566   7.6840   7.6840   7.7913   7.8202   7.8415   7.8415
     7.8471   7.8835   7.8836   7.9045   7.9197   7.9245   7.9245   7.9608
     7.9608   8.0250   8.0251   8.0561   8.1172   8.1743   8.1743   8.1819
     8.1959   8.1959   8.2014   8.2014   8.2250   8.2330   8.2493   8.2493
     8.2512   8.2614   8.2614   8.2725   8.2726   8.2836   8.2923   8.2924
     8.3002   8.3041   8.3224   8.3514   8.3514   8.3595   8.3611   8.3611
     8.3682   8.3838   8.3838   8.3905   8.3905   8.3913   8.3971   8.3971
     8.3991   8.4045   8.4056   8.4056   8.4099   8.4099   8.4146   8.4175
     8.4175   8.4186   8.4291   8.4291   8.4364   8.4682   8.4682   8.5139
     8.5139   8.5153   8.5201   8.5201   8.5284   8.5284   8.5287   8.5372
     8.5433   8.5433   8.5579   8.9688   8.9976   8.9976   9.1211   9.1212
     9.1601   9.1601   9.1770   9.2043   9.2074   9.2074   9.2258   9.2276
     9.2297   9.2298   9.2481   9.2481   9.2497   9.2576   9.2576   9.2688
     9.2734   9.2734   9.2912   9.7733   9.9566   9.9567  10.2068  10.5206
    10.5207  10.5449  10.5704  10.5763  10.5763  10.6398  10.6398  10.6459
    10.7124  10.7124  10.7127  10.7426  10.7427  10.8352  10.8352  10.8597
    10.8598  10.8598  10.8620  10.8623  10.8623  10.8678  10.8678  10.8775
    10.9253  10.9288  10.9288  10.9329  10.9329  11.3568  11.5961  11.5997
    11.5997  11.7600  11.7601  11.7742  11.8036  11.8039  11.8039  11.8158
    11.8193  11.8194  12.6465  12.9704  12.9705  13.3593  14.2407  14.2409
    17.3393  17.3499  17.3499  17.4199  17.4199  17.4392  17.8621  17.9598
    17.9598  17.9909  18.0011  18.0011  18.1234  18.1328  18.1328  18.2490
    18.2490  18.2504  18.8067  18.8097  18.8098  19.3178  19.5022  19.5022
    19.5117  19.5118  19.5145  19.5355  19.6142  19.6142  19.6401  19.6401
    19.6933  19.9921  20.1605  20.1606  20.1823  20.2130  20.2165  20.2165
    20.2291  20.2291  20.2781  20.2956  20.2978  20.2978  20.3138  20.3138
    20.3247  20.3281  20.3281  20.3824  20.3824  20.3835  20.4332  20.4332
    20.4567  20.6172  20.6172  20.6444  20.7224  20.7540  20.7540  20.7746
    20.7746  20.8187  20.8187  20.8198  20.8326  20.8413  20.8494  20.8494
    20.8516  20.8603  20.8603  20.8702  20.8703  20.8764  20.8878  20.8879
    20.8936  20.8937  20.8998  20.9038  20.9038  20.9054  20.9156  20.9255
    20.9256  20.9349  20.9349  20.9409  20.9435  21.0507  21.0617  21.0617
    21.1250  21.1251  21.1411  21.2243  21.2677  21.2677  21.3249  21.3392
    21.3568  21.3568  21.3852  21.3852  21.3892  21.3922  21.3922  21.4067
    21.4094  21.4095  21.4095  21.4182  21.4182  21.4276  21.4318  21.4318
    21.4365  21.4417  21.4417  21.4517  21.4517  21.4544  21.4654  21.4654
    21.4774  21.4775  21.4817  21.4921  21.5116  21.5116  21.5911  21.5911
    21.6017  21.6466  21.7149  21.7149  21.7371  21.7371  21.7382  21.7646
    21.7788  21.7788  21.7869  21.7942  21.8069  21.8090  21.8090  21.8176
    21.8176  21.9431  21.9431  22.0470  22.0471  22.0560  22.1562  22.1562
    22.1638  22.2186  22.2186  22.2267  22.2381  22.2382  22.2571  22.3880
    22.3964  22.3964  22.4360  22.4999  22.5000  22.5078  22.5078  22.5161
    22.5986  22.6029  22.6029  22.6146  22.8241  22.8241  22.8498  23.1318
    23.1318  23.1380  23.1387  23.1531  23.1531  23.1658  23.1681  23.1681
    23.1837  23.1957  23.1957  23.2027  23.2087  23.2151  23.2151  23.2288
    23.2819  23.2820  23.3712  23.3712  23.3963  23.4365  23.4366  23.7050
    23.7091  23.7317  23.7318  23.7912  23.7912  23.8801  23.8845  23.8846
    23.8956  23.9109  23.9109  23.9128  23.9500  23.9500  23.9571  23.9651
    23.9979  23.9979  24.0012  24.1145  24.1145  24.1294  24.1294  24.2337
    24.2338  24.2913  24.2964  24.3208  24.3208  24.3484  24.3484  24.3496
    24.3638  24.3638  24.3813  24.3940  24.3940  24.3969  24.4205  24.4205
    24.4367  24.4457  24.4457  24.4761  24.4804  24.4805  24.4968  24.5153
    24.5417  24.5417  24.5464  24.5469  24.5586  24.5586  24.5762  24.5782
    24.5783  24.5828  24.5828  24.5946  24.5998  24.5998  24.6099  24.6099
    24.6119  24.7662  24.7662  25.3130  25.3988  25.3989  25.4102  25.7936
    25.7936  25.7975  25.8564  25.8564  25.9861  26.0040  26.0040  26.0211
    26.0713  26.0714  26.1642  26.1642  26.1679  26.1797  26.2532  26.2533
    26.2551  26.4601  26.5624  26.5625  26.5769  26.6512  26.6569  26.6569
    26.6665  26.7101  26.7101  26.7271  26.7271  26.7362  26.7566  26.7566
    26.7918  26.8144  26.8460  26.8460  26.8661  26.8996  26.8996  26.9213
    26.9213  27.0418  27.0419  27.0913  27.0923  27.1118  27.1118  27.1755
    27.1755  27.1893  27.1917  27.1958  27.1958  27.2399  27.2523  27.2523
    27.2572  27.2688  27.2689  27.2824  27.2824  27.2915  27.3068  27.3119
    27.3119  27.3194  27.3194  27.3217  27.3247  27.3294  27.3295  27.3327
    27.3342  27.3342  27.3527  27.3527  27.3544  27.3670  27.3736  27.3736
    27.3996  27.4094  27.4094  27.4205  27.4352  27.4493  27.4493  27.4587
    27.4588  27.4670  27.4980  27.4980  27.5092  27.5320  27.5359  27.5360
    27.5589  27.5625  27.5625  27.5731  27.5731  27.5762  27.5815  27.5815
    27.6001  27.6077  27.6077  27.6323  27.6462  27.6463  27.6567  27.6584
    27.6643  27.6643  27.7051  27.7482  27.7482  27.7614  27.7614  27.9199
    27.9199  27.9252  27.9699  28.0241  28.0620  28.0620  28.0927  28.0927
    28.1207  28.1207  28.1272  28.1756  28.1756  28.2438  28.2737  28.3505
    28.3636  28.3636  28.3676  28.4222  28.4222  28.4235  29.0084  29.7807
    29.8363  29.8363  29.9069  29.9070

     occupation numbers 
     1.0000   1.0000   1.0000   1.0000   1.0000   1.0000   1.0000   1.0000
     1.0000   1.0000   1.0000   1.0000   1.0000   1.0000   1.0000   1.0000
     1.0000   1.0000   1.0000   1.0000   1.0000   1.0000   1.0000   1.0000
     1.0000   1.0000   1.0000   1.0000   1.0000   1.0000   1.0000   1.0000
     1.0000   1.0000   1.0000   1.0000   1.0000   1.0000   1.0000   1.0000
     1.0000   1.0000   1.0000   1.0000   1.0000   1.0000   1.0000   1.0000
     1.0000   1.0000   1.0000   1.0000   1.0000   1.0000   1.0000   1.0000
     1.0000   1.0000   1.0000   1.0000   1.0000   1.0000   1.0000   1.0000
     1.0000   1.0000   1.0000   1.0000   1.0000   1.0000   1.0000   1.0000
     1.0000   1.0000   1.0000   1.0000   1.0000   1.0000   1.0000   1.0000
     1.0000   1.0000   1.0000   1.0000   1.0000   1.0000   1.0000   1.0000
     1.0000   1.0000   1.0000   1.0000   1.0000   1.0000   1.0000   1.0000
     1.0000   1.0000   1.0000   1.0000   1.0000   1.0000   1.0000   1.0000
     1.0000   1.0000   1.0000   1.0000   1.0000   1.0000   1.0000   1.0000
     1.0000   1.0000   1.0000   1.0000   1.0000   1.0000   1.0000   1.0000
     1.0000   1.0000   1.0000   1.0000   1.0000   1.0000   1.0000   1.0000
     1.0000   1.0000   1.0000   1.0000   1.0000   1.0000   1.0000   1.0000
     1.0000   1.0000   1.0000   1.0000   1.0000   1.0000   1.0000   1.0000
     1.0000   1.0000   1.0000   1.0000   1.0000   1.0000   1.0000   1.0000
     1.0000   1.0000   1.0000   1.0000   1.0000   1.0000   1.0000   1.0000
     1.0000   1.0000   1.0000   1.0000   1.0000   1.0000   1.0000   1.0000
     1.0000   1.0000   1.0000   1.0000   1.0000   1.0000   1.0000   1.0000
     1.0000   1.0000   1.0000   1.0000   1.0000   1.0000   1.0000   1.0000
     1.0000   1.0000   1.0000   1.0000   1.0000   1.0000   1.0000   1.0000
     1.0000   1.0000   1.0000   1.0000   1.0000   1.0000   1.0000   1.0000
     1.0000   1.0000   1.0000   1.0000   1.0000   1.0000   1.0000   1.0000
     1.0000   1.0000   1.0000   1.0000   1.0000   1.0000   1.0000   1.0000
     1.0000   1.0000   1.0000   1.0000   1.0000   1.0000   1.0000   1.0000
     1.0000   1.0000   1.0000   1.0000   1.0000   1.0000   1.0000   1.0000
     1.0000   1.0000   1.0000   1.0000   1.0000   1.0000   1.0000   1.0000
     1.0000   1.0000   1.0000   1.0000   1.0000   1.0000   1.0000   1.0000
     1.0000   1.0000   1.0000   1.0000   1.0000   1.0000   1.0000   1.0000
     1.0000   1.0000   1.0000   1.0000   1.0000   1.0000   1.0000   1.0000
     1.0000   1.0000   1.0000   1.0000   1.0000   1.0000   1.0000   1.0000
     1.0000   1.0000   1.0000   1.0000   1.0000   1.0000   1.0000   1.0000
     1.0000   1.0000   1.0000   1.0000   1.0000   1.0000   1.0000   1.0000
     1.0000   1.0000   1.0000   1.0000   1.0000   1.0000   1.0000   1.0000
     1.0000   1.0000   1.0000   1.0000   1.0000   1.0000   1.0000   1.0000
     1.0000   1.0000   1.0000   1.0000   1.0000   1.0000   1.0000   1.0000
     1.0000   1.0000   1.0000   1.0000   1.0000   1.0000   1.0000   1.0000
     1.0000   1.0000   1.0000   1.0000   1.0000   1.0000   1.0000   1.0000
     1.0000   1.0000   1.0000   1.0000   1.0000   1.0000   1.0000   1.0000
     1.0000   1.0000   1.0000   1.0000   1.0000   1.0000   1.0000   1.0000
     1.0000   1.0000   1.0000   1.0000   1.0000   1.0000   1.0000   1.0000
     1.0000   1.0000   1.0000   1.0000   1.0000   1.0000   1.0000   1.0000
     1.0000   1.0000   1.0000   1.0000   1.0000   1.0000   1.0000   1.0000
     1.0000   1.0000   1.0000   1.0000   1.0000   1.0000   1.0000   1.0000
     1.0000   1.0000   1.0000   1.0000   1.0000   1.0000   1.0000   1.0000
     1.0000   1.0000   1.0000   1.0000   1.0000   1.0000   1.0000   1.0000
     1.0000   1.0000   1.0000   1.0000   1.0000   1.0000   1.0000   1.0000
     1.0000   1.0000   1.0000   1.0000   1.0000   1.0000   1.0000   1.0000
     1.0000   1.0000   1.0000   1.0000   1.0000   1.0000   1.0000   1.0000
     1.0000   1.0000   1.0000   1.0000   1.0000   1.0000   1.0000   1.0000
     1.0000   1.0000   1.0000   1.0000   1.0000   1.0000   0.0000   0.0000
     0.0000   0.0000   0.0000   0.0000   0.0000   0.0000   0.0000   0.0000
     0.0000   0.0000   0.0000   0.0000   0.0000   0.0000   0.0000   0.0000
     0.0000   0.0000   0.0000   0.0000   0.0000   0.0000   0.0000   0.0000
     0.0000   0.0000   0.0000   0.0000   0.0000   0.0000   0.0000   0.0000
     0.0000   0.0000   0.0000   0.0000   0.0000   0.0000   0.0000   0.0000
     0.0000   0.0000   0.0000   0.0000   0.0000   0.0000   0.0000   0.0000
     0.0000   0.0000   0.0000   0.0000   0.0000   0.0000   0.0000   0.0000
     0.0000   0.0000   0.0000   0.0000   0.0000   0.0000   0.0000   0.0000
     0.0000   0.0000   0.0000   0.0000   0.0000   0.0000   0.0000   0.0000
     0.0000   0.0000   0.0000   0.0000   0.0000   0.0000   0.0000   0.0000
     0.0000   0.0000   0.0000   0.0000   0.0000   0.0000   0.0000   0.0000
     0.0000   0.0000   0.0000   0.0000   0.0000   0.0000   0.0000   0.0000
     0.0000   0.0000   0.0000   0.0000   0.0000   0.0000   0.0000   0.0000
     0.0000   0.0000   0.0000   0.0000   0.0000   0.0000   0.0000   0.0000
     0.0000   0.0000   0.0000   0.0000   0.0000   0.0000   0.0000   0.0000
     0.0000   0.0000   0.0000   0.0000   0.0000   0.0000   0.0000   0.0000
     0.0000   0.0000   0.0000   0.0000   0.0000   0.0000   0.0000   0.0000
     0.0000   0.0000   0.0000   0.0000   0.0000   0.0000   0.0000   0.0000
     0.0000   0.0000   0.0000   0.0000   0.0000   0.0000   0.0000   0.0000
     0.0000   0.0000   0.0000   0.0000   0.0000   0.0000   0.0000   0.0000
     0.0000   0.0000   0.0000   0.0000   0.0000   0.0000   0.0000   0.0000
     0.0000   0.0000   0.0000   0.0000   0.0000   0.0000   0.0000   0.0000
     0.0000   0.0000   0.0000   0.0000   0.0000   0.0000   0.0000   0.0000
     0.0000   0.0000   0.0000   0.0000   0.0000   0.0000   0.0000   0.0000
     0.0000   0.0000   0.0000   0.0000   0.0000   0.0000   0.0000   0.0000
     0.0000   0.0000   0.0000   0.0000   0.0000   0.0000   0.0000   0.0000
     0.0000   0.0000   0.0000   0.0000   0.0000   0.0000   0.0000   0.0000
     0.0000   0.0000   0.0000   0.0000   0.0000   0.0000   0.0000   0.0000
     0.0000   0.0000   0.0000   0.0000   0.0000   0.0000   0.0000   0.0000
     0.0000   0.0000   0.0000   0.0000   0.0000   0.0000   0.0000   0.0000
     0.0000   0.0000   0.0000   0.0000   0.0000   0.0000   0.0000   0.0000
     0.0000   0.0000   0.0000   0.0000   0.0000   0.0000   0.0000   0.0000
     0.0000   0.0000   0.0000   0.0000   0.0000   0.0000   0.0000   0.0000
     0.0000   0.0000   0.0000   0.0000   0.0000   0.0000   0.0000   0.0000
     0.0000   0.0000   0.0000   0.0000   0.0000   0.0000   0.0000   0.0000
     0.0000   0.0000   0.0000   0.0000   0.0000   0.0000   0.0000   0.0000
     0.0000   0.0000   0.0000   0.0000   0.0000   0.0000   0.0000   0.0000
     0.0000   0.0000   0.0000   0.0000   0.0000   0.0000   0.0000   0.0000
     0.0000   0.0000   0.0000   0.0000   0.0000   0.0000   0.0000   0.0000
     0.0000   0.0000   0.0000   0.0000   0.0000   0.0000   0.0000   0.0000
     0.0000   0.0000   0.0000   0.0000   0.0000   0.0000   0.0000   0.0000
     0.0000   0.0000   0.0000   0.0000   0.0000   0.0000   0.0000   0.0000
     0.0000   0.0000   0.0000   0.0000   0.0000   0.0000   0.0000   0.0000
     0.0000   0.0000   0.0000   0.0000   0.0000   0.0000   0.0000   0.0000
     0.0000   0.0000   0.0000   0.0000   0.0000   0.0000   0.0000   0.0000
     0.0000   0.0000   0.0000   0.0000   0.0000   0.0000   0.0000   0.0000
     0.0000   0.0000   0.0000   0.0000   0.0000   0.0000   0.0000   0.0000
     0.0000   0.0000   0.0000   0.0000   0.0000   0.0000   0.0000   0.0000
     0.0000   0.0000   0.0000   0.0000   0.0000   0.0000   0.0000   0.0000
     0.0000   0.0000   0.0000   0.0000   0.0000   0.0000   0.0000   0.0000
     0.0000   0.0000   0.0000   0.0000   0.0000   0.0000   0.0000   0.0000
     0.0000   0.0000   0.0000   0.0000   0.0000   0.0000   0.0000   0.0000
     0.0000   0.0000   0.0000   0.0000   0.0000   0.0000   0.0000   0.0000
     0.0000   0.0000   0.0000   0.0000

 ------ SPIN DOWN ----------


          k = 0.0000 0.0000 0.0000 ( 42379 PWs)   bands (ev):

    -8.2792  -7.6013  -7.2244  -7.2243  -7.1854  -7.1854  -7.1616  -6.6434
    -6.2466  -6.2465  -6.2155  -6.2155  -6.2016  -6.1822  -6.1822  -6.1791
    -6.1791  -6.1752  -6.0626  -5.4696  -5.2417  -5.2405  -5.2405  -5.2128
    -5.2110  -5.2110  -5.0926  -4.5385  -4.2414  -4.2414  -4.2265  -4.2265
    -4.1130  -3.8753  -3.3901  -3.3900  -3.3537  -3.3537  -3.3128  -3.3128
    -3.2908  -3.2882  -3.2882  -3.2860  -3.2825  -3.2818  -3.2818  -3.2735
    -3.2735  -3.2703  -3.2622  -3.2622  -3.2614  -3.2614  -3.2599  -3.2401
    -2.9629  -2.7952  -2.6111  -2.6111  -2.5333  -2.5249  -2.5249  -2.5162
    -2.5162  -2.5091  -2.5086  -2.5086  -2.4911  -2.4755  -2.4755  -2.4651
    -2.4640  -2.4640  -2.4618  -2.4588  -2.4588  -2.4472  -2.4320  -2.4320
    -1.8458  -1.0574  -0.8852  -0.8852  -0.8562  -0.8562  -0.8497  -0.8374
    -0.8374  -0.8195  -0.8069  -0.8069  -0.5300   0.2922   0.3980   0.3980
     0.4512   0.4512   0.5558   0.7244   0.8341   0.8341   0.9239   0.9239
     0.9305   0.9314   0.9315   0.9634   0.9634   0.9724   1.0017   1.0100
     1.0100   1.0182   1.0182   1.0204   1.0205   1.0206   1.0217   1.0403
     1.0407   1.0407   1.0451   1.1664   1.1760   1.1760   1.1840   1.1881
     1.1881   1.1891   1.2075   1.2075   1.2138   1.2138   1.2240   1.2413
     1.2420   1.2420   1.2437   1.2491   1.2491   1.2534   1.2535   1.3109
     1.4461   1.4461   2.0009   2.2060   2.2060   2.2227   2.2333   2.2781
     2.2781   2.2787   2.2888   2.2888   2.3495   2.3495   3.3016   3.7026
     3.7026   3.7277   3.7786   3.8149   3.8150   3.8413   3.8413   3.8433
     3.8467   3.8533   3.8559   3.8560   3.8596   3.8597   3.8606   3.9998
     3.9998   4.0141   4.0239   4.3528   4.3528   4.3936   4.4497   4.4522
     4.4532   4.4532   4.4792   4.4792   4.5026   4.5026   4.5111   4.5126
     4.5126   4.5187   4.5187   4.5285   4.5285   4.5293   4.5417   4.5595
     4.6847   4.6848   5.1845   5.1845   5.3081   5.3225   5.3607   5.3607
     5.3630   5.3861   5.3861   5.3915   5.4255   5.4256   5.4349   5.4375
     5.4381   5.4381   5.4435   5.4435   5.4561   5.4561   5.4630   5.5577
     5.5597   5.5597   5.6257   5.7868   5.7868   5.8206   5.8567   5.8567
     5.8823   5.8823   5.8959   5.8959   5.8963   5.9009   5.9041   5.9107
     5.9112   5.9112   5.9242   5.9242   5.9280   5.9280   5.9348   5.9403
     5.9415   5.9599   5.9599   6.0073   6.0073   6.2794   6.3247   6.3247
     6.8540   6.8540   6.9057   6.9343   6.9351   6.9351   7.0126   7.3669
     7.3669   7.4206   7.4848   7.4848   7.4939   7.4939   7.4980   7.5170
     7.5626   7.5626   7.6948   7.6948   7.8113   7.8242   7.8504   7.8504
     7.8597   7.8904   7.8904   7.9067   7.9292   7.9300   7.9300   7.9679
     7.9679   8.0352   8.0353   8.0611   8.1242   8.1850   8.1850   8.1905
     8.2018   8.2018   8.2103   8.2104   8.2301   8.2374   8.2566   8.2566
     8.2577   8.2666   8.2666   8.2778   8.2778   8.2927   8.2972   8.2972
     8.3039   8.3149   8.3288   8.3590   8.3590   8.3663   8.3663   8.3687
     8.3778   8.3880   8.3880   8.3943   8.3960   8.3960   8.4014   8.4035
     8.4035   8.4087   8.4087   8.4088   8.4177   8.4177   8.4230   8.4249
     8.4249   8.4267   8.4344   8.4344   8.4428   8.4767   8.4767   8.5177
     8.5185   8.5185   8.5239   8.5239   8.5367   8.5367   8.5385   8.5430
     8.5507   8.5507   8.5615   8.9912   9.0054   9.0055   9.1267   9.1268
     9.1690   9.1690   9.1796   9.2095   9.2165   9.2165   9.2286   9.2331
     9.2331   9.2404   9.2528   9.2541   9.2541   9.2658   9.2658   9.2749
     9.2807   9.2807   9.2954   9.8616   9.9750   9.9751  10.2911  10.5282
    10.5282  10.5659  10.5721  10.5854  10.5854  10.6460  10.6461  10.6472
    10.7166  10.7166  10.7199  10.7477  10.7477  10.8448  10.8448  10.8611
    10.8654  10.8654  10.8710  10.8710  10.8740  10.8740  10.8756  10.8801
    10.9345  10.9345  10.9349  10.9386  10.9386  11.4762  11.6080  11.6081
    11.6287  11.7657  11.7657  11.7770  11.8076  11.8151  11.8151  11.8195
    11.8267  11.8268  12.7900  12.9865  12.9866  13.4961  14.3804  14.3805
    17.3507  17.3543  17.3543  17.4245  17.4245  17.4459  17.8726  17.9646
    17.9646  17.9969  18.0046  18.0046  18.1326  18.1374  18.1374  18.2546
    18.2546  18.2570  18.8148  18.8149  18.8172  19.3417  19.5083  19.5083
    19.5155  19.5156  19.5172  19.5415  19.6189  19.6189  19.6440  19.6440
    19.6976  20.0088  20.1664  20.1664  20.1887  20.2168  20.2251  20.2252
    20.2345  20.2346  20.2838  20.2999  20.3016  20.3016  20.3194  20.3194
    20.3279  20.3329  20.3330  20.3867  20.3867  20.3887  20.4382  20.4382
    20.4623  20.6260  20.6260  20.6573  20.7269  20.7611  20.7611  20.7823
    20.7823  20.8251  20.8251  20.8295  20.8371  20.8458  20.8534  20.8534
    20.8548  20.8656  20.8656  20.8762  20.8762  20.8835  20.8926  20.8926
    20.8978  20.8978  20.9025  20.9090  20.9090  20.9102  20.9189  20.9313
    20.9313  20.9404  20.9405  20.9471  20.9479  21.0595  21.0669  21.0669
    21.1291  21.1291  21.1484  21.2352  21.2745  21.2745  21.3284  21.3463
    21.3621  21.3622  21.3886  21.3886  21.3925  21.3967  21.3967  21.4122
    21.4136  21.4149  21.4149  21.4233  21.4233  21.4305  21.4391  21.4391
    21.4462  21.4468  21.4468  21.4557  21.4558  21.4582  21.4716  21.4716
    21.4820  21.4820  21.4899  21.4961  21.5157  21.5158  21.5956  21.5956
    21.6116  21.6579  21.7219  21.7219  21.7417  21.7417  21.7456  21.7729
    21.7828  21.7828  21.7914  21.8042  21.8097  21.8168  21.8168  21.8238
    21.8238  21.9530  21.9530  22.0525  22.0525  22.0626  22.1635  22.1635
    22.1661  22.2246  22.2246  22.2407  22.2462  22.2462  22.2595  22.3969
    22.4024  22.4024  22.4449  22.5057  22.5058  22.5130  22.5130  22.5190
    22.6117  22.6117  22.6129  22.6309  22.8327  22.8327  22.8626  23.1371
    23.1371  23.1416  23.1467  23.1579  23.1579  23.1733  23.1733  23.1807
    23.1858  23.1989  23.1989  23.2057  23.2124  23.2180  23.2181  23.2371
    23.2897  23.2897  23.3784  23.3784  23.4118  23.4462  23.4462  23.7101
    23.7314  23.7404  23.7404  23.7971  23.7971  23.8828  23.8912  23.8913
    23.8976  23.9172  23.9174  23.9174  23.9561  23.9561  23.9694  23.9694
    24.0042  24.0042  24.0048  24.1245  24.1245  24.1435  24.1435  24.2417
    24.2417  24.2958  24.3071  24.3294  24.3294  24.3539  24.3539  24.3582
    24.3700  24.3701  24.3853  24.4015  24.4015  24.4031  24.4288  24.4288
    24.4502  24.4524  24.4524  24.4825  24.4885  24.4885  24.5086  24.5191
    24.5482  24.5482  24.5507  24.5527  24.5652  24.5652  24.5819  24.5856
    24.5856  24.5891  24.5891  24.5980  24.6050  24.6050  24.6166  24.6172
    24.6173  24.7786  24.7786  25.3322  25.4128  25.4129  25.4256  25.7996
    25.7996  25.8093  25.8612  25.8612  25.9890  26.0148  26.0149  26.0265
    26.0778  26.0778  26.1731  26.1731  26.1819  26.1843  26.2593  26.2594
    26.2631  26.4755  26.5721  26.5722  26.5908  26.6555  26.6637  26.6637
    26.6735  26.7172  26.7172  26.7330  26.7330  26.7472  26.7626  26.7626
    26.8013  26.8168  26.8519  26.8519  26.8737  26.9053  26.9053  26.9280
    26.9281  27.0542  27.0542  27.0942  27.1039  27.1208  27.1208  27.1811
    27.1811  27.1949  27.2049  27.2049  27.2088  27.2533  27.2559  27.2559
    27.2664  27.2755  27.2755  27.2899  27.2899  27.2959  27.3104  27.3171
    27.3171  27.3260  27.3260  27.3282  27.3301  27.3345  27.3345  27.3392
    27.3392  27.3406  27.3579  27.3590  27.3590  27.3757  27.3787  27.3787
    27.4108  27.4144  27.4144  27.4232  27.4435  27.4546  27.4547  27.4628
    27.4628  27.4721  27.5046  27.5046  27.5119  27.5386  27.5407  27.5407
    27.5649  27.5687  27.5687  27.5790  27.5790  27.5799  27.5854  27.5854
    27.6099  27.6132  27.6132  27.6386  27.6528  27.6528  27.6608  27.6657
    27.6697  27.6697  27.7201  27.7604  27.7604  27.7705  27.7705  27.9320
    27.9320  27.9358  27.9759  28.0328  28.0718  28.0718  28.0969  28.0969
    28.1255  28.1255  28.1342  28.1896  28.1896  28.2559  28.2864  28.3591
    28.3676  28.3676  28.3727  28.4280  28.4280  28.4335  29.0672  29.7953
    29.8410  29.8410  29.9176  29.9177

     occupation numbers 
     1.0000   1.0000   1.0000   1.0000   1.0000   1.0000   1.0000   1.0000
     1.0000   1.0000   1.0000   1.0000   1.0000   1.0000   1.0000   1.0000
     1.0000   1.0000   1.0000   1.0000   1.0000   1.0000   1.0000   1.0000
     1.0000   1.0000   1.0000   1.0000   1.0000   1.0000   1.0000   1.0000
     1.0000   1.0000   1.0000   1.0000   1.0000   1.0000   1.0000   1.0000
     1.0000   1.0000   1.0000   1.0000   1.0000   1.0000   1.0000   1.0000
     1.0000   1.0000   1.0000   1.0000   1.0000   1.0000   1.0000   1.0000
     1.0000   1.0000   1.0000   1.0000   1.0000   1.0000   1.0000   1.0000
     1.0000   1.0000   1.0000   1.0000   1.0000   1.0000   1.0000   1.0000
     1.0000   1.0000   1.0000   1.0000   1.0000   1.0000   1.0000   1.0000
     1.0000   1.0000   1.0000   1.0000   1.0000   1.0000   1.0000   1.0000
     1.0000   1.0000   1.0000   1.0000   1.0000   1.0000   1.0000   1.0000
     1.0000   1.0000   1.0000   1.0000   1.0000   1.0000   1.0000   1.0000
     1.0000   1.0000   1.0000   1.0000   1.0000   1.0000   1.0000   1.0000
     1.0000   1.0000   1.0000   1.0000   1.0000   1.0000   1.0000   1.0000
     1.0000   1.0000   1.0000   1.0000   1.0000   1.0000   1.0000   1.0000
     1.0000   1.0000   1.0000   1.0000   1.0000   1.0000   1.0000   1.0000
     1.0000   1.0000   1.0000   1.0000   1.0000   1.0000   1.0000   1.0000
     1.0000   1.0000   1.0000   1.0000   1.0000   1.0000   1.0000   1.0000
     1.0000   1.0000   1.0000   1.0000   1.0000   1.0000   1.0000   1.0000
     1.0000   1.0000   1.0000   1.0000   1.0000   1.0000   1.0000   1.0000
     1.0000   1.0000   1.0000   1.0000   1.0000   1.0000   1.0000   1.0000
     1.0000   1.0000   1.0000   1.0000   1.0000   1.0000   1.0000   1.0000
     1.0000   1.0000   1.0000   1.0000   1.0000   1.0000   1.0000   1.0000
     1.0000   1.0000   1.0000   1.0000   1.0000   1.0000   1.0000   1.0000
     1.0000   1.0000   1.0000   1.0000   1.0000   1.0000   1.0000   1.0000
     1.0000   1.0000   1.0000   1.0000   1.0000   1.0000   1.0000   1.0000
     1.0000   1.0000   1.0000   1.0000   1.0000   1.0000   1.0000   1.0000
     1.0000   1.0000   1.0000   1.0000   1.0000   1.0000   1.0000   1.0000
     1.0000   1.0000   1.0000   1.0000   1.0000   1.0000   1.0000   1.0000
     1.0000   1.0000   1.0000   1.0000   1.0000   1.0000   1.0000   1.0000
     1.0000   1.0000   1.0000   1.0000   1.0000   1.0000   1.0000   1.0000
     1.0000   1.0000   1.0000   1.0000   1.0000   1.0000   1.0000   1.0000
     1.0000   1.0000   1.0000   1.0000   1.0000   1.0000   1.0000   1.0000
     1.0000   1.0000   1.0000   1.0000   1.0000   1.0000   1.0000   1.0000
     1.0000   1.0000   1.0000   1.0000   1.0000   1.0000   1.0000   1.0000
     1.0000   1.0000   1.0000   1.0000   1.0000   1.0000   1.0000   1.0000
     1.0000   1.0000   1.0000   1.0000   1.0000   1.0000   1.0000   1.0000
     1.0000   1.0000   1.0000   1.0000   1.0000   1.0000   1.0000   1.0000
     1.0000   1.0000   1.0000   1.0000   1.0000   1.0000   1.0000   1.0000
     1.0000   1.0000   1.0000   1.0000   1.0000   1.0000   1.0000   1.0000
     1.0000   1.0000   1.0000   1.0000   1.0000   1.0000   1.0000   1.0000
     1.0000   1.0000   1.0000   1.0000   1.0000   1.0000   1.0000   1.0000
     1.0000   1.0000   1.0000   1.0000   1.0000   1.0000   1.0000   1.0000
     1.0000   1.0000   1.0000   1.0000   1.0000   1.0000   1.0000   1.0000
     1.0000   1.0000   1.0000   1.0000   1.0000   1.0000   1.0000   1.0000
     1.0000   1.0000   1.0000   1.0000   1.0000   1.0000   1.0000   1.0000
     1.0000   1.0000   1.0000   1.0000   1.0000   1.0000   1.0000   1.0000
     1.0000   1.0000   1.0000   1.0000   1.0000   1.0000   1.0000   1.0000
     1.0000   1.0000   1.0000   1.0000   1.0000   1.0000   1.0000   1.0000
     1.0000   1.0000   1.0000   1.0000   1.0000   1.0000   1.0000   1.0000
     1.0000   1.0000   1.0000   1.0000   1.0000   1.0000   1.0000   1.0000
     1.0000   1.0000   1.0000   1.0000   1.0000   1.0000   1.0000   1.0000
     1.0000   1.0000   1.0000   1.0000   1.0000   0.0000   0.0000   0.0000
     0.0000   0.0000   0.0000   0.0000   0.0000   0.0000   0.0000   0.0000
     0.0000   0.0000   0.0000   0.0000   0.0000   0.0000   0.0000   0.0000
     0.0000   0.0000   0.0000   0.0000   0.0000   0.0000   0.0000   0.0000
     0.0000   0.0000   0.0000   0.0000   0.0000   0.0000   0.0000   0.0000
     0.0000   0.0000   0.0000   0.0000   0.0000   0.0000   0.0000   0.0000
     0.0000   0.0000   0.0000   0.0000   0.0000   0.0000   0.0000   0.0000
     0.0000   0.0000   0.0000   0.0000   0.0000   0.0000   0.0000   0.0000
     0.0000   0.0000   0.0000   0.0000   0.0000   0.0000   0.0000   0.0000
     0.0000   0.0000   0.0000   0.0000   0.0000   0.0000   0.0000   0.0000
     0.0000   0.0000   0.0000   0.0000   0.0000   0.0000   0.0000   0.0000
     0.0000   0.0000   0.0000   0.0000   0.0000   0.0000   0.0000   0.0000
     0.0000   0.0000   0.0000   0.0000   0.0000   0.0000   0.0000   0.0000
     0.0000   0.0000   0.0000   0.0000   0.0000   0.0000   0.0000   0.0000
     0.0000   0.0000   0.0000   0.0000   0.0000   0.0000   0.0000   0.0000
     0.0000   0.0000   0.0000   0.0000   0.0000   0.0000   0.0000   0.0000
     0.0000   0.0000   0.0000   0.0000   0.0000   0.0000   0.0000   0.0000
     0.0000   0.0000   0.0000   0.0000   0.0000   0.0000   0.0000   0.0000
     0.0000   0.0000   0.0000   0.0000   0.0000   0.0000   0.0000   0.0000
     0.0000   0.0000   0.0000   0.0000   0.0000   0.0000   0.0000   0.0000
     0.0000   0.0000   0.0000   0.0000   0.0000   0.0000   0.0000   0.0000
     0.0000   0.0000   0.0000   0.0000   0.0000   0.0000   0.0000   0.0000
     0.0000   0.0000   0.0000   0.0000   0.0000   0.0000   0.0000   0.0000
     0.0000   0.0000   0.0000   0.0000   0.0000   0.0000   0.0000   0.0000
     0.0000   0.0000   0.0000   0.0000   0.0000   0.0000   0.0000   0.0000
     0.0000   0.0000   0.0000   0.0000   0.0000   0.0000   0.0000   0.0000
     0.0000   0.0000   0.0000   0.0000   0.0000   0.0000   0.0000   0.0000
     0.0000   0.0000   0.0000   0.0000   0.0000   0.0000   0.0000   0.0000
     0.0000   0.0000   0.0000   0.0000   0.0000   0.0000   0.0000   0.0000
     0.0000   0.0000   0.0000   0.0000   0.0000   0.0000   0.0000   0.0000
     0.0000   0.0000   0.0000   0.0000   0.0000   0.0000   0.0000   0.0000
     0.0000   0.0000   0.0000   0.0000   0.0000   0.0000   0.0000   0.0000
     0.0000   0.0000   0.0000   0.0000   0.0000   0.0000   0.0000   0.0000
     0.0000   0.0000   0.0000   0.0000   0.0000   0.0000   0.0000   0.0000
     0.0000   0.0000   0.0000   0.0000   0.0000   0.0000   0.0000   0.0000
     0.0000   0.0000   0.0000   0.0000   0.0000   0.0000   0.0000   0.0000
     0.0000   0.0000   0.0000   0.0000   0.0000   0.0000   0.0000   0.0000
     0.0000   0.0000   0.0000   0.0000   0.0000   0.0000   0.0000   0.0000
     0.0000   0.0000   0.0000   0.0000   0.0000   0.0000   0.0000   0.0000
     0.0000   0.0000   0.0000   0.0000   0.0000   0.0000   0.0000   0.0000
     0.0000   0.0000   0.0000   0.0000   0.0000   0.0000   0.0000   0.0000
     0.0000   0.0000   0.0000   0.0000   0.0000   0.0000   0.0000   0.0000
     0.0000   0.0000   0.0000   0.0000   0.0000   0.0000   0.0000   0.0000
     0.0000   0.0000   0.0000   0.0000   0.0000   0.0000   0.0000   0.0000
     0.0000   0.0000   0.0000   0.0000   0.0000   0.0000   0.0000   0.0000
     0.0000   0.0000   0.0000   0.0000   0.0000   0.0000   0.0000   0.0000
     0.0000   0.0000   0.0000   0.0000   0.0000   0.0000   0.0000   0.0000
     0.0000   0.0000   0.0000   0.0000   0.0000   0.0000   0.0000   0.0000
     0.0000   0.0000   0.0000   0.0000   0.0000   0.0000   0.0000   0.0000
     0.0000   0.0000   0.0000   0.0000   0.0000   0.0000   0.0000   0.0000
     0.0000   0.0000   0.0000   0.0000   0.0000   0.0000   0.0000   0.0000
     0.0000   0.0000   0.0000   0.0000   0.0000   0.0000   0.0000   0.0000
     0.0000   0.0000   0.0000   0.0000   0.0000   0.0000   0.0000   0.0000
     0.0000   0.0000   0.0000   0.0000   0.0000   0.0000   0.0000   0.0000
     0.0000   0.0000   0.0000   0.0000

     highest occupied, lowest unoccupied level (ev):    13.35931727   13.49611515

!    total energy              =   -3974.49624801 Ry
     total all-electron energy =    -16417.311851 Ry
     estimated scf accuracy    <          5.3E-09 Ry

     The total energy is the sum of the following terms:
     one-electron contribution =     878.81408973 Ry
     hartree contribution      =     217.98061349 Ry
     xc contribution           =   -1005.61452026 Ry
     ewald contribution        =   -2738.92161686 Ry
     one-center paw contrib.   =   -1326.75481410 Ry
      -> PAW hartree energy AE =      80.51579272 Ry
      -> PAW hartree energy PS =     -80.44259884 Ry
      -> PAW xc energy AE      =     -94.82095355 Ry
      -> PAW xc energy PS      =      39.28627681 Ry
      -> total E_H with PAW    =     218.05380737 Ry
      -> total E_XC with PAW   =   -1061.14919700 Ry

     total magnetization       =     1.00 Bohr mag/cell
     absolute magnetization    =     1.12 Bohr mag/cell

     convergence has been achieved in  17 iterations

     Forces acting on atoms (cartesian axes, Ry/au):

     atom    1 type  1   force =     0.00004409    0.00011748   -0.00007280
     atom    2 type  1   force =    -0.00005444   -0.00002907    0.00003026
     atom    3 type  1   force =     0.00002052    0.00013323   -0.00007160
     atom    4 type  1   force =    -0.00002424   -0.00002190    0.00006024
     atom    5 type  1   force =    -0.00011163   -0.00013711    0.00014471
     atom    6 type  1   force =     0.00002338    0.00010900    0.00024440
     atom    7 type  1   force =     0.00003864    0.00013780   -0.00005347
     atom    8 type  1   force =    -0.00026291    0.00003994   -0.00004156
     atom    9 type  1   force =    -0.00005308    0.00014489    0.00001806
     atom   10 type  1   force =    -0.00005552    0.00002970    0.00004812
     atom   11 type  1   force =    -0.00003495   -0.00007839    0.00009313
     atom   12 type  1   force =     0.00002987    0.00004394   -0.00012489
     atom   13 type  1   force =    -0.00007309   -0.00008771    0.00005493
     atom   14 type  1   force =    -0.00014000   -0.00007491    0.00015780
     atom   15 type  1   force =     0.00012792    0.00008993   -0.00002154
     atom   16 type  1   force =     0.00011177    0.00006393   -0.00004300
     atom   17 type  1   force =     0.00000351    0.00005980   -0.00014769
     atom   18 type  1   force =     0.00009583    0.00032238   -0.00017397
     atom   19 type  1   force =    -0.00009379   -0.00016360    0.00013334
     atom   20 type  1   force =     0.00009212   -0.00009995    0.00013649
     atom   21 type  1   force =     0.00009671   -0.00006268   -0.00004464
     atom   22 type  1   force =    -0.00010665   -0.00014827   -0.00006223
     atom   23 type  1   force =     0.00004321   -0.00008406   -0.00002308
     atom   24 type  1   force =     0.00019982   -0.00006915   -0.00000818
     atom   25 type  1   force =     0.00006091   -0.00007128   -0.00008057
     atom   26 type  1   force =     0.00002990   -0.00011033   -0.00017812
     atom   27 type  1   force =     0.00023715    0.00000746   -0.00023887
     atom   28 type  1   force =     0.00000977    0.00005217    0.00008639
     atom   29 type  1   force =    -0.00005665    0.00011544    0.00013740
     atom   30 type  1   force =     0.00013885    0.00026336    0.00011394
     atom   31 type  1   force =     0.00010905    0.00007515   -0.00003010
     atom   32 type  1   force =    -0.00003097    0.00015400   -0.00002360
     atom   33 type  1   force =     0.00011054    0.00029324   -0.00023384
     atom   34 type  1   force =     0.00005299    0.00009317   -0.00011453
     atom   35 type  1   force =    -0.00023823   -0.00002422   -0.00012451
     atom   36 type  1   force =     0.00000114    0.00001022   -0.00016652
     atom   37 type  1   force =    -0.00015287   -0.00003300    0.00009752
     atom   38 type  1   force =     0.00001358   -0.00000997    0.00008277
     atom   39 type  1   force =     0.00016654    0.00001636    0.00011410
     atom   40 type  1   force =    -0.00005997   -0.00011149    0.00002140
     atom   41 type  1   force =    -0.00008975   -0.00020459   -0.00002789
     atom   42 type  1   force =     0.00013248    0.00006703   -0.00004445
     atom   43 type  1   force =    -0.00000346   -0.00008128   -0.00001699
     atom   44 type  1   force =    -0.00008255   -0.00022053    0.00003613
     atom   45 type  1   force =     0.00013379   -0.00018970   -0.00016325
     atom   46 type  1   force =    -0.00007903   -0.00020837    0.00007262
     atom   47 type  1   force =     0.00010744   -0.00014891    0.00007176
     atom   48 type  1   force =     0.00006435    0.00002729    0.00008038
     atom   49 type  1   force =    -0.00001956   -0.00005270   -0.00006537
     atom   50 type  1   force =    -0.00001533   -0.00012882    0.00001575
     atom   51 type  1   force =     0.00000499    0.00012754   -0.00001772
     atom   52 type  1   force =     0.00004807    0.00010801   -0.00008400
     atom   53 type  1   force =    -0.00004384   -0.00006216   -0.00001736
     atom   54 type  1   force =     0.00003036    0.00010191   -0.00011595
     atom   55 type  1   force =    -0.00009626    0.00002655   -0.00001945
     atom   56 type  1   force =     0.00001445    0.00005214   -0.00012455
     atom   57 type  1   force =     0.00009071    0.00010217   -0.00007680
     atom   58 type  1   force =    -0.00016239    0.00008982    0.00003144
     atom   59 type  1   force =    -0.00001373    0.00015669   -0.00000714
     atom   60 type  1   force =     0.00011962    0.00006226    0.00023321
     atom   61 type  1   force =    -0.00016908    0.00018903   -0.00019396
     atom   62 type  1   force =     0.00016106    0.00030455   -0.00018248
     atom   63 type  1   force =     0.00015937    0.00004866   -0.00000820
     atom   64 type  1   force =    -0.00009145   -0.00001806    0.00015888
     atom   65 type  1   force =     0.00000374   -0.00009605    0.00008502
     atom   66 type  1   force =     0.00003560   -0.00007190    0.00002195
     atom   67 type  1   force =    -0.00007795   -0.00003224   -0.00000870
     atom   68 type  1   force =     0.00007224   -0.00016520    0.00013419
     atom   69 type  1   force =     0.00001441   -0.00019708    0.00013310
     atom   70 type  1   force =    -0.00011004   -0.00005050   -0.00016240
     atom   71 type  1   force =     0.00003096    0.00004264   -0.00014588
     atom   72 type  1   force =     0.00020716   -0.00017183   -0.00008980
     atom   73 type  1   force =    -0.00002397   -0.00019490    0.00012771
     atom   74 type  1   force =     0.00007511   -0.00002955    0.00002928
     atom   75 type  1   force =     0.00005739    0.00011016   -0.00007469
     atom   76 type  1   force =    -0.00003171   -0.00018270   -0.00006743
     atom   77 type  1   force =     0.00001451   -0.00012160    0.00004559
     atom   78 type  1   force =     0.00003012   -0.00004431    0.00005650
     atom   79 type  1   force =    -0.00008293   -0.00000822   -0.00006690
     atom   80 type  1   force =    -0.00001281    0.00012320   -0.00003544
     atom   81 type  1   force =     0.00008950    0.00011632   -0.00005683
     atom   82 type  1   force =     0.00007094   -0.00030545    0.00000300
     atom   83 type  1   force =    -0.00001861    0.00012173    0.00017653
     atom   84 type  1   force =     0.00003296    0.00006776   -0.00005871
     atom   85 type  1   force =    -0.00020110    0.00007753   -0.00000565
     atom   86 type  1   force =    -0.00000329    0.00004361   -0.00000736
     atom   87 type  1   force =     0.00004807    0.00004616    0.00016588
     atom   88 type  1   force =     0.00004161    0.00007011   -0.00004986
     atom   89 type  1   force =    -0.00017094   -0.00000694   -0.00005292
     atom   90 type  1   force =     0.00015615    0.00038207   -0.00024894
     atom   91 type  1   force =    -0.00011087    0.00007803    0.00009171
     atom   92 type  1   force =     0.00003933    0.00006284    0.00002454
     atom   93 type  1   force =     0.00014862    0.00004511    0.00016361
     atom   94 type  1   force =    -0.00003771    0.00004432   -0.00005254
     atom   95 type  1   force =     0.00004216    0.00001417   -0.00001460
     atom   96 type  1   force =    -0.00016554   -0.00003116   -0.00015055
     atom   97 type  1   force =     0.00001197    0.00000688   -0.00004478
     atom   98 type  1   force =     0.00011155   -0.00012716   -0.00008072
     atom   99 type  1   force =    -0.00009071   -0.00025648    0.00015267
     atom  100 type  1   force =     0.00016428   -0.00004162    0.00005911
     atom  101 type  1   force =    -0.00025058   -0.00016002    0.00003378
     atom  102 type  1   force =    -0.00004315   -0.00009201   -0.00014826
     atom  103 type  1   force =     0.00006833   -0.00000106   -0.00006818
     atom  104 type  1   force =     0.00020626   -0.00010922   -0.00004935
     atom  105 type  1   force =    -0.00000239   -0.00009970    0.00028198
     atom  106 type  1   force =     0.00007942   -0.00013987   -0.00017613
     atom  107 type  1   force =     0.00003583    0.00006905   -0.00005258
     atom  108 type  1   force =     0.00000844   -0.00015390    0.00002905
     atom  109 type  1   force =    -0.00005191    0.00013353    0.00006438
     atom  110 type  1   force =     0.00009729    0.00023191    0.00005749
     atom  111 type  1   force =    -0.00009538    0.00012288    0.00002076
     atom  112 type  1   force =    -0.00015974   -0.00000257    0.00016040
     atom  113 type  1   force =     0.00011627    0.00021442    0.00028106
     atom  114 type  1   force =    -0.00010739    0.00018237   -0.00014732
     atom  115 type  1   force =    -0.00031992    0.00010885   -0.00015530
     atom  116 type  1   force =     0.00011278    0.00031814   -0.00018982
     atom  117 type  1   force =    -0.00009696    0.00007774    0.00007824
     atom  118 type  1   force =     0.00000020    0.00003081    0.00001556
     atom  119 type  1   force =     0.00011657    0.00005183    0.00004563
     atom  120 type  1   force =    -0.00002232    0.00002515   -0.00000690
     atom  121 type  1   force =     0.00011993   -0.00012127    0.00013109
     atom  122 type  1   force =    -0.00005307    0.00001081   -0.00012398
     atom  123 type  1   force =    -0.00009521   -0.00017334   -0.00008419
     atom  124 type  1   force =     0.00024873   -0.00015311   -0.00021125
     atom  125 type  1   force =    -0.00013423   -0.00032206    0.00021257
     atom  126 type  1   force =     0.00011731   -0.00001770    0.00005753
     atom  127 type  1   force =    -0.00013613   -0.00009037    0.00004327
     atom  128 type  1   force =    -0.00004824   -0.00005787   -0.00010806
     atom  129 type  1   force =     0.00001065    0.00000360   -0.00001159
     atom  130 type  1   force =     0.00013002    0.00001453   -0.00000080
     atom  131 type  1   force =    -0.00002440   -0.00006311    0.00015497
     atom  132 type  1   force =     0.00000114   -0.00001661   -0.00012971
     atom  133 type  1   force =     0.00016480    0.00005182   -0.00017711
     atom  134 type  1   force =    -0.00008660    0.00010947    0.00004705
     atom  135 type  1   force =    -0.00003276    0.00018172    0.00019804
     atom  136 type  1   force =     0.00012715    0.00014875    0.00045374
     atom  137 type  1   force =     0.00008388    0.00019329   -0.00010183
     atom  138 type  1   force =    -0.00021709    0.00008015   -0.00011316
     atom  139 type  1   force =     0.00007517    0.00011570   -0.00005492
     atom  140 type  1   force =    -0.00016020    0.00000059   -0.00006203
     atom  141 type  1   force =    -0.00004149    0.00001121   -0.00003226
     atom  142 type  1   force =     0.00003811    0.00000801   -0.00018022
     atom  143 type  1   force =    -0.00015308   -0.00001923   -0.00001191
     atom  144 type  1   force =     0.00001881   -0.00000777    0.00001825
     atom  145 type  1   force =    -0.00015506   -0.00015768    0.00009019
     atom  146 type  1   force =    -0.00004399   -0.00001583   -0.00011588
     atom  147 type  1   force =     0.00007864   -0.00012033   -0.00021510
     atom  148 type  1   force =     0.00030450   -0.00032108   -0.00018678
     atom  149 type  1   force =     0.00001648   -0.00006473    0.00030670
     atom  150 type  1   force =    -0.00001539   -0.00019295    0.00007316
     atom  151 type  1   force =     0.00005161   -0.00017027   -0.00010631
     atom  152 type  1   force =     0.00009980   -0.00027736    0.00000466
     atom  153 type  1   force =    -0.00004196   -0.00011625    0.00017355
     atom  154 type  1   force =    -0.00003305    0.00006865    0.00020599
     atom  155 type  1   force =    -0.00017007    0.00003093   -0.00002610
     atom  156 type  1   force =    -0.00005031    0.00003275    0.00000004
     atom  157 type  1   force =    -0.00002662    0.00018562    0.00006209
     atom  158 type  1   force =     0.00001869    0.00000794    0.00001218
     atom  159 type  1   force =    -0.00015299   -0.00002042   -0.00001569
     atom  160 type  1   force =     0.00014631    0.00032588   -0.00018895
     atom  161 type  1   force =    -0.00007396    0.00011269    0.00005967
     atom  162 type  1   force =     0.00005591    0.00018652   -0.00012973
     atom  163 type  1   force =     0.00005566    0.00005303    0.00015391
     atom  164 type  1   force =    -0.00023599    0.00013234   -0.00000518
     atom  165 type  1   force =     0.00008508    0.00015315    0.00018784
     atom  166 type  1   force =     0.00002757    0.00002779    0.00003685
     atom  167 type  1   force =    -0.00047188    0.00000343   -0.00014526
     atom  168 type  1   force =     0.00002849    0.00010436   -0.00010159
     atom  169 type  1   force =     0.00017455    0.00004111   -0.00004390
     atom  170 type  1   force =     0.00001189    0.00002092    0.00015296
     atom  171 type  1   force =     0.00011526    0.00002273    0.00004325
     atom  172 type  1   force =    -0.00028201   -0.00013723    0.00000813
     atom  173 type  1   force =    -0.00001517   -0.00001608   -0.00001568
     atom  174 type  1   force =     0.00023966   -0.00008142   -0.00005401
     atom  175 type  1   force =    -0.00002602   -0.00019563    0.00006255
     atom  176 type  1   force =    -0.00005483   -0.00013317    0.00019057
     atom  177 type  1   force =     0.00026613   -0.00033043   -0.00022511
     atom  178 type  1   force =     0.00014506   -0.00014752   -0.00001287
     atom  179 type  1   force =     0.00006384   -0.00028603   -0.00003139
     atom  180 type  1   force =     0.00001344    0.00007538    0.00015744
     atom  181 type  1   force =    -0.00001299    0.00000021   -0.00001943
     atom  182 type  1   force =    -0.00014237   -0.00014066    0.00007306
     atom  183 type  1   force =    -0.00000917    0.00004259    0.00004124
     atom  184 type  1   force =     0.00001582    0.00002066    0.00015310
     atom  185 type  1   force =    -0.00021704    0.00002415    0.00002196
     atom  186 type  1   force =    -0.00010465    0.00016664   -0.00001592
     atom  187 type  1   force =     0.00011122    0.00031742   -0.00022407
     atom  188 type  1   force =    -0.00002795   -0.00020819    0.00007838
     atom  189 type  1   force =     0.00008579    0.00016621    0.00045765
     atom  190 type  1   force =     0.00008852    0.00001317    0.00019355
     atom  191 type  1   force =    -0.00048096    0.00002876   -0.00010916
     atom  192 type  1   force =     0.00001733    0.00013920   -0.00005083
     atom  193 type  1   force =     0.00014892    0.00010818    0.00004670
     atom  194 type  1   force =    -0.00018843   -0.00005404   -0.00008348
     atom  195 type  1   force =    -0.00006639    0.00005590   -0.00016852
     atom  196 type  1   force =     0.00009696    0.00034778   -0.00018111
     atom  197 type  1   force =    -0.00002692    0.00001254    0.00002409
     atom  198 type  1   force =     0.00017547    0.00008728    0.00017429
     atom  199 type  1   force =    -0.00005329   -0.00011410    0.00017164
     atom  200 type  1   force =    -0.00018463   -0.00000006   -0.00018593
     atom  201 type  1   force =     0.00018917   -0.00009145   -0.00016644
     atom  202 type  1   force =     0.00004028   -0.00000896   -0.00000957
     atom  203 type  1   force =    -0.00014129   -0.00013537    0.00008358
     atom  204 type  1   force =     0.00001269   -0.00001561   -0.00003720
     atom  205 type  1   force =     0.00006749   -0.00012295   -0.00003754
     atom  206 type  1   force =     0.00006443   -0.00011704   -0.00003591
     atom  207 type  1   force =     0.00012292    0.00000961    0.00002876
     atom  208 type  1   force =    -0.00029047   -0.00010354    0.00004557
     atom  209 type  1   force =    -0.00002660   -0.00002649   -0.00012080
     atom  210 type  1   force =     0.00005125    0.00019800   -0.00009915
     atom  211 type  1   force =     0.00010984   -0.00009862   -0.00005302
     atom  212 type  1   force =    -0.00002804   -0.00003977    0.00030798
     atom  213 type  1   force =     0.00007809   -0.00010635   -0.00008481
     atom  214 type  1   force =    -0.00002324    0.00002366    0.00001771
     atom  215 type  2   force =    -0.00011516   -0.00029688    0.00018746
     The non-local contrib.  to forces
     atom    1 type  1   force =    -0.00106503   -0.00113712    0.00134071
     atom    2 type  1   force =    -0.00877303    0.00014356    0.00170661
     atom    3 type  1   force =    -0.00286260    0.00015106    0.00592378
     atom    4 type  1   force =    -0.00194320    0.00180106    0.00853645
     atom    5 type  1   force =    -0.01121830    0.01780391    0.00689780
     atom    6 type  1   force =    -0.01223779   -0.00288277    0.00665161
     atom    7 type  1   force =    -0.00587183   -0.00057753    0.00291471
     atom    8 type  1   force =    -0.00613295   -0.00139959    0.01275827
     atom    9 type  1   force =    -0.00523350   -0.01717405    0.00940203
     atom   10 type  1   force =     0.00094720   -0.00243643   -0.00035658
     atom   11 type  1   force =    -0.00325547    0.00195944   -0.00282822
     atom   12 type  1   force =     0.00357620   -0.00380398    0.00314563
     atom   13 type  1   force =     0.00219142    0.00328106    0.00261920
     atom   14 type  1   force =    -0.13336689    0.21712734    0.08068328
     atom   15 type  1   force =     0.01912597   -0.01452155   -0.02913838
     atom   16 type  1   force =    -0.00205677   -0.00516976   -0.00248761
     atom   17 type  1   force =     0.03227476   -0.01133048   -0.01599186
     atom   18 type  1   force =    -0.02226446    0.00767889    0.02040322
     atom   19 type  1   force =     0.00062153   -0.00213398   -0.00010393
     atom   20 type  1   force =     0.00130036    0.00151184   -0.00485489
     atom   21 type  1   force =     0.00405182   -0.00427045   -0.00280219
     atom   22 type  1   force =     0.00439643    0.00226265   -0.00175879
     atom   23 type  1   force =     0.00896192    0.00339737   -0.00978689
     atom   24 type  1   force =     0.03341056    0.00728952    0.01132962
     atom   25 type  1   force =     0.00384476   -0.00431983   -0.00300964
     atom   26 type  1   force =    -0.01176846   -0.00367164   -0.03384945
     atom   27 type  1   force =     0.00718950    0.00207531   -0.00769176
     atom   28 type  1   force =     0.00144057    0.00223525    0.00593950
     atom   29 type  1   force =    -0.02289286    0.02672869    0.00768747
     atom   30 type  1   force =     0.00449472    0.00944934    0.00238632
     atom   31 type  1   force =    -0.00396093    0.00003280    0.00461580
     atom   32 type  1   force =     0.02129032    0.01869528    0.02499911
     atom   33 type  1   force =    -0.01160611   -0.02144849   -0.01938283
     atom   34 type  1   force =    -0.00451630   -0.00428460   -0.00214922
     atom   35 type  1   force =    -0.00166699   -0.01358079   -0.00388293
     atom   36 type  1   force =    -0.00581630   -0.01556194    0.01160108
     atom   37 type  1   force =     0.00396917    0.00342113   -0.00017367
     atom   38 type  1   force =     0.00573112    0.01223055    0.00227925
     atom   39 type  1   force =     0.03598688    0.00025982    0.00173731
     atom   40 type  1   force =     0.00367709   -0.00076752   -0.00291047
     atom   41 type  1   force =    -0.04158273   -0.03361387   -0.26185749
     atom   42 type  1   force =     0.00413285    0.02638419    0.02672229
     atom   43 type  1   force =     0.00151811   -0.00765489   -0.00437424
     atom   44 type  1   force =    -0.00356871   -0.00308523   -0.02164307
     atom   45 type  1   force =    -0.00962915   -0.00999410   -0.00307654
     atom   46 type  1   force =     0.00000924   -0.00046674    0.00217201
     atom   47 type  1   force =    -0.00006723    0.00523632    0.00023826
     atom   48 type  1   force =     0.00171892    0.00210881    0.00591584
     atom   49 type  1   force =     0.00015311   -0.00025356    0.00262498
     atom   50 type  1   force =    -0.00343535    0.00243073   -0.00218911
     atom   51 type  1   force =     0.00337741   -0.00325932    0.00388535
     atom   52 type  1   force =    -0.00079943   -0.00186170    0.00035430
     atom   53 type  1   force =    -0.00738958   -0.00364924   -0.00347809
     atom   54 type  1   force =    -0.00059788   -0.00604767   -0.00254644
     atom   55 type  1   force =    -0.00625574    0.00036749   -0.00175712
     atom   56 type  1   force =    -0.00460494   -0.00012461    0.00397167
     atom   57 type  1   force =     0.00296814   -0.00246894    0.00533543
     atom   58 type  1   force =    -0.01442300    0.02878437    0.01615795
     atom   59 type  1   force =    -0.02807996    0.00671305   -0.02437385
     atom   60 type  1   force =     0.00692420   -0.01149615    0.00470841
     atom   61 type  1   force =    -0.00441723    0.00728865   -0.00652545
     atom   62 type  1   force =     0.02355249   -0.01291890    0.01577815
     atom   63 type  1   force =    -0.00776678   -0.01603400    0.00965022
     atom   64 type  1   force =    -0.00052434    0.00233071   -0.00466754
     atom   65 type  1   force =     0.00311306   -0.00090455   -0.00347446
     atom   66 type  1   force =     0.00609635   -0.00654416    0.00020444
     atom   67 type  1   force =    -0.00493326    0.00964253   -0.00838510
     atom   68 type  1   force =     0.26110354    0.03982960    0.04082932
     atom   69 type  1   force =     0.02164825    0.00303286    0.00357477
     atom   70 type  1   force =    -0.00071949   -0.00864603   -0.03497012
     atom   71 type  1   force =    -0.03205768    0.01760349   -0.00946853
     atom   72 type  1   force =     0.00506959   -0.00642695    0.01162188
     atom   73 type  1   force =    -0.00199987   -0.00095424    0.00016290
     atom   74 type  1   force =    -0.00248603   -0.00089438   -0.00001399
     atom   75 type  1   force =     0.00007171   -0.00165069    0.00122551
     atom   76 type  1   force =    -0.00146811    0.00489632   -0.00116229
     atom   77 type  1   force =     0.00145541    0.00361657    0.00270116
     atom   78 type  1   force =     0.00402743   -0.00087948    0.00793822
     atom   79 type  1   force =    -0.00619482    0.00019004   -0.00199740
     atom   80 type  1   force =    -0.00290921   -0.00478428   -0.00240073
     atom   81 type  1   force =     0.00388261   -0.00495967    0.00193381
     atom   82 type  1   force =    -0.00537418    0.00622879    0.00386271
     atom   83 type  1   force =    -0.01448755    0.01717295    0.01014770
     atom   84 type  1   force =     0.00045140   -0.00046846    0.00653321
     atom   85 type  1   force =    -0.01432069    0.01721475    0.01031599
     atom   86 type  1   force =    -0.01150659   -0.00212387    0.01202236
     atom   87 type  1   force =    -0.00647536   -0.01765065    0.01441542
     atom   88 type  1   force =    -0.00622369   -0.00208766   -0.00014147
     atom   89 type  1   force =    -0.01002856   -0.01851387    0.01086347
     atom   90 type  1   force =    -0.00211780   -0.00549328    0.00345088
     atom   91 type  1   force =    -0.00773253    0.01610400    0.00382479
     atom   92 type  1   force =     0.00867086    0.01684860    0.01079524
     atom   93 type  1   force =     0.02384495   -0.00005934    0.00627552
     atom   94 type  1   force =    -0.01421021    0.01129752   -0.01208569
     atom   95 type  1   force =     0.00790297   -0.01084994    0.01005206
     atom   96 type  1   force =    -0.00540068   -0.00715574   -0.02297093
     atom   97 type  1   force =    -0.00698115   -0.01446200   -0.00483208
     atom   98 type  1   force =    -0.00539940   -0.02058201    0.01039346
     atom   99 type  1   force =     0.00101033    0.00261372   -0.00164461
     atom  100 type  1   force =     0.01761224    0.00471422    0.00126369
     atom  101 type  1   force =     0.00876429   -0.00012485    0.00243243
     atom  102 type  1   force =    -0.00183512   -0.00000427   -0.01818364
     atom  103 type  1   force =     0.01560099   -0.00209519   -0.01509217
     atom  104 type  1   force =     0.02378898    0.00008438    0.00646509
     atom  105 type  1   force =    -0.00208289   -0.00275670   -0.00841500
     atom  106 type  1   force =    -0.00562010   -0.00705124   -0.02294365
     atom  107 type  1   force =     0.00247952   -0.00600386   -0.00102258
     atom  108 type  1   force =    -0.00319375    0.00089123    0.00297710
     atom  109 type  1   force =     0.00248870    0.00615659    0.00553186
     atom  110 type  1   force =     0.00480066    0.00541655    0.02358180
     atom  111 type  1   force =    -0.00675402    0.00391406   -0.00371112
     atom  112 type  1   force =    -0.01602250    0.00559293    0.01466680
     atom  113 type  1   force =     0.00794264    0.00237313    0.06822048
     atom  114 type  1   force =    -0.02404771   -0.00158226   -0.00526573
     atom  115 type  1   force =    -0.06660129   -0.01571361   -0.00632361
     atom  116 type  1   force =    -0.00192602   -0.00496718    0.00313185
     atom  117 type  1   force =     0.00356445    0.00691582   -0.00524238
     atom  118 type  1   force =     0.00697977    0.01599198   -0.00186768
     atom  119 type  1   force =     0.00383138    0.00554096    0.00539317
     atom  120 type  1   force =    -0.00175560    0.01387288   -0.01060351
     atom  121 type  1   force =     0.01698315   -0.00924327    0.01132127
     atom  122 type  1   force =    -0.00643529    0.00305061   -0.00487376
     atom  123 type  1   force =    -0.00833239   -0.01538620   -0.01399592
     atom  124 type  1   force =     0.03054802   -0.05937586   -0.01614008
     atom  125 type  1   force =     0.00145415    0.00380284   -0.00237691
     atom  126 type  1   force =     0.00191250    0.00765816   -0.00507714
     atom  127 type  1   force =     0.00320275   -0.00198891    0.00232789
     atom  128 type  1   force =     0.00318137    0.00796561   -0.00380856
     atom  129 type  1   force =     0.00963470    0.00873952   -0.01175561
     atom  130 type  1   force =     0.00663409   -0.00212035   -0.00506318
     atom  131 type  1   force =    -0.00170098   -0.00317823   -0.00257559
     atom  132 type  1   force =     0.00560766   -0.00236857   -0.00608937
     atom  133 type  1   force =     0.01355781   -0.01850138   -0.00906777
     atom  134 type  1   force =    -0.00020331    0.00837947   -0.00352068
     atom  135 type  1   force =     0.01777645    0.02112348    0.01841494
     atom  136 type  1   force =     0.01966297    0.01151824    0.06849392
     atom  137 type  1   force =    -0.01000119    0.00905175   -0.00928529
     atom  138 type  1   force =     0.03721391   -0.00335261    0.01244793
     atom  139 type  1   force =     0.01081056   -0.01640722    0.01490951
     atom  140 type  1   force =    -0.01413202   -0.00137975   -0.00144238
     atom  141 type  1   force =    -0.00523508   -0.00848719   -0.00654542
     atom  142 type  1   force =    -0.00274103   -0.00419225    0.00043942
     atom  143 type  1   force =     0.00348780    0.01256504   -0.00824278
     atom  144 type  1   force =     0.01753281    0.01820221   -0.00860825
     atom  145 type  1   force =     0.00703137    0.00004274    0.00186774
     atom  146 type  1   force =     0.00068148    0.00596368   -0.00680562
     atom  147 type  1   force =     0.02748314   -0.00537260   -0.01776070
     atom  148 type  1   force =     0.04354526   -0.05371938   -0.02062537
     atom  149 type  1   force =     0.00242536   -0.00131660   -0.00244148
     atom  150 type  1   force =    -0.00187244   -0.00224541   -0.00560469
     atom  151 type  1   force =     0.01117872   -0.01939541   -0.00869032
     atom  152 type  1   force =     0.00106847    0.00240361    0.00262297
     atom  153 type  1   force =    -0.00413408    0.00392199    0.00281040
     atom  154 type  1   force =     0.00254254    0.00419450    0.02351624
     atom  155 type  1   force =    -0.01369146   -0.00257763   -0.00308448
     atom  156 type  1   force =    -0.00902963    0.00186523    0.00759996
     atom  157 type  1   force =    -0.00337775   -0.00245871    0.00281063
     atom  158 type  1   force =    -0.00817439   -0.00100818   -0.00143416
     atom  159 type  1   force =    -0.01100902   -0.00149358   -0.00184304
     atom  160 type  1   force =     0.00289891   -0.00240952    0.00255128
     atom  161 type  1   force =     0.00143872    0.00877781   -0.00187840
     atom  162 type  1   force =     0.00660047    0.01307849    0.00731643
     atom  163 type  1   force =     0.00132191    0.00237007    0.01401128
     atom  164 type  1   force =    -0.02235859    0.01138609   -0.02172123
     atom  165 type  1   force =    -0.01023588   -0.01486616   -0.03499757
     atom  166 type  1   force =     0.00820808   -0.00522468    0.00689833
     atom  167 type  1   force =    -0.06868772   -0.00991837   -0.01985719
     atom  168 type  1   force =    -0.01030503   -0.02153194   -0.00620730
     atom  169 type  1   force =     0.00048259   -0.00340915    0.00366343
     atom  170 type  1   force =     0.00514507    0.01296742   -0.00658547
     atom  171 type  1   force =     0.00522497    0.00706530   -0.00226161
     atom  172 type  1   force =     0.00275137   -0.00123734   -0.00211564
     atom  173 type  1   force =     0.00457309    0.01505774   -0.02156840
     atom  174 type  1   force =     0.01930507   -0.00735787   -0.02593844
     atom  175 type  1   force =     0.00591954   -0.00035452    0.00218744
     atom  176 type  1   force =    -0.00162326   -0.00205695   -0.00678690
     atom  177 type  1   force =     0.03394345   -0.05604932   -0.03022725
     atom  178 type  1   force =     0.01333324   -0.01887205   -0.00653580
     atom  179 type  1   force =    -0.00308452    0.00139620   -0.00152964
     atom  180 type  1   force =     0.00321266    0.00152326    0.01381913
     atom  181 type  1   force =     0.00139687    0.00131414    0.00813658
     atom  182 type  1   force =    -0.00377275    0.00400959    0.00317172
     atom  183 type  1   force =    -0.00807932    0.00209482    0.00854986
     atom  184 type  1   force =     0.00182711    0.00162085    0.01099265
     atom  185 type  1   force =    -0.02376082   -0.00218684   -0.00278595
     atom  186 type  1   force =    -0.00224628   -0.00218435    0.00394237
     atom  187 type  1   force =    -0.00182757   -0.00355575   -0.00217482
     atom  188 type  1   force =    -0.00426245    0.00513511    0.00301628
     atom  189 type  1   force =     0.00715221    0.01714294    0.06976197
     atom  190 type  1   force =     0.00535287    0.00293181    0.02323060
     atom  191 type  1   force =    -0.07160308   -0.00196509   -0.00899316
     atom  192 type  1   force =    -0.01671418   -0.00403506    0.01769595
     atom  193 type  1   force =     0.00082386   -0.00434383    0.00238482
     atom  194 type  1   force =    -0.02310562   -0.00397333   -0.00522697
     atom  195 type  1   force =    -0.00126858   -0.00485287    0.00029178
     atom  196 type  1   force =    -0.00326629    0.00036293    0.00317770
     atom  197 type  1   force =     0.00063847    0.02580067   -0.00689882
     atom  198 type  1   force =     0.00713274    0.02589424    0.01947901
     atom  199 type  1   force =     0.00602936   -0.00065218    0.00177912
     atom  200 type  1   force =    -0.02482058    0.01814274   -0.01247589
     atom  201 type  1   force =    -0.02462271    0.02445706    0.01868988
     atom  202 type  1   force =     0.00849846   -0.00601605    0.00582165
     atom  203 type  1   force =    -0.00140233   -0.00245584   -0.00565287
     atom  204 type  1   force =    -0.00399352   -0.00904850   -0.00667085
     atom  205 type  1   force =     0.00572083   -0.00901590   -0.00353343
     atom  206 type  1   force =     0.00564926    0.01159232   -0.00846233
     atom  207 type  1   force =     0.00572549    0.00570190   -0.00411853
     atom  208 type  1   force =     0.00149519    0.00220699    0.00257847
     atom  209 type  1   force =     0.00282039    0.00499797   -0.00702346
     atom  210 type  1   force =     0.01164172   -0.00069847   -0.01147114
     atom  211 type  1   force =     0.00644853   -0.01163815   -0.00511931
     atom  212 type  1   force =    -0.00298286    0.00112045   -0.00189915
     atom  213 type  1   force =     0.00790075   -0.01128628   -0.00366701
     atom  214 type  1   force =     0.00430096   -0.00662107   -0.00269447
     atom  215 type  2   force =    -0.32393219   -0.83915888    0.52754835
     The ionic contribution  to forces
     atom    1 type  1   force =    -0.03807322   -0.00531541    0.03936307
     atom    2 type  1   force =    -0.12152035    0.06526823    0.01525645
     atom    3 type  1   force =    -0.02617265   -0.05504190    0.08851499
     atom    4 type  1   force =    -0.03367896    0.08658211    0.10309792
     atom    5 type  1   force =    -0.23901299    0.22732144    0.18385568
     atom    6 type  1   force =     0.04056535    0.02864059    0.29572222
     atom    7 type  1   force =    -0.07375868   -0.06658828    0.04092883
     atom    8 type  1   force =    -0.29285653   -0.05226119   -0.03769985
     atom    9 type  1   force =    -0.16177572   -0.19661116    0.20948163
     atom   10 type  1   force =     0.02493428   -0.04299823   -0.01450107
     atom   11 type  1   force =    -0.05299547   -0.01751414   -0.11874565
     atom   12 type  1   force =     0.03653391   -0.05482272    0.02320494
     atom   13 type  1   force =     0.11796274    0.02396723    0.05221257
     atom   14 type  1   force =     0.76271603    0.48276882   -0.87985550
     atom   15 type  1   force =     0.56830567    0.19780737    0.91312757
     atom   16 type  1   force =    -0.00857485   -0.06576800   -0.02190381
     atom   17 type  1   force =    -0.91738919   -0.16268247   -0.57256704
     atom   18 type  1   force =     0.38327936   -1.09121474   -0.11850612
     atom   19 type  1   force =     0.03971883   -0.02997566   -0.03244547
     atom   20 type  1   force =    -0.05175877   -0.02437114   -0.11601757
     atom   21 type  1   force =     0.08491387   -0.03622071   -0.02292454
     atom   22 type  1   force =     0.11696428    0.01656793    0.05270556
     atom   23 type  1   force =    -0.07591705    0.16313294    0.03633435
     atom   24 type  1   force =     0.31846700    0.12074772   -0.02979084
     atom   25 type  1   force =     0.03323443   -0.04876026   -0.07460394
     atom   26 type  1   force =     0.00958522    0.04580030   -0.33867267
     atom   27 type  1   force =     0.13573200   -0.22676248   -0.08071041
     atom   28 type  1   force =    -0.00650842    0.05969897    0.07361728
     atom   29 type  1   force =    -0.09287424    0.32577009    0.04417507
     atom   30 type  1   force =     0.04129861    0.03093739    0.27152834
     atom   31 type  1   force =    -0.03112522   -0.00398416    0.06244698
     atom   32 type  1   force =    -1.06597964    0.24354302   -0.01771213
     atom   33 type  1   force =     0.04330286   -0.16195776    1.15076163
     atom   34 type  1   force =    -0.06982581   -0.07753055    0.02605402
     atom   35 type  1   force =    -0.29211148   -0.05457363   -0.04081067
     atom   36 type  1   force =    -0.12555446   -0.29582371    0.07405651
     atom   37 type  1   force =     0.12807054   -0.01397009    0.01106905
     atom   38 type  1   force =    -0.01728320    0.00271923   -0.18257420
     atom   39 type  1   force =     0.30942579    0.14509033    0.00361947
     atom   40 type  1   force =     0.13066275   -0.01069079    0.00482909
     atom   41 type  1   force =     0.51897352    1.14852811    0.02936456
     atom   42 type  1   force =     0.87010721   -0.62654040   -0.21314927
     atom   43 type  1   force =     0.02474904   -0.07336477   -0.11530397
     atom   44 type  1   force =    -0.10108091   -0.15004861   -0.33164475
     atom   45 type  1   force =     0.14230536   -0.24993818   -0.08466428
     atom   46 type  1   force =     0.01809698    0.02919287    0.04834780
     atom   47 type  1   force =    -0.09164430    0.08482778    0.03316100
     atom   48 type  1   force =     0.06093922    0.02947500    0.06676389
     atom   49 type  1   force =     0.00752434    0.00504372    0.05093143
     atom   50 type  1   force =    -0.09198336    0.08945938    0.02714561
     atom   51 type  1   force =     0.02780121   -0.03033960    0.05639070
     atom   52 type  1   force =    -0.02280584   -0.04698842   -0.01757260
     atom   53 type  1   force =    -0.08965169   -0.02184543   -0.10389736
     atom   54 type  1   force =    -0.00770065   -0.10542489    0.01965478
     atom   55 type  1   force =    -0.08576938    0.04046703   -0.00564371
     atom   56 type  1   force =    -0.06061229   -0.01113886    0.03295996
     atom   57 type  1   force =    -0.00903151   -0.06277940    0.08684837
     atom   58 type  1   force =    -0.12235230    0.31861754    0.01469690
     atom   59 type  1   force =    -0.07068053    0.48504364    0.97758734
     atom   60 type  1   force =     0.04415368    0.02701779    0.29545447
     atom   61 type  1   force =    -0.26987495   -0.04456613   -0.03964526
     atom   62 type  1   force =    -1.07844304   -0.43413855    0.02901561
     atom   63 type  1   force =    -0.00580271   -0.26676704    0.19380820
     atom   64 type  1   force =    -0.00379749   -0.04596658   -0.12079897
     atom   65 type  1   force =     0.00156524   -0.04201508   -0.12426850
     atom   66 type  1   force =     0.13000680   -0.04782494   -0.01004628
     atom   67 type  1   force =     0.17621822    0.04967062    0.01092719
     atom   68 type  1   force =    -0.28439535    0.95359805   -0.77400422
     atom   69 type  1   force =     0.35463745   -0.03947277    0.12407381
     atom   70 type  1   force =    -0.02886595    0.06300700   -0.33467221
     atom   71 type  1   force =     0.37961235   -0.74555452   -0.70364491
     atom   72 type  1   force =     0.14522335   -0.24923012   -0.08174606
     atom   73 type  1   force =    -0.05332848    0.01186214   -0.02307772
     atom   74 type  1   force =    -0.05044864   -0.00902282   -0.00704155
     atom   75 type  1   force =     0.02749329   -0.03478377    0.03272656
     atom   76 type  1   force =    -0.05482742    0.09376106    0.06997789
     atom   77 type  1   force =    -0.05008547    0.09962552    0.06904351
     atom   78 type  1   force =     0.10351179    0.02502391    0.08926619
     atom   79 type  1   force =    -0.07005941   -0.00231066   -0.06423481
     atom   80 type  1   force =    -0.04683215   -0.04844872   -0.01824265
     atom   81 type  1   force =     0.00553593   -0.10221319    0.03289134
     atom   82 type  1   force =    -0.09002955    0.12632398    0.05937829
     atom   83 type  1   force =    -0.05688801    0.10213265    0.17965718
     atom   84 type  1   force =     0.01860661    0.01521766    0.11604310
     atom   85 type  1   force =    -0.20021940    0.06735444    0.03632569
     atom   86 type  1   force =    -0.34957850   -0.00068796    0.34974545
     atom   87 type  1   force =     0.00151507   -0.04169780    0.20017471
     atom   88 type  1   force =    -0.11577942   -0.01738991   -0.01834307
     atom   89 type  1   force =    -0.18457908   -0.08685167    0.01408055
     atom   90 type  1   force =    -0.04612731   -0.11963863    0.07515659
     atom   91 type  1   force =     0.07747821    0.06142168   -0.09238165
     atom   92 type  1   force =     0.12201391    0.28745971   -0.07038923
     atom   93 type  1   force =     0.14268016    0.01241727    0.15964461
     atom   94 type  1   force =     0.00411055    0.25885150   -0.18829275
     atom   95 type  1   force =     0.28481599   -0.28592838    0.28584271
     atom   96 type  1   force =    -0.15392637   -0.05955147   -0.13696172
     atom   97 type  1   force =    -0.20213046   -0.40408136   -0.20110398
     atom   98 type  1   force =     0.05776414   -0.19587719   -0.01023633
     atom   99 type  1   force =     0.00565347    0.01462896   -0.00920302
     atom  100 type  1   force =    -0.02010636    0.10545190   -0.08255706
     atom  101 type  1   force =     0.16232554    0.01298893    0.03395704
     atom  102 type  1   force =     0.05476611    0.12361910   -0.00768463
     atom  103 type  1   force =     0.15781021    0.18996822   -0.20390448
     atom  104 type  1   force =     0.18627545   -0.10628695   -0.00262978
     atom  105 type  1   force =    -0.03140570   -0.03401816   -0.15977425
     atom  106 type  1   force =     0.03293334   -0.14349402   -0.15597202
     atom  107 type  1   force =     0.05938763   -0.09620052   -0.03604551
     atom  108 type  1   force =    -0.03585039    0.04568373    0.02476576
     atom  109 type  1   force =    -0.04623934    0.11481101    0.11760903
     atom  110 type  1   force =     0.01220731   -0.00572183    0.14652907
     atom  111 type  1   force =    -0.14262946    0.09142267    0.02121888
     atom  112 type  1   force =    -0.54381276    0.32292650    0.46545774
     atom  113 type  1   force =     0.06188134    0.02540255    0.49953320
     atom  114 type  1   force =    -0.14064130   -0.04280918   -0.00631948
     atom  115 type  1   force =    -0.48946717   -0.10837674   -0.05181486
     atom  116 type  1   force =    -0.09502755   -0.24630138    0.15479045
     atom  117 type  1   force =     0.03212987   -0.01195081   -0.02923006
     atom  118 type  1   force =     0.02843485    0.09725397   -0.14961740
     atom  119 type  1   force =     0.13469330    0.03344958    0.09947026
     atom  120 type  1   force =     0.12322915    0.12025493   -0.05482316
     atom  121 type  1   force =     0.67028911   -0.22298049    0.34290292
     atom  122 type  1   force =    -0.10065849   -0.02365625   -0.13588141
     atom  123 type  1   force =    -0.26137319   -0.44903978   -0.58875954
     atom  124 type  1   force =     0.22900757   -0.43155841   -0.12429364
     atom  125 type  1   force =    -0.00416932   -0.01086233    0.00680507
     atom  126 type  1   force =    -0.03459920    0.01814737   -0.02265076
     atom  127 type  1   force =     0.06138864    0.00200939    0.01488485
     atom  128 type  1   force =     0.01673625    0.03060325    0.02868475
     atom  129 type  1   force =    -0.00003175    0.17568355   -0.04259630
     atom  130 type  1   force =     0.16416898   -0.04651650   -0.00989067
     atom  131 type  1   force =    -0.01317734   -0.01608343   -0.05968119
     atom  132 type  1   force =     0.02526637   -0.08021984   -0.14879343
     atom  133 type  1   force =     0.05876050   -0.13255480   -0.02659731
     atom  134 type  1   force =     0.05366056    0.13253853   -0.01388979
     atom  135 type  1   force =     0.22119882    0.74949276    0.05167121
     atom  136 type  1   force =     0.12244832    0.09167714    0.54141710
     atom  137 type  1   force =    -0.14393037    0.07052172   -0.09003859
     atom  138 type  1   force =    -3.63890235   -0.46146357   -0.63717492
     atom  139 type  1   force =     0.19973070   -0.65559520    0.53341706
     atom  140 type  1   force =    -0.10119520   -0.02908114   -0.02586083
     atom  141 type  1   force =    -0.16475157   -0.12009695   -0.09042838
     atom  142 type  1   force =    -0.00479803   -0.16331858    0.06061672
     atom  143 type  1   force =     0.06750654   -0.00851688    0.02441587
     atom  144 type  1   force =    -0.15055675    0.13864777   -0.14171563
     atom  145 type  1   force =     0.25038122    0.07183030    0.01454180
     atom  146 type  1   force =     0.07658940    0.07005479   -0.09934251
     atom  147 type  1   force =     0.40167170    0.25681076   -0.62125135
     atom  148 type  1   force =     0.31461820   -0.43276997   -0.17475403
     atom  149 type  1   force =    -0.00808780   -0.04340141   -0.06969279
     atom  150 type  1   force =    -0.01187068   -0.10297872   -0.18023227
     atom  151 type  1   force =     0.08886835   -0.09926064   -0.04182191
     atom  152 type  1   force =    -0.04106519    0.04707757    0.05375414
     atom  153 type  1   force =    -0.09587278    0.12693871    0.13365815
     atom  154 type  1   force =     0.04284909    0.02671993    0.12995418
     atom  155 type  1   force =    -0.10771181   -0.01075989   -0.00100672
     atom  156 type  1   force =    -0.20929848    0.00220720    0.07638640
     atom  157 type  1   force =    -0.02383169   -0.11077768    0.13224670
     atom  158 type  1   force =    -0.04905899   -0.01437482   -0.00267812
     atom  159 type  1   force =    -0.08061311   -0.03295443    0.00236479
     atom  160 type  1   force =    -0.01613486   -0.07029708    0.04701172
     atom  161 type  1   force =    -0.01621259    0.11558455   -0.08376281
     atom  162 type  1   force =     0.06672592    0.12163554    0.12061762
     atom  163 type  1   force =     0.02908222    0.00252941    0.10441649
     atom  164 type  1   force =    -0.22052534    0.64231251   -0.39005304
     atom  165 type  1   force =     0.62366705    0.57280892    3.62539402
     atom  166 type  1   force =     0.11143847   -0.05308212    0.18576147
     atom  167 type  1   force =    -0.54404235   -0.07004049   -0.12507321
     atom  168 type  1   force =    -0.35792696   -0.79090569   -0.02424052
     atom  169 type  1   force =    -0.02052598   -0.16713479    0.04488893
     atom  170 type  1   force =    -0.01977982   -0.02969606   -0.06287052
     atom  171 type  1   force =     0.08217976    0.07141125   -0.09375216
     atom  172 type  1   force =     0.07769848   -0.02258616    0.01609348
     atom  173 type  1   force =     0.10067848    0.19960781    0.10951933
     atom  174 type  1   force =     0.55444131    0.29387911   -0.46848134
     atom  175 type  1   force =     0.19901122   -0.05181024    0.03064976
     atom  176 type  1   force =    -0.02389669    0.00527929   -0.25973630
     atom  177 type  1   force =     0.28075848   -0.44098556   -0.20861386
     atom  178 type  1   force =     0.06656322   -0.10467279   -0.06412698
     atom  179 type  1   force =    -0.06448756    0.04139443    0.03033180
     atom  180 type  1   force =     0.00043388    0.01548086    0.10713899
     atom  181 type  1   force =     0.00458692   -0.00135813    0.05096772
     atom  182 type  1   force =    -0.16249748    0.11077273    0.06703353
     atom  183 type  1   force =    -0.08070738    0.03340862    0.20497742
     atom  184 type  1   force =     0.00316505   -0.01262665    0.08614290
     atom  185 type  1   force =    -0.13131081   -0.01553839   -0.04420567
     atom  186 type  1   force =    -0.10303607   -0.12999578    0.05304243
     atom  187 type  1   force =    -0.02955954   -0.07355453    0.03358700
     atom  188 type  1   force =    -0.10702530    0.23251351    0.05060818
     atom  189 type  1   force =     0.07853495    0.11147664    0.54574142
     atom  190 type  1   force =     0.01369492    0.03976774    0.13298530
     atom  191 type  1   force =    -0.55416554   -0.04204235   -0.08695875
     atom  192 type  1   force =    -0.52702610   -0.32882134    0.60681168
     atom  193 type  1   force =    -0.04444499   -0.10154031    0.13443157
     atom  194 type  1   force =    -0.13816436    0.00292061   -0.01887381
     atom  195 type  1   force =    -0.10792525   -0.11694304    0.07095142
     atom  196 type  1   force =    -0.03373127   -0.06239903    0.04887192
     atom  197 type  1   force =     0.17677770   -0.00853104   -0.17470765
     atom  198 type  1   force =     0.42034221    0.66002141    0.03151461
     atom  199 type  1   force =     0.17872731    0.00340683    0.10612712
     atom  200 type  1   force =    -0.17416223    0.51577054   -0.56298976
     atom  201 type  1   force =     1.91615338   -2.95836283   -1.19833322
     atom  202 type  1   force =     0.15041031   -0.15961594    0.04027020
     atom  203 type  1   force =    -0.09878467   -0.06392886   -0.17138477
     atom  204 type  1   force =     0.00280431   -0.19543120   -0.10733594
     atom  205 type  1   force =     0.02839588   -0.08208300   -0.00847911
     atom  206 type  1   force =    -0.04611186    0.04260133    0.03577507
     atom  207 type  1   force =     0.06112901    0.12924511   -0.01481796
     atom  208 type  1   force =     0.07069039   -0.00315762    0.04248791
     atom  209 type  1   force =    -0.01432107    0.11093771   -0.09026823
     atom  210 type  1   force =     0.13090916   -0.05304780   -0.11803770
     atom  211 type  1   force =     0.06207835   -0.08714998   -0.01816317
     atom  212 type  1   force =    -0.03850722   -0.02965341   -0.06670977
     atom  213 type  1   force =     0.03996034   -0.09251654   -0.04028118
     atom  214 type  1   force =     0.02085384   -0.04582806   -0.00973402
     atom  215 type  2   force =     1.66795269    4.32183214   -2.71660479
     The local contribution  to forces
     atom    1 type  1   force =     0.03912519    0.00653604   -0.04071233
     atom    2 type  1   force =     0.13000870   -0.06539511   -0.01692648
     atom    3 type  1   force =     0.02897625    0.05496788   -0.09439208
     atom    4 type  1   force =     0.03557192   -0.08830976   -0.11136555
     atom    5 type  1   force =     0.24990172   -0.24492234   -0.19047400
     atom    6 type  1   force =    -0.02844996   -0.02573125   -0.30204583
     atom    7 type  1   force =     0.07956464    0.06724706   -0.04380236
     atom    8 type  1   force =     0.29865549    0.05364387    0.02506681
     atom    9 type  1   force =     0.16684983    0.21359159   -0.21866997
     atom   10 type  1   force =    -0.02590497    0.04540228    0.01488693
     atom   11 type  1   force =     0.05614197    0.01551084    0.12162487
     atom   12 type  1   force =    -0.04004487    0.05854804   -0.02642324
     atom   13 type  1   force =    -0.12020049   -0.02727574   -0.05471676
     atom   14 type  1   force =    -0.63185938   -0.69545968    0.80060673
     atom   15 type  1   force =    -0.58774616   -0.18375317   -0.88450516
     atom   16 type  1   force =     0.01072204    0.07087151    0.02434394
     atom   17 type  1   force =     0.88571941    0.17377248    0.58894866
     atom   18 type  1   force =    -0.36097620    1.08472709    0.09778352
     atom   19 type  1   force =    -0.04039801    0.03189688    0.03265810
     atom   20 type  1   force =     0.05053443    0.02282358    0.12088922
     atom   21 type  1   force =    -0.08877496    0.04034258    0.02567959
     atom   22 type  1   force =    -0.12136903   -0.01888833   -0.05101418
     atom   23 type  1   force =     0.06713112   -0.16648000   -0.02673833
     atom   24 type  1   force =    -0.35101522   -0.12790263    0.01879838
     atom   25 type  1   force =    -0.03699172    0.05291053    0.07746209
     atom   26 type  1   force =     0.00184900   -0.04227938    0.37166111
     atom   27 type  1   force =    -0.14268961    0.22470047    0.08817258
     atom   28 type  1   force =     0.00504908   -0.06183147   -0.07933876
     atom   29 type  1   force =     0.11513686   -0.35184927   -0.05161861
     atom   30 type  1   force =    -0.04566023   -0.04012056   -0.27379371
     atom   31 type  1   force =     0.03513859    0.00399768   -0.06696217
     atom   32 type  1   force =     1.04530680   -0.26248541   -0.00693978
     atom   33 type  1   force =    -0.03147469    0.18413447   -1.13235644
     atom   34 type  1   force =     0.07431298    0.08179022   -0.02400811
     atom   35 type  1   force =     0.29351222    0.06795517    0.04457391
     atom   36 type  1   force =     0.13125197    0.31109133   -0.08558067
     atom   37 type  1   force =    -0.13209016    0.01058827   -0.01082545
     atom   38 type  1   force =     0.01165519   -0.01471508    0.18036207
     atom   39 type  1   force =    -0.34448569   -0.14540608   -0.00526477
     atom   40 type  1   force =    -0.13434610    0.01133388   -0.00193635
     atom   41 type  1   force =    -0.47813155   -1.11532725    0.22729519
     atom   42 type  1   force =    -0.87482237    0.60043534    0.18689721
     atom   43 type  1   force =    -0.02620812    0.08078513    0.11953407
     atom   44 type  1   force =     0.10448805    0.15286403    0.35292706
     atom   45 type  1   force =    -0.13267516    0.25961358    0.08760215
     atom   46 type  1   force =    -0.01817718   -0.02890700   -0.05036743
     atom   47 type  1   force =     0.09177680   -0.09007391   -0.03334466
     atom   48 type  1   force =    -0.06253354   -0.03154746   -0.07247300
     atom   49 type  1   force =    -0.00769158   -0.00482328   -0.05353208
     atom   50 type  1   force =     0.09532748   -0.09197215   -0.02496931
     atom   51 type  1   force =    -0.03115537    0.03366260   -0.06016628
     atom   52 type  1   force =     0.02361016    0.04888671    0.01714760
     atom   53 type  1   force =     0.09679612    0.02539908    0.10725403
     atom   54 type  1   force =     0.00827834    0.11144074   -0.01721256
     atom   55 type  1   force =     0.09178554   -0.04078565    0.00739877
     atom   56 type  1   force =     0.06510904    0.01126546   -0.03699229
     atom   57 type  1   force =     0.00616786    0.06525346   -0.09215415
     atom   58 type  1   force =     0.13636546   -0.34669746   -0.03039066
     atom   59 type  1   force =     0.09850792   -0.49222809   -0.95374322
     atom   60 type  1   force =    -0.05092718   -0.01561921   -0.29986687
     atom   61 type  1   force =     0.27411096    0.03747633    0.04598016
     atom   62 type  1   force =     1.05568086    0.44791755   -0.04519691
     atom   63 type  1   force =     0.01356339    0.28253923   -0.20326853
     atom   64 type  1   force =     0.00424255    0.04366769    0.12550624
     atom   65 type  1   force =    -0.00463284    0.04280531    0.12777724
     atom   66 type  1   force =    -0.13590712    0.05416650    0.00983561
     atom   67 type  1   force =    -0.17140414   -0.05913323   -0.00269747
     atom   68 type  1   force =     0.02841512   -0.99242120    0.73384620
     atom   69 type  1   force =    -0.37588103    0.03630684   -0.12743907
     atom   70 type  1   force =     0.02953724   -0.05464876    0.36875511
     atom   71 type  1   force =    -0.34808818    0.72824316    0.71362831
     atom   72 type  1   force =    -0.15008099    0.25539342    0.07019652
     atom   73 type  1   force =     0.05521945   -0.01109792    0.02302991
     atom   74 type  1   force =     0.05291686    0.00988225    0.00707658
     atom   75 type  1   force =    -0.02750463    0.03648300   -0.03396758
     atom   76 type  1   force =     0.05624480   -0.09869669   -0.06887684
     atom   77 type  1   force =     0.04865976   -0.10329805   -0.07163834
     atom   78 type  1   force =    -0.10740664   -0.02415092   -0.09695093
     atom   79 type  1   force =     0.07604740    0.00208175    0.06610902
     atom   80 type  1   force =     0.04962214    0.05326473    0.02061298
     atom   81 type  1   force =    -0.00930743    0.10717572   -0.03479861
     atom   82 type  1   force =     0.09533184   -0.13270183   -0.06313383
     atom   83 type  1   force =     0.07105946   -0.11892925   -0.18951710
     atom   84 type  1   force =    -0.01903374   -0.01470156   -0.12251965
     atom   85 type  1   force =     0.21415921   -0.08420430   -0.04641513
     atom   86 type  1   force =     0.36092408    0.00278038   -0.36159323
     atom   87 type  1   force =     0.00488954    0.05909530   -0.21415642
     atom   88 type  1   force =     0.12193301    0.01950477    0.01845034
     atom   89 type  1   force =     0.19424253    0.10503820   -0.02480065
     atom   90 type  1   force =     0.04833590    0.12537073   -0.07875498
     atom   91 type  1   force =    -0.06998059   -0.07717999    0.08870642
     atom   92 type  1   force =    -0.13061269   -0.30416182    0.05970168
     atom   93 type  1   force =    -0.16599769   -0.01236343   -0.16571074
     atom   94 type  1   force =     0.00996187   -0.27004717    0.20027382
     atom   95 type  1   force =    -0.29262188    0.29662091   -0.29575015
     atom   96 type  1   force =     0.15913778    0.06652858    0.15942275
     atom   97 type  1   force =     0.20901295    0.41833281    0.20588149
     atom   98 type  1   force =    -0.05235273    0.21597023   -0.00004980
     atom   99 type  1   force =    -0.00673137   -0.01740845    0.01095504
     atom  100 type  1   force =     0.00292257   -0.11011494    0.08136989
     atom  101 type  1   force =    -0.17113465   -0.01302460   -0.03628572
     atom  102 type  1   force =    -0.05300574   -0.12368445    0.02544080
     atom  103 type  1   force =    -0.17326854   -0.18789580    0.21886099
     atom  104 type  1   force =    -0.20951205    0.10614458   -0.00370371
     atom  105 type  1   force =     0.03342371    0.03661048    0.16827225
     atom  106 type  1   force =    -0.02741163    0.15032940    0.17839608
     atom  107 type  1   force =    -0.06180920    0.10217022    0.03701967
     atom  108 type  1   force =     0.03902926   -0.04678161   -0.02767899
     atom  109 type  1   force =     0.04386956   -0.12093354   -0.12312859
     atom  110 type  1   force =    -0.01676491    0.00066156   -0.16940144
     atom  111 type  1   force =     0.14936407   -0.09533410   -0.01763361
     atom  112 type  1   force =     0.55958776   -0.32880921   -0.47980200
     atom  113 type  1   force =    -0.06938912   -0.02739927   -0.56518206
     atom  114 type  1   force =     0.16392041    0.04450721    0.01128522
     atom  115 type  1   force =     0.55348986    0.12373661    0.05770349
     atom  116 type  1   force =     0.09707114    0.25153887   -0.15810084
     atom  117 type  1   force =    -0.03564514    0.00544492    0.03432283
     atom  118 type  1   force =    -0.03519408   -0.11272461    0.15134151
     atom  119 type  1   force =    -0.13857117   -0.03889088   -0.10483164
     atom  120 type  1   force =    -0.12145234   -0.13365405    0.06508344
     atom  121 type  1   force =    -0.68725287    0.23181390   -0.35392460
     atom  122 type  1   force =     0.10703818    0.02070653    0.14077546
     atom  123 type  1   force =     0.26951454    0.46396414    0.60283704
     atom  124 type  1   force =    -0.25821178    0.48881776    0.13960759
     atom  125 type  1   force =     0.00267798    0.00693782   -0.00436125
     atom  126 type  1   force =     0.03294730   -0.02548751    0.02755397
     atom  127 type  1   force =    -0.06470778   -0.00018433   -0.01713706
     atom  128 type  1   force =    -0.01981793   -0.03829140   -0.02521124
     atom  129 type  1   force =    -0.00931344   -0.18407598    0.05397653
     atom  130 type  1   force =    -0.17080414    0.04862291    0.01482980
     atom  131 type  1   force =     0.01484063    0.01911997    0.06241087
     atom  132 type  1   force =    -0.03075124    0.08260821    0.15488360
     atom  133 type  1   force =    -0.07176168    0.15056535    0.03523139
     atom  134 type  1   force =    -0.05338461   -0.14066752    0.01730213
     atom  135 type  1   force =    -0.23809084   -0.77047710   -0.07007186
     atom  136 type  1   force =    -0.14169078   -0.10271688   -0.60720137
     atom  137 type  1   force =     0.15388623   -0.07919044    0.09902529
     atom  138 type  1   force =     3.59948787    0.46442885    0.62443533
     atom  139 type  1   force =    -0.21010270    0.67170858   -0.54800602
     atom  140 type  1   force =     0.11478343    0.03042761    0.02729384
     atom  141 type  1   force =     0.16983266    0.12838101    0.09677696
     atom  142 type  1   force =     0.00753206    0.16736629   -0.06125131
     atom  143 type  1   force =    -0.07103956   -0.00351312   -0.01658148
     atom  144 type  1   force =     0.13359967   -0.15596775    0.14983352
     atom  145 type  1   force =    -0.25781877   -0.07201904   -0.01641574
     atom  146 type  1   force =    -0.07717899   -0.07582828    0.10596626
     atom  147 type  1   force =    -0.42830274   -0.25117303    0.63918662
     atom  148 type  1   force =    -0.35674785    0.48428022    0.19441915
     atom  149 type  1   force =     0.00583243    0.04470708    0.07245113
     atom  150 type  1   force =     0.01376413    0.10508421    0.18589073
     atom  151 type  1   force =    -0.09969659    0.11789393    0.05012061
     atom  152 type  1   force =     0.04026180   -0.04973385   -0.05640374
     atom  153 type  1   force =     0.10001503   -0.13095455   -0.13635668
     atom  154 type  1   force =    -0.04538366   -0.03073080   -0.15258959
     atom  155 type  1   force =     0.12090210    0.01319334    0.00392414
     atom  156 type  1   force =     0.21807831   -0.00401023   -0.08382045
     atom  157 type  1   force =     0.02710979    0.11335206   -0.13490027
     atom  158 type  1   force =     0.05703982    0.01535667    0.00406776
     atom  159 type  1   force =     0.09117148    0.03439364   -0.00061766
     atom  160 type  1   force =     0.01349150    0.07297700   -0.04970855
     atom  161 type  1   force =     0.01482041   -0.12411853    0.08550634
     atom  162 type  1   force =    -0.07312750   -0.13427936   -0.12798868
     atom  163 type  1   force =    -0.03040520   -0.00480115   -0.11789418
     atom  164 type  1   force =     0.24286249   -0.65377401    0.41088232
     atom  165 type  1   force =    -0.61311311   -0.55772371   -3.58817057
     atom  166 type  1   force =    -0.11941674    0.05820032   -0.19247106
     atom  167 type  1   force =     0.60999253    0.07967476    0.14448113
     atom  168 type  1   force =     0.36800947    0.81197743    0.03010635
     atom  169 type  1   force =     0.02026712    0.17045938   -0.04851666
     atom  170 type  1   force =     0.01490339    0.01734080    0.06936064
     atom  171 type  1   force =    -0.08726991   -0.07827949    0.09587652
     atom  172 type  1   force =    -0.08075132    0.02369843   -0.01413174
     atom  173 type  1   force =    -0.10496759   -0.21385380   -0.08873426
     atom  174 type  1   force =    -0.57395349   -0.28651702    0.49353856
     atom  175 type  1   force =    -0.20495235    0.05201388   -0.03282508
     atom  176 type  1   force =     0.02554909   -0.00325978    0.26694957
     atom  177 type  1   force =    -0.31320323    0.49484432    0.23796279
     atom  178 type  1   force =    -0.07932525    0.12283911    0.07049130
     atom  179 type  1   force =     0.06766346   -0.04308482   -0.02900199
     atom  180 type  1   force =    -0.00346284   -0.01698684   -0.12044193
     atom  181 type  1   force =    -0.00594014    0.00007492   -0.05891260
     atom  182 type  1   force =     0.16618149   -0.11489880   -0.07018868
     atom  183 type  1   force =     0.08860877   -0.03542900   -0.21329395
     atom  184 type  1   force =    -0.00490055    0.01108304   -0.09669192
     atom  185 type  1   force =     0.15416924    0.01769289    0.04696631
     atom  186 type  1   force =     0.10510319    0.13227515   -0.05690497
     atom  187 type  1   force =     0.03147327    0.07734270   -0.03172699
     atom  188 type  1   force =     0.11144618   -0.23803873   -0.05368931
     atom  189 type  1   force =    -0.08514172   -0.12819849   -0.61280989
     atom  190 type  1   force =    -0.01875192   -0.04264524   -0.15536788
     atom  191 type  1   force =     0.62306299    0.04364947    0.09540196
     atom  192 type  1   force =     0.54332050    0.33294678   -0.62409879
     atom  193 type  1   force =     0.04381966    0.10586854   -0.13669008
     atom  194 type  1   force =     0.16043697    0.00083314    0.02382209
     atom  195 type  1   force =     0.10908225    0.12169863   -0.07142675
     atom  196 type  1   force =     0.03702862    0.06240882   -0.05217185
     atom  197 type  1   force =    -0.17722269   -0.01621380    0.18115577
     atom  198 type  1   force =    -0.42795789   -0.68516583   -0.05085351
     atom  199 type  1   force =    -0.18480654   -0.00282758   -0.10778844
     atom  200 type  1   force =     0.19865872   -0.53311832    0.57575739
     atom  201 type  1   force =    -1.89046784    2.93207248    1.17903509
     atom  202 type  1   force =    -0.15865936    0.16546637   -0.04597592
     atom  203 type  1   force =     0.10008703    0.06629892    0.17710222
     atom  204 type  1   force =     0.00112445    0.20423240    0.11380779
     atom  205 type  1   force =    -0.03386323    0.09072360    0.01184907
     atom  206 type  1   force =     0.04083018   -0.05384398   -0.02776630
     atom  207 type  1   force =    -0.06672125   -0.13473040    0.01882638
     atom  208 type  1   force =    -0.07253552    0.00097354   -0.04503009
     atom  209 type  1   force =     0.01156006   -0.11573226    0.09710808
     atom  210 type  1   force =    -0.14227227    0.05397189    0.12918006
     atom  211 type  1   force =    -0.06831972    0.09832132    0.02304490
     atom  212 type  1   force =     0.04143720    0.02862860    0.06894280
     atom  213 type  1   force =    -0.04751305    0.10336713    0.04385206
     atom  214 type  1   force =    -0.02503864    0.05227988    0.01235350
     atom  215 type  2   force =    -1.34932878   -3.49636872    2.19769235
     The core correction contribution to forces
     atom    1 type  1   force =     0.00003061    0.00003458   -0.00003900
     atom    2 type  1   force =     0.00019602   -0.00002933   -0.00000555
     atom    3 type  1   force =     0.00006611    0.00005314   -0.00010039
     atom    4 type  1   force =     0.00001792   -0.00007255   -0.00018366
     atom    5 type  1   force =     0.00020288   -0.00031636   -0.00012610
     atom    6 type  1   force =     0.00014400    0.00009994   -0.00007411
     atom    7 type  1   force =     0.00008689    0.00005815   -0.00007962
     atom    8 type  1   force =     0.00005257    0.00007771   -0.00016557
     atom    9 type  1   force =     0.00009974    0.00034209   -0.00018277
     atom   10 type  1   force =    -0.00004670    0.00007086    0.00002951
     atom   11 type  1   force =     0.00006113   -0.00000783    0.00005006
     atom   12 type  1   force =    -0.00004265    0.00012789   -0.00003674
     atom   13 type  1   force =    -0.00004501   -0.00003357   -0.00005609
     atom   14 type  1   force =     0.00234413   -0.00449046   -0.00125456
     atom   15 type  1   force =     0.00042826    0.00056322    0.00051417
     atom   16 type  1   force =     0.00000432    0.00013927    0.00001024
     atom   17 type  1   force =    -0.00061996    0.00030885   -0.00053402
     atom   18 type  1   force =     0.00005268   -0.00085645    0.00015509
     atom   19 type  1   force =    -0.00003489    0.00005447    0.00002168
     atom   20 type  1   force =    -0.00000149   -0.00003209    0.00011880
     atom   21 type  1   force =    -0.00009231    0.00009034    0.00002052
     atom   22 type  1   force =    -0.00010788   -0.00005790    0.00001242
     atom   23 type  1   force =    -0.00014567   -0.00011267    0.00017303
     atom   24 type  1   force =    -0.00066802   -0.00019965   -0.00031624
     atom   25 type  1   force =    -0.00004387    0.00010208    0.00006897
     atom   26 type  1   force =     0.00033516    0.00004374    0.00068693
     atom   27 type  1   force =    -0.00001087   -0.00000746    0.00001265
     atom   28 type  1   force =     0.00000530   -0.00003207   -0.00011456
     atom   29 type  1   force =     0.00054288   -0.00052552   -0.00009293
     atom   30 type  1   force =    -0.00001038   -0.00000982    0.00000885
     atom   31 type  1   force =     0.00003857    0.00004547   -0.00011786
     atom   32 type  1   force =    -0.00066659    0.00041859   -0.00035539
     atom   33 type  1   force =    -0.00011432   -0.00041231    0.00075778
     atom   34 type  1   force =     0.00006423    0.00012039    0.00000527
     atom   35 type  1   force =     0.00000899    0.00019607   -0.00000334
     atom   36 type  1   force =     0.00011053    0.00031172   -0.00022421
     atom   37 type  1   force =    -0.00011040   -0.00005049    0.00002268
     atom   38 type  1   force =    -0.00010398   -0.00022529    0.00002025
     atom   39 type  1   force =    -0.00076567    0.00006557    0.00003968
     atom   40 type  1   force =    -0.00007056    0.00003601    0.00003916
     atom   41 type  1   force =     0.00063052    0.00021309    0.00516711
     atom   42 type  1   force =     0.00070508   -0.00020559   -0.00049546
     atom   43 type  1   force =    -0.00006515    0.00015477    0.00012692
     atom   44 type  1   force =     0.00006305    0.00006503    0.00039572
     atom   45 type  1   force =     0.00012820    0.00014231   -0.00001544
     atom   46 type  1   force =    -0.00001388   -0.00000269   -0.00005675
     atom   47 type  1   force =     0.00002748   -0.00011191    0.00000908
     atom   48 type  1   force =    -0.00005784   -0.00000395   -0.00010832
     atom   49 type  1   force =    -0.00001860   -0.00000814   -0.00007789
     atom   50 type  1   force =     0.00006813   -0.00002607    0.00002508
     atom   51 type  1   force =    -0.00002217    0.00007216   -0.00011229
     atom   52 type  1   force =     0.00002075    0.00006187   -0.00000181
     atom   53 type  1   force =     0.00016737    0.00004974    0.00010348
     atom   54 type  1   force =     0.00003730    0.00013242    0.00000803
     atom   55 type  1   force =     0.00011899   -0.00000447   -0.00000085
     atom   56 type  1   force =     0.00010488    0.00006158   -0.00005156
     atom   57 type  1   force =    -0.00003165    0.00009713   -0.00009062
     atom   58 type  1   force =     0.00022968   -0.00060152   -0.00040614
     atom   59 type  1   force =     0.00022748    0.00063558    0.00053873
     atom   60 type  1   force =    -0.00004270    0.00018354   -0.00005503
     atom   61 type  1   force =    -0.00000658   -0.00000893    0.00001265
     atom   62 type  1   force =    -0.00064219   -0.00054038    0.00022986
     atom   63 type  1   force =     0.00014746    0.00032066   -0.00018726
     atom   64 type  1   force =    -0.00001328   -0.00002693    0.00011980
     atom   65 type  1   force =    -0.00004854    0.00004135    0.00006117
     atom   66 type  1   force =    -0.00016162    0.00013137    0.00003043
     atom   67 type  1   force =     0.00003046   -0.00019265    0.00015470
     atom   68 type  1   force =    -0.00505156   -0.00116561   -0.00051496
     atom   69 type  1   force =    -0.00039791   -0.00004680   -0.00006526
     atom   70 type  1   force =    -0.00007590    0.00023293    0.00072947
     atom   71 type  1   force =     0.00054990   -0.00024326   -0.00065065
     atom   72 type  1   force =    -0.00001490    0.00010759   -0.00015853
     atom   73 type  1   force =     0.00005538    0.00001411    0.00001251
     atom   74 type  1   force =     0.00007705    0.00001507    0.00001776
     atom   75 type  1   force =    -0.00001224    0.00005388   -0.00003480
     atom   76 type  1   force =     0.00001836   -0.00011412   -0.00000005
     atom   77 type  1   force =    -0.00001627   -0.00004652   -0.00005931
     atom   78 type  1   force =    -0.00010746   -0.00001693   -0.00017134
     atom   79 type  1   force =     0.00010451    0.00003541    0.00005402
     atom   80 type  1   force =     0.00009143    0.00009971    0.00000131
     atom   81 type  1   force =    -0.00003796    0.00011415   -0.00006723
     atom   82 type  1   force =     0.00011736   -0.00013741   -0.00008402
     atom   83 type  1   force =     0.00027871   -0.00024921   -0.00010483
     atom   84 type  1   force =    -0.00000266    0.00003060   -0.00009434
     atom   85 type  1   force =     0.00016856   -0.00027596   -0.00021500
     atom   86 type  1   force =     0.00015023    0.00009628   -0.00017359
     atom   87 type  1   force =     0.00010770    0.00031305   -0.00025921
     atom   88 type  1   force =     0.00008436    0.00005170   -0.00000732
     atom   89 type  1   force =     0.00018110    0.00033088   -0.00018584
     atom   90 type  1   force =     0.00004987    0.00014529   -0.00008514
     atom   91 type  1   force =     0.00010833   -0.00025189   -0.00004719
     atom   92 type  1   force =    -0.00005144   -0.00008359   -0.00007051
     atom   93 type  1   force =    -0.00039497    0.00005358   -0.00003772
     atom   94 type  1   force =     0.00008674   -0.00005007    0.00006765
     atom   95 type  1   force =    -0.00006587    0.00019316   -0.00015139
     atom   96 type  1   force =     0.00001273    0.00015249    0.00036998
     atom   97 type  1   force =     0.00009965    0.00023331    0.00001412
     atom   98 type  1   force =     0.00008604    0.00037376   -0.00017674
     atom   99 type  1   force =    -0.00002665   -0.00005385    0.00003973
     atom  100 type  1   force =    -0.00027412   -0.00007952   -0.00000769
     atom  101 type  1   force =    -0.00020367    0.00000635   -0.00005187
     atom  102 type  1   force =     0.00001839   -0.00000856    0.00028481
     atom  103 type  1   force =    -0.00009202    0.00002919    0.00008493
     atom  104 type  1   force =    -0.00036135   -0.00003941   -0.00016218
     atom  105 type  1   force =     0.00004306    0.00006621    0.00019487
     atom  106 type  1   force =     0.00015650    0.00008623    0.00035567
     atom  107 type  1   force =    -0.00002910    0.00010276    0.00000416
     atom  108 type  1   force =    -0.00000420    0.00006649   -0.00001193
     atom  109 type  1   force =    -0.00020111    0.00010691    0.00005962
     atom  110 type  1   force =    -0.00016187   -0.00012847   -0.00063439
     atom  111 type  1   force =    -0.00008886    0.00013415    0.00017188
     atom  112 type  1   force =     0.00007521    0.00030846   -0.00015007
     atom  113 type  1   force =    -0.00032398   -0.00013994   -0.00228223
     atom  114 type  1   force =     0.00064192    0.00006654    0.00016938
     atom  115 type  1   force =     0.00224067    0.00048233    0.00028243
     atom  116 type  1   force =    -0.00001528    0.00005714    0.00000140
     atom  117 type  1   force =    -0.00015502   -0.00031295    0.00023095
     atom  118 type  1   force =    -0.00023412   -0.00047094    0.00016569
     atom  119 type  1   force =     0.00015516   -0.00005311    0.00002485
     atom  120 type  1   force =    -0.00005664   -0.00042789    0.00034318
     atom  121 type  1   force =     0.00009124    0.00030379   -0.00015390
     atom  122 type  1   force =    -0.00000719   -0.00009252   -0.00013749
     atom  123 type  1   force =     0.00008049    0.00030118   -0.00016463
     atom  124 type  1   force =    -0.00110159    0.00197806    0.00062160
     atom  125 type  1   force =    -0.00010449   -0.00017548    0.00014707
     atom  126 type  1   force =    -0.00015786   -0.00031161    0.00023115
     atom  127 type  1   force =    -0.00001751    0.00007257   -0.00001037
     atom  128 type  1   force =    -0.00015559   -0.00031105    0.00023342
     atom  129 type  1   force =    -0.00028896   -0.00032302    0.00036734
     atom  130 type  1   force =     0.00012294    0.00003826    0.00015046
     atom  131 type  1   force =    -0.00000753    0.00007498   -0.00000040
     atom  132 type  1   force =    -0.00015166   -0.00002839   -0.00012413
     atom  133 type  1   force =    -0.00040699    0.00053994    0.00027596
     atom  134 type  1   force =    -0.00017973   -0.00012032    0.00017104
     atom  135 type  1   force =    -0.00094192    0.00004656    0.00019798
     atom  136 type  1   force =    -0.00030807   -0.00032530   -0.00224372
     atom  137 type  1   force =     0.00011237   -0.00018429    0.00021123
     atom  138 type  1   force =     0.00196571    0.00048181    0.00018833
     atom  139 type  1   force =    -0.00037245    0.00042524   -0.00036343
     atom  140 type  1   force =     0.00036859    0.00004078   -0.00003566
     atom  141 type  1   force =     0.00009791    0.00023835    0.00016914
     atom  142 type  1   force =     0.00003327    0.00016170    0.00003220
     atom  143 type  1   force =    -0.00011406   -0.00052317    0.00039565
     atom  144 type  1   force =    -0.00057032   -0.00087495    0.00051801
     atom  145 type  1   force =     0.00024752   -0.00001076    0.00011877
     atom  146 type  1   force =    -0.00015197   -0.00019799    0.00006521
     atom  147 type  1   force =    -0.00079811   -0.00038035   -0.00037867
     atom  148 type  1   force =    -0.00112413    0.00189464    0.00079068
     atom  149 type  1   force =    -0.00015400   -0.00004843   -0.00001473
     atom  150 type  1   force =    -0.00005180   -0.00002679    0.00002530
     atom  151 type  1   force =    -0.00029849    0.00059795    0.00029240
     atom  152 type  1   force =    -0.00017244    0.00000217    0.00005454
     atom  153 type  1   force =    -0.00006058   -0.00000234    0.00005831
     atom  154 type  1   force =    -0.00004270   -0.00009807   -0.00065600
     atom  155 type  1   force =     0.00031781    0.00017891    0.00015262
     atom  156 type  1   force =     0.00018823   -0.00000836   -0.00016681
     atom  157 type  1   force =     0.00006508    0.00007571   -0.00008511
     atom  158 type  1   force =     0.00018148    0.00003542    0.00006984
     atom  159 type  1   force =     0.00027122    0.00004791    0.00008413
     atom  160 type  1   force =    -0.00012307    0.00005030   -0.00002190
     atom  161 type  1   force =    -0.00014291   -0.00011140    0.00020784
     atom  162 type  1   force =    -0.00015854   -0.00025000   -0.00005969
     atom  163 type  1   force =     0.00003557   -0.00004002   -0.00036867
     atom  164 type  1   force =    -0.00023022    0.00021923    0.00090970
     atom  165 type  1   force =    -0.00024033   -0.00005345   -0.00201790
     atom  166 type  1   force =    -0.00021767    0.00016178   -0.00014645
     atom  167 type  1   force =     0.00224741    0.00029473    0.00031177
     atom  168 type  1   force =     0.00024213    0.00057438    0.00025117
     atom  169 type  1   force =    -0.00006843    0.00013701   -0.00006951
     atom  170 type  1   force =    -0.00026428   -0.00055962    0.00024543
     atom  171 type  1   force =    -0.00002103   -0.00016621    0.00019614
     atom  172 type  1   force =     0.00002131   -0.00000589    0.00016060
     atom  173 type  1   force =    -0.00031326   -0.00081258    0.00077509
     atom  174 type  1   force =     0.00043467   -0.00008121    0.00085411
     atom  175 type  1   force =    -0.00001973   -0.00001901    0.00005736
     atom  176 type  1   force =    -0.00010576   -0.00009649   -0.00023451
     atom  177 type  1   force =    -0.00124681    0.00186487    0.00066801
     atom  178 type  1   force =    -0.00043352    0.00056517    0.00015737
     atom  179 type  1   force =    -0.00005840    0.00002983    0.00016857
     atom  180 type  1   force =    -0.00018134    0.00005781   -0.00034652
     atom  181 type  1   force =    -0.00007100   -0.00002584   -0.00018263
     atom  182 type  1   force =    -0.00005781   -0.00000167    0.00006108
     atom  183 type  1   force =     0.00016938   -0.00001292   -0.00018567
     atom  184 type  1   force =    -0.00008526   -0.00003857   -0.00027233
     atom  185 type  1   force =     0.00065916    0.00007220    0.00004584
     atom  186 type  1   force =     0.00006667    0.00007610   -0.00008352
     atom  187 type  1   force =     0.00000590    0.00008158    0.00010705
     atom  188 type  1   force =    -0.00021138    0.00019540    0.00016398
     atom  189 type  1   force =    -0.00047186   -0.00025144   -0.00222410
     atom  190 type  1   force =    -0.00021988   -0.00001801   -0.00063737
     atom  191 type  1   force =     0.00220627    0.00039835    0.00045404
     atom  192 type  1   force =     0.00043051    0.00006298   -0.00044584
     atom  193 type  1   force =    -0.00006792    0.00013551   -0.00007142
     atom  194 type  1   force =     0.00061713    0.00018507    0.00019962
     atom  195 type  1   force =     0.00003548    0.00016062    0.00003200
     atom  196 type  1   force =     0.00004554   -0.00002579   -0.00003927
     atom  197 type  1   force =    -0.00023621   -0.00102732    0.00048551
     atom  198 type  1   force =     0.00064623   -0.00066758    0.00005215
     atom  199 type  1   force =    -0.00001909   -0.00002093    0.00005436
     atom  200 type  1   force =     0.00012516   -0.00079405   -0.00046890
     atom  201 type  1   force =    -0.00088047    0.00174874    0.00045613
     atom  202 type  1   force =    -0.00022357    0.00017764   -0.00012496
     atom  203 type  1   force =    -0.00004841   -0.00002804    0.00002504
     atom  204 type  1   force =     0.00007311    0.00024965    0.00017172
     atom  205 type  1   force =    -0.00019407    0.00025792    0.00013149
     atom  206 type  1   force =    -0.00030925   -0.00043383    0.00041453
     atom  207 type  1   force =    -0.00000958   -0.00019726    0.00015425
     atom  208 type  1   force =     0.00005606   -0.00010120    0.00003164
     atom  209 type  1   force =    -0.00010361   -0.00022010    0.00006022
     atom  210 type  1   force =    -0.00024145   -0.00002482    0.00024745
     atom  211 type  1   force =    -0.00011642    0.00037477    0.00019665
     atom  212 type  1   force =    -0.00000526   -0.00011609   -0.00002970
     atom  213 type  1   force =    -0.00028270    0.00033443    0.00003037
     atom  214 type  1   force =    -0.00014808    0.00018437    0.00010334
     atom  215 type  2   force =     0.00517666    0.01340760   -0.00842995
     The Hubbard contrib.    to forces
     atom    1 type  1   force =     0.00000000    0.00000000    0.00000000
     atom    2 type  1   force =     0.00000000    0.00000000    0.00000000
     atom    3 type  1   force =     0.00000000    0.00000000    0.00000000
     atom    4 type  1   force =     0.00000000    0.00000000    0.00000000
     atom    5 type  1   force =     0.00000000    0.00000000    0.00000000
     atom    6 type  1   force =     0.00000000    0.00000000    0.00000000
     atom    7 type  1   force =     0.00000000    0.00000000    0.00000000
     atom    8 type  1   force =     0.00000000    0.00000000    0.00000000
     atom    9 type  1   force =     0.00000000    0.00000000    0.00000000
     atom   10 type  1   force =     0.00000000    0.00000000    0.00000000
     atom   11 type  1   force =     0.00000000    0.00000000    0.00000000
     atom   12 type  1   force =     0.00000000    0.00000000    0.00000000
     atom   13 type  1   force =     0.00000000    0.00000000    0.00000000
     atom   14 type  1   force =     0.00000000    0.00000000    0.00000000
     atom   15 type  1   force =     0.00000000    0.00000000    0.00000000
     atom   16 type  1   force =     0.00000000    0.00000000    0.00000000
     atom   17 type  1   force =     0.00000000    0.00000000    0.00000000
     atom   18 type  1   force =     0.00000000    0.00000000    0.00000000
     atom   19 type  1   force =     0.00000000    0.00000000    0.00000000
     atom   20 type  1   force =     0.00000000    0.00000000    0.00000000
     atom   21 type  1   force =     0.00000000    0.00000000    0.00000000
     atom   22 type  1   force =     0.00000000    0.00000000    0.00000000
     atom   23 type  1   force =     0.00000000    0.00000000    0.00000000
     atom   24 type  1   force =     0.00000000    0.00000000    0.00000000
     atom   25 type  1   force =     0.00000000    0.00000000    0.00000000
     atom   26 type  1   force =     0.00000000    0.00000000    0.00000000
     atom   27 type  1   force =     0.00000000    0.00000000    0.00000000
     atom   28 type  1   force =     0.00000000    0.00000000    0.00000000
     atom   29 type  1   force =     0.00000000    0.00000000    0.00000000
     atom   30 type  1   force =     0.00000000    0.00000000    0.00000000
     atom   31 type  1   force =     0.00000000    0.00000000    0.00000000
     atom   32 type  1   force =     0.00000000    0.00000000    0.00000000
     atom   33 type  1   force =     0.00000000    0.00000000    0.00000000
     atom   34 type  1   force =     0.00000000    0.00000000    0.00000000
     atom   35 type  1   force =     0.00000000    0.00000000    0.00000000
     atom   36 type  1   force =     0.00000000    0.00000000    0.00000000
     atom   37 type  1   force =     0.00000000    0.00000000    0.00000000
     atom   38 type  1   force =     0.00000000    0.00000000    0.00000000
     atom   39 type  1   force =     0.00000000    0.00000000    0.00000000
     atom   40 type  1   force =     0.00000000    0.00000000    0.00000000
     atom   41 type  1   force =     0.00000000    0.00000000    0.00000000
     atom   42 type  1   force =     0.00000000    0.00000000    0.00000000
     atom   43 type  1   force =     0.00000000    0.00000000    0.00000000
     atom   44 type  1   force =     0.00000000    0.00000000    0.00000000
     atom   45 type  1   force =     0.00000000    0.00000000    0.00000000
     atom   46 type  1   force =     0.00000000    0.00000000    0.00000000
     atom   47 type  1   force =     0.00000000    0.00000000    0.00000000
     atom   48 type  1   force =     0.00000000    0.00000000    0.00000000
     atom   49 type  1   force =     0.00000000    0.00000000    0.00000000
     atom   50 type  1   force =     0.00000000    0.00000000    0.00000000
     atom   51 type  1   force =     0.00000000    0.00000000    0.00000000
     atom   52 type  1   force =     0.00000000    0.00000000    0.00000000
     atom   53 type  1   force =     0.00000000    0.00000000    0.00000000
     atom   54 type  1   force =     0.00000000    0.00000000    0.00000000
     atom   55 type  1   force =     0.00000000    0.00000000    0.00000000
     atom   56 type  1   force =     0.00000000    0.00000000    0.00000000
     atom   57 type  1   force =     0.00000000    0.00000000    0.00000000
     atom   58 type  1   force =     0.00000000    0.00000000    0.00000000
     atom   59 type  1   force =     0.00000000    0.00000000    0.00000000
     atom   60 type  1   force =     0.00000000    0.00000000    0.00000000
     atom   61 type  1   force =     0.00000000    0.00000000    0.00000000
     atom   62 type  1   force =     0.00000000    0.00000000    0.00000000
     atom   63 type  1   force =     0.00000000    0.00000000    0.00000000
     atom   64 type  1   force =     0.00000000    0.00000000    0.00000000
     atom   65 type  1   force =     0.00000000    0.00000000    0.00000000
     atom   66 type  1   force =     0.00000000    0.00000000    0.00000000
     atom   67 type  1   force =     0.00000000    0.00000000    0.00000000
     atom   68 type  1   force =     0.00000000    0.00000000    0.00000000
     atom   69 type  1   force =     0.00000000    0.00000000    0.00000000
     atom   70 type  1   force =     0.00000000    0.00000000    0.00000000
     atom   71 type  1   force =     0.00000000    0.00000000    0.00000000
     atom   72 type  1   force =     0.00000000    0.00000000    0.00000000
     atom   73 type  1   force =     0.00000000    0.00000000    0.00000000
     atom   74 type  1   force =     0.00000000    0.00000000    0.00000000
     atom   75 type  1   force =     0.00000000    0.00000000    0.00000000
     atom   76 type  1   force =     0.00000000    0.00000000    0.00000000
     atom   77 type  1   force =     0.00000000    0.00000000    0.00000000
     atom   78 type  1   force =     0.00000000    0.00000000    0.00000000
     atom   79 type  1   force =     0.00000000    0.00000000    0.00000000
     atom   80 type  1   force =     0.00000000    0.00000000    0.00000000
     atom   81 type  1   force =     0.00000000    0.00000000    0.00000000
     atom   82 type  1   force =     0.00000000    0.00000000    0.00000000
     atom   83 type  1   force =     0.00000000    0.00000000    0.00000000
     atom   84 type  1   force =     0.00000000    0.00000000    0.00000000
     atom   85 type  1   force =     0.00000000    0.00000000    0.00000000
     atom   86 type  1   force =     0.00000000    0.00000000    0.00000000
     atom   87 type  1   force =     0.00000000    0.00000000    0.00000000
     atom   88 type  1   force =     0.00000000    0.00000000    0.00000000
     atom   89 type  1   force =     0.00000000    0.00000000    0.00000000
     atom   90 type  1   force =     0.00000000    0.00000000    0.00000000
     atom   91 type  1   force =     0.00000000    0.00000000    0.00000000
     atom   92 type  1   force =     0.00000000    0.00000000    0.00000000
     atom   93 type  1   force =     0.00000000    0.00000000    0.00000000
     atom   94 type  1   force =     0.00000000    0.00000000    0.00000000
     atom   95 type  1   force =     0.00000000    0.00000000    0.00000000
     atom   96 type  1   force =     0.00000000    0.00000000    0.00000000
     atom   97 type  1   force =     0.00000000    0.00000000    0.00000000
     atom   98 type  1   force =     0.00000000    0.00000000    0.00000000
     atom   99 type  1   force =     0.00000000    0.00000000    0.00000000
     atom  100 type  1   force =     0.00000000    0.00000000    0.00000000
     atom  101 type  1   force =     0.00000000    0.00000000    0.00000000
     atom  102 type  1   force =     0.00000000    0.00000000    0.00000000
     atom  103 type  1   force =     0.00000000    0.00000000    0.00000000
     atom  104 type  1   force =     0.00000000    0.00000000    0.00000000
     atom  105 type  1   force =     0.00000000    0.00000000    0.00000000
     atom  106 type  1   force =     0.00000000    0.00000000    0.00000000
     atom  107 type  1   force =     0.00000000    0.00000000    0.00000000
     atom  108 type  1   force =     0.00000000    0.00000000    0.00000000
     atom  109 type  1   force =     0.00000000    0.00000000    0.00000000
     atom  110 type  1   force =     0.00000000    0.00000000    0.00000000
     atom  111 type  1   force =     0.00000000    0.00000000    0.00000000
     atom  112 type  1   force =     0.00000000    0.00000000    0.00000000
     atom  113 type  1   force =     0.00000000    0.00000000    0.00000000
     atom  114 type  1   force =     0.00000000    0.00000000    0.00000000
     atom  115 type  1   force =     0.00000000    0.00000000    0.00000000
     atom  116 type  1   force =     0.00000000    0.00000000    0.00000000
     atom  117 type  1   force =     0.00000000    0.00000000    0.00000000
     atom  118 type  1   force =     0.00000000    0.00000000    0.00000000
     atom  119 type  1   force =     0.00000000    0.00000000    0.00000000
     atom  120 type  1   force =     0.00000000    0.00000000    0.00000000
     atom  121 type  1   force =     0.00000000    0.00000000    0.00000000
     atom  122 type  1   force =     0.00000000    0.00000000    0.00000000
     atom  123 type  1   force =     0.00000000    0.00000000    0.00000000
     atom  124 type  1   force =     0.00000000    0.00000000    0.00000000
     atom  125 type  1   force =     0.00000000    0.00000000    0.00000000
     atom  126 type  1   force =     0.00000000    0.00000000    0.00000000
     atom  127 type  1   force =     0.00000000    0.00000000    0.00000000
     atom  128 type  1   force =     0.00000000    0.00000000    0.00000000
     atom  129 type  1   force =     0.00000000    0.00000000    0.00000000
     atom  130 type  1   force =     0.00000000    0.00000000    0.00000000
     atom  131 type  1   force =     0.00000000    0.00000000    0.00000000
     atom  132 type  1   force =     0.00000000    0.00000000    0.00000000
     atom  133 type  1   force =     0.00000000    0.00000000    0.00000000
     atom  134 type  1   force =     0.00000000    0.00000000    0.00000000
     atom  135 type  1   force =     0.00000000    0.00000000    0.00000000
     atom  136 type  1   force =     0.00000000    0.00000000    0.00000000
     atom  137 type  1   force =     0.00000000    0.00000000    0.00000000
     atom  138 type  1   force =     0.00000000    0.00000000    0.00000000
     atom  139 type  1   force =     0.00000000    0.00000000    0.00000000
     atom  140 type  1   force =     0.00000000    0.00000000    0.00000000
     atom  141 type  1   force =     0.00000000    0.00000000    0.00000000
     atom  142 type  1   force =     0.00000000    0.00000000    0.00000000
     atom  143 type  1   force =     0.00000000    0.00000000    0.00000000
     atom  144 type  1   force =     0.00000000    0.00000000    0.00000000
     atom  145 type  1   force =     0.00000000    0.00000000    0.00000000
     atom  146 type  1   force =     0.00000000    0.00000000    0.00000000
     atom  147 type  1   force =     0.00000000    0.00000000    0.00000000
     atom  148 type  1   force =     0.00000000    0.00000000    0.00000000
     atom  149 type  1   force =     0.00000000    0.00000000    0.00000000
     atom  150 type  1   force =     0.00000000    0.00000000    0.00000000
     atom  151 type  1   force =     0.00000000    0.00000000    0.00000000
     atom  152 type  1   force =     0.00000000    0.00000000    0.00000000
     atom  153 type  1   force =     0.00000000    0.00000000    0.00000000
     atom  154 type  1   force =     0.00000000    0.00000000    0.00000000
     atom  155 type  1   force =     0.00000000    0.00000000    0.00000000
     atom  156 type  1   force =     0.00000000    0.00000000    0.00000000
     atom  157 type  1   force =     0.00000000    0.00000000    0.00000000
     atom  158 type  1   force =     0.00000000    0.00000000    0.00000000
     atom  159 type  1   force =     0.00000000    0.00000000    0.00000000
     atom  160 type  1   force =     0.00000000    0.00000000    0.00000000
     atom  161 type  1   force =     0.00000000    0.00000000    0.00000000
     atom  162 type  1   force =     0.00000000    0.00000000    0.00000000
     atom  163 type  1   force =     0.00000000    0.00000000    0.00000000
     atom  164 type  1   force =     0.00000000    0.00000000    0.00000000
     atom  165 type  1   force =     0.00000000    0.00000000    0.00000000
     atom  166 type  1   force =     0.00000000    0.00000000    0.00000000
     atom  167 type  1   force =     0.00000000    0.00000000    0.00000000
     atom  168 type  1   force =     0.00000000    0.00000000    0.00000000
     atom  169 type  1   force =     0.00000000    0.00000000    0.00000000
     atom  170 type  1   force =     0.00000000    0.00000000    0.00000000
     atom  171 type  1   force =     0.00000000    0.00000000    0.00000000
     atom  172 type  1   force =     0.00000000    0.00000000    0.00000000
     atom  173 type  1   force =     0.00000000    0.00000000    0.00000000
     atom  174 type  1   force =     0.00000000    0.00000000    0.00000000
     atom  175 type  1   force =     0.00000000    0.00000000    0.00000000
     atom  176 type  1   force =     0.00000000    0.00000000    0.00000000
     atom  177 type  1   force =     0.00000000    0.00000000    0.00000000
     atom  178 type  1   force =     0.00000000    0.00000000    0.00000000
     atom  179 type  1   force =     0.00000000    0.00000000    0.00000000
     atom  180 type  1   force =     0.00000000    0.00000000    0.00000000
     atom  181 type  1   force =     0.00000000    0.00000000    0.00000000
     atom  182 type  1   force =     0.00000000    0.00000000    0.00000000
     atom  183 type  1   force =     0.00000000    0.00000000    0.00000000
     atom  184 type  1   force =     0.00000000    0.00000000    0.00000000
     atom  185 type  1   force =     0.00000000    0.00000000    0.00000000
     atom  186 type  1   force =     0.00000000    0.00000000    0.00000000
     atom  187 type  1   force =     0.00000000    0.00000000    0.00000000
     atom  188 type  1   force =     0.00000000    0.00000000    0.00000000
     atom  189 type  1   force =     0.00000000    0.00000000    0.00000000
     atom  190 type  1   force =     0.00000000    0.00000000    0.00000000
     atom  191 type  1   force =     0.00000000    0.00000000    0.00000000
     atom  192 type  1   force =     0.00000000    0.00000000    0.00000000
     atom  193 type  1   force =     0.00000000    0.00000000    0.00000000
     atom  194 type  1   force =     0.00000000    0.00000000    0.00000000
     atom  195 type  1   force =     0.00000000    0.00000000    0.00000000
     atom  196 type  1   force =     0.00000000    0.00000000    0.00000000
     atom  197 type  1   force =     0.00000000    0.00000000    0.00000000
     atom  198 type  1   force =     0.00000000    0.00000000    0.00000000
     atom  199 type  1   force =     0.00000000    0.00000000    0.00000000
     atom  200 type  1   force =     0.00000000    0.00000000    0.00000000
     atom  201 type  1   force =     0.00000000    0.00000000    0.00000000
     atom  202 type  1   force =     0.00000000    0.00000000    0.00000000
     atom  203 type  1   force =     0.00000000    0.00000000    0.00000000
     atom  204 type  1   force =     0.00000000    0.00000000    0.00000000
     atom  205 type  1   force =     0.00000000    0.00000000    0.00000000
     atom  206 type  1   force =     0.00000000    0.00000000    0.00000000
     atom  207 type  1   force =     0.00000000    0.00000000    0.00000000
     atom  208 type  1   force =     0.00000000    0.00000000    0.00000000
     atom  209 type  1   force =     0.00000000    0.00000000    0.00000000
     atom  210 type  1   force =     0.00000000    0.00000000    0.00000000
     atom  211 type  1   force =     0.00000000    0.00000000    0.00000000
     atom  212 type  1   force =     0.00000000    0.00000000    0.00000000
     atom  213 type  1   force =     0.00000000    0.00000000    0.00000000
     atom  214 type  1   force =     0.00000000    0.00000000    0.00000000
     atom  215 type  2   force =     0.00000000    0.00000000    0.00000000
     The SCF correction term to forces
     atom    1 type  1   force =     0.00001317    0.00001088   -0.00001468
     atom    2 type  1   force =     0.00002086   -0.00000492    0.00000981
     atom    3 type  1   force =     0.00000004    0.00001455   -0.00000732
     atom    4 type  1   force =    -0.00000528   -0.00001126   -0.00001434
     atom    5 type  1   force =     0.00000170   -0.00001227    0.00000190
     atom    6 type  1   force =    -0.00001158   -0.00000601    0.00000109
     atom    7 type  1   force =     0.00000426    0.00000991   -0.00000446
     atom    8 type  1   force =     0.00000515   -0.00000936    0.00000936
     atom    9 type  1   force =    -0.00000679    0.00000791   -0.00000227
     atom   10 type  1   force =     0.00000130    0.00000273   -0.00000009
     atom   11 type  1   force =    -0.00000047   -0.00001520    0.00000266
     atom   12 type  1   force =    -0.00000609    0.00000621   -0.00000490
     atom   13 type  1   force =     0.00000489   -0.00001519    0.00000659
     atom   14 type  1   force =     0.00001274   -0.00000943   -0.00001158
     atom   15 type  1   force =     0.00000082    0.00000557   -0.00000917
     atom   16 type  1   force =     0.00000367    0.00000241    0.00000483
     atom   17 type  1   force =     0.00000512    0.00000292    0.00000714
     atom   18 type  1   force =    -0.00000891   -0.00000092    0.00000089
     atom   19 type  1   force =    -0.00001461    0.00000619    0.00001353
     atom   20 type  1   force =     0.00000423   -0.00002063    0.00001151
     atom   21 type  1   force =    -0.00001508    0.00000706   -0.00000745
     atom   22 type  1   force =    -0.00000383   -0.00002112    0.00000335
     atom   23 type  1   force =    -0.00000048   -0.00001020    0.00000533
     atom   24 type  1   force =    -0.00000786    0.00000738   -0.00001852
     atom   25 type  1   force =     0.00000394    0.00000770    0.00001253
     atom   26 type  1   force =     0.00001562    0.00000813    0.00000654
     atom   27 type  1   force =     0.00000277    0.00001311   -0.00001135
     atom   28 type  1   force =     0.00000987   -0.00000701   -0.00000650
     atom   29 type  1   force =     0.00001736    0.00000294   -0.00000303
     atom   30 type  1   force =     0.00000275    0.00001850   -0.00000528
     atom   31 type  1   force =     0.00000467   -0.00000514   -0.00000226
     atom   32 type  1   force =     0.00000477   -0.00000598   -0.00000483
     atom   33 type  1   force =    -0.00001055   -0.00001118   -0.00000340
     atom   34 type  1   force =     0.00000453    0.00000921   -0.00000592
     atom   35 type  1   force =     0.00000566   -0.00000954    0.00000910
     atom   36 type  1   force =    -0.00000397    0.00000432   -0.00000866
     atom   37 type  1   force =    -0.00000538   -0.00001032    0.00001548
     atom   38 type  1   force =     0.00000109   -0.00000789    0.00000597
     atom   39 type  1   force =    -0.00000813    0.00001823   -0.00000701
     atom   40 type  1   force =     0.00000347   -0.00001157    0.00001055
     atom   41 type  1   force =     0.00000714    0.00000684    0.00001333
     atom   42 type  1   force =    -0.00000366    0.00000498   -0.00000864
     atom   43 type  1   force =    -0.00001071    0.00000997    0.00001082
     atom   44 type  1   force =     0.00000260   -0.00000424    0.00001175
     atom   45 type  1   force =    -0.00000882   -0.00000181    0.00000145
     atom   46 type  1   force =    -0.00000755   -0.00001331   -0.00001243
     atom   47 type  1   force =     0.00000133   -0.00001569    0.00001865
     atom   48 type  1   force =    -0.00001577    0.00000638   -0.00000746
     atom   49 type  1   force =    -0.00000020    0.00000006   -0.00000124
     atom   50 type  1   force =    -0.00000560   -0.00000921    0.00001404
     atom   51 type  1   force =    -0.00000945    0.00000320   -0.00000462
     atom   52 type  1   force =     0.00000907    0.00002105   -0.00000093
     atom   53 type  1   force =     0.00002056   -0.00000482    0.00001115
     atom   54 type  1   force =    -0.00000011    0.00001281   -0.00000917
     atom   55 type  1   force =     0.00001097   -0.00000635   -0.00000596
     atom   56 type  1   force =     0.00000440    0.00000008   -0.00000175
     atom   57 type  1   force =     0.00000452    0.00001141   -0.00000526
     atom   58 type  1   force =     0.00000442   -0.00000162   -0.00001603
     atom   59 type  1   force =    -0.00000200    0.00000402   -0.00000557
     atom   60 type  1   force =    -0.00000176   -0.00001222    0.00000280
     atom   61 type  1   force =     0.00000536    0.00001060   -0.00000548
     atom   62 type  1   force =    -0.00000043   -0.00000367    0.00000138
     atom   63 type  1   force =     0.00000464    0.00000131   -0.00000025
     atom   64 type  1   force =    -0.00001226   -0.00001145    0.00000992
     atom   65 type  1   force =    -0.00000656   -0.00001158    0.00000015
     atom   66 type  1   force =    -0.00001218    0.00001083    0.00000833
     atom   67 type  1   force =    -0.00000261   -0.00000800    0.00000256
     atom   68 type  1   force =    -0.00001286    0.00000546   -0.00001157
     atom   69 type  1   force =    -0.00000572   -0.00000572   -0.00000058
     atom   70 type  1   force =     0.00000069    0.00001586    0.00000593
     atom   71 type  1   force =     0.00000121    0.00000526    0.00000047
     atom   72 type  1   force =    -0.00000326   -0.00000428    0.00000696
     atom   73 type  1   force =     0.00001618   -0.00000748    0.00001069
     atom   74 type  1   force =     0.00000251    0.00000182    0.00000106
     atom   75 type  1   force =    -0.00000410    0.00001923   -0.00001381
     atom   76 type  1   force =    -0.00001269   -0.00001776    0.00000443
     atom   77 type  1   force =    -0.00001230   -0.00000762    0.00000914
     atom   78 type  1   force =    -0.00000837   -0.00000938   -0.00001506
     atom   79 type  1   force =     0.00000603    0.00000674    0.00001285
     atom   80 type  1   force =     0.00000162    0.00000326    0.00000422
     atom   81 type  1   force =     0.00000300    0.00001081   -0.00000556
     atom   82 type  1   force =     0.00001210   -0.00000747   -0.00000958
     atom   83 type  1   force =     0.00000541    0.00000608    0.00000415
     atom   84 type  1   force =    -0.00000202    0.00000103   -0.00001044
     atom   85 type  1   force =    -0.00000215    0.00000009   -0.00000662
     atom   86 type  1   force =    -0.00000587   -0.00000972    0.00000221
     atom   87 type  1   force =    -0.00000224   -0.00000224    0.00000196
     atom   88 type  1   force =     0.00001400    0.00000272    0.00000225
     atom   89 type  1   force =    -0.00000030    0.00000102    0.00000013
     atom   90 type  1   force =     0.00000212    0.00000945   -0.00000571
     atom   91 type  1   force =     0.00000235   -0.00000427   -0.00000009
     atom   92 type  1   force =     0.00000532    0.00001144   -0.00000206
     atom   93 type  1   force =     0.00000280    0.00000853    0.00000252
     atom   94 type  1   force =    -0.00000001    0.00000404   -0.00000500
     atom   95 type  1   force =    -0.00000241   -0.00001008    0.00000275
     atom   96 type  1   force =    -0.00000236    0.00000646   -0.00000007
     atom   97 type  1   force =    -0.00000238   -0.00000439    0.00000624
     atom   98 type  1   force =     0.00000013   -0.00000046   -0.00000073
     atom   99 type  1   force =    -0.00000985   -0.00002537    0.00001610
     atom  100 type  1   force =    -0.00000341   -0.00000178    0.00000086
     atom  101 type  1   force =    -0.00001547    0.00000564   -0.00000753
     atom  102 type  1   force =    -0.00000016   -0.00000233    0.00000497
     atom  103 type  1   force =     0.00000432    0.00000401   -0.00000688
     atom  104 type  1   force =     0.00000188   -0.00000032   -0.00000819
     atom  105 type  1   force =     0.00000607    0.00000997    0.00001469
     atom  106 type  1   force =     0.00000795    0.00000126   -0.00000163
     atom  107 type  1   force =    -0.00000637    0.00001194    0.00000225
     atom  108 type  1   force =     0.00001414   -0.00000223   -0.00001231
     atom  109 type  1   force =     0.00001691    0.00000406    0.00000305
     atom  110 type  1   force =     0.00000273    0.00001560   -0.00000697
     atom  111 type  1   force =    -0.00000048   -0.00000241   -0.00001469
     atom  112 type  1   force =    -0.00000082   -0.00000975   -0.00000150
     atom  113 type  1   force =    -0.00000797   -0.00001055    0.00000225
     atom  114 type  1   force =     0.00000593    0.00001156   -0.00000614
     atom  115 type  1   force =     0.00000464   -0.00000823    0.00000783
     atom  116 type  1   force =    -0.00000288    0.00000220   -0.00000210
     atom  117 type  1   force =    -0.00000449   -0.00000773    0.00000747
     atom  118 type  1   force =     0.00000042   -0.00000810    0.00000401
     atom  119 type  1   force =    -0.00000547    0.00001678   -0.00000043
     atom  120 type  1   force =    -0.00000026   -0.00000922    0.00000373
     atom  121 type  1   force =    -0.00000408   -0.00000371   -0.00000403
     atom  122 type  1   force =    -0.00000365    0.00001394    0.00000380
     atom  123 type  1   force =     0.00000197   -0.00000118    0.00000944
     atom  124 type  1   force =    -0.00000685   -0.00000316    0.00000386
     atom  125 type  1   force =    -0.00000593   -0.00001342    0.00000917
     atom  126 type  1   force =     0.00000120   -0.00001261    0.00001089
     atom  127 type  1   force =    -0.00001560    0.00001241   -0.00001146
     atom  128 type  1   force =    -0.00000571   -0.00001278    0.00000414
     atom  129 type  1   force =    -0.00000327   -0.00000897    0.00000702
     atom  130 type  1   force =    -0.00000521    0.00000171   -0.00001663
     atom  131 type  1   force =     0.00000745    0.00001511    0.00001185
     atom  132 type  1   force =     0.00001666    0.00000348    0.00000420
     atom  133 type  1   force =     0.00000180    0.00001422   -0.00000881
     atom  134 type  1   force =     0.00000713   -0.00000918   -0.00000506
     atom  135 type  1   force =     0.00001136    0.00000752   -0.00000365
     atom  136 type  1   force =     0.00000134    0.00000704   -0.00000162
     atom  137 type  1   force =     0.00000348    0.00000604   -0.00000390
     atom  138 type  1   force =     0.00000441   -0.00000283    0.00000075
     atom  139 type  1   force =    -0.00000432   -0.00000420   -0.00000145
     atom  140 type  1   force =     0.00000163    0.00000459   -0.00000643
     atom  141 type  1   force =     0.00000122   -0.00001251    0.00000602
     atom  142 type  1   force =    -0.00000152    0.00000235   -0.00000667
     atom  143 type  1   force =    -0.00000716   -0.00001961    0.00001140
     atom  144 type  1   force =     0.00000003   -0.00000356    0.00000118
     atom  145 type  1   force =    -0.00000976    0.00001057   -0.00001181
     atom  146 type  1   force =     0.00000273    0.00000347    0.00001135
     atom  147 type  1   force =     0.00001129    0.00000639   -0.00000042
     atom  148 type  1   force =    -0.00000033    0.00000491   -0.00000664
     atom  149 type  1   force =    -0.00001286    0.00000612    0.00001515
     atom  150 type  1   force =     0.00000203   -0.00001474    0.00000466
     atom  151 type  1   force =    -0.00001374    0.00000539    0.00000348
     atom  152 type  1   force =    -0.00000622   -0.00001536   -0.00001267
     atom  153 type  1   force =    -0.00000291   -0.00000855    0.00001395
     atom  154 type  1   force =    -0.00001169   -0.00000540   -0.00000826
     atom  155 type  1   force =    -0.00000007    0.00000769   -0.00000109
     atom  156 type  1   force =    -0.00000212   -0.00000959    0.00001151
     atom  157 type  1   force =    -0.00000542    0.00000574    0.00000072
     atom  158 type  1   force =     0.00001740    0.00001035   -0.00000256
     atom  159 type  1   force =     0.00001307   -0.00000246    0.00000666
     atom  160 type  1   force =     0.00000045    0.00001668   -0.00001093
     atom  161 type  1   force =     0.00000904   -0.00000824   -0.00000274
     atom  162 type  1   force =     0.00000220    0.00001334   -0.00000484
     atom  163 type  1   force =     0.00000779    0.00000621   -0.00000044
     atom  164 type  1   force =     0.00000231    0.00000003   -0.00001234
     atom  165 type  1   force =    -0.00000602   -0.00000095   -0.00000957
     atom  166 type  1   force =     0.00000207   -0.00001601    0.00000514
     atom  167 type  1   force =     0.00000489    0.00000431    0.00000281
     atom  168 type  1   force =    -0.00000448    0.00000168   -0.00000070
     atom  169 type  1   force =     0.00000589    0.00000016    0.00000049
     atom  170 type  1   force =    -0.00000583   -0.00002012    0.00001345
     atom  171 type  1   force =    -0.00001191    0.00000338   -0.00000507
     atom  172 type  1   force =    -0.00001522    0.00000524    0.00001202
     atom  173 type  1   force =     0.00000075   -0.00000376    0.00000313
     atom  174 type  1   force =    -0.00000127    0.00000706   -0.00001632
     atom  175 type  1   force =     0.00000194   -0.00001423    0.00000365
     atom  176 type  1   force =     0.00000844    0.00001226    0.00000929
     atom  177 type  1   force =     0.00000086    0.00000676   -0.00000423
     atom  178 type  1   force =    -0.00000599    0.00000454    0.00001182
     atom  179 type  1   force =     0.00001750   -0.00001017    0.00001045
     atom  180 type  1   force =    -0.00000228    0.00001180   -0.00000165
     atom  181 type  1   force =     0.00000100    0.00000663   -0.00001792
     atom  182 type  1   force =    -0.00000918   -0.00001101    0.00000599
     atom  183 type  1   force =    -0.00001398   -0.00000744    0.00000416
     atom  184 type  1   force =    -0.00000390   -0.00000651   -0.00000761
     atom  185 type  1   force =     0.00001283   -0.00000422    0.00001200
     atom  186 type  1   force =    -0.00000554    0.00000702   -0.00000165
     atom  187 type  1   force =     0.00000580    0.00001492   -0.00000573
     atom  188 type  1   force =     0.00001164   -0.00000197   -0.00001017
     atom  189 type  1   force =    -0.00000116    0.00000807   -0.00000117
     atom  190 type  1   force =    -0.00000084   -0.00001165   -0.00000651
     atom  191 type  1   force =     0.00000503   -0.00000012   -0.00000268
     atom  192 type  1   force =    -0.00000677   -0.00000266   -0.00000326
     atom  193 type  1   force =     0.00000494   -0.00000023    0.00000239
     atom  194 type  1   force =     0.00001408   -0.00000804    0.00000617
     atom  195 type  1   force =    -0.00000366    0.00000406   -0.00000640
     atom  196 type  1   force =     0.00000699    0.00001236   -0.00000904
     atom  197 type  1   force =     0.00000245   -0.00000447   -0.00000015
     atom  198 type  1   force =    -0.00000119    0.00001655   -0.00000739
     atom  199 type  1   force =     0.00000231   -0.00000875    0.00001006
     atom  200 type  1   force =     0.00000094    0.00001052    0.00000181
     atom  201 type  1   force =    -0.00000656    0.00000461   -0.00000374
     atom  202 type  1   force =     0.00000107   -0.00000949    0.00001004
     atom  203 type  1   force =    -0.00000628   -0.00001005    0.00000454
     atom  204 type  1   force =    -0.00000903   -0.00000646    0.00000065
     atom  205 type  1   force =    -0.00000528    0.00000594    0.00000501
     atom  206 type  1   force =    -0.00000726   -0.00002138    0.00001369
     atom  207 type  1   force =    -0.00001411    0.00000177   -0.00000481
     atom  208 type  1   force =    -0.00000996   -0.00001374   -0.00001178
     atom  209 type  1   force =     0.00000426    0.00000169    0.00001317
     atom  210 type  1   force =     0.00000072    0.00000871   -0.00000725
     atom  211 type  1   force =     0.00000574    0.00000492   -0.00000152
     atom  212 type  1   force =     0.00001674   -0.00000782    0.00001438
     atom  213 type  1   force =    -0.00000062    0.00000641   -0.00000847
     atom  214 type  1   force =    -0.00000469    0.00002004   -0.00000006
     atom  215 type  2   force =     0.00000310    0.00000248   -0.00000793

     Total force =     0.003206     Total SCF correction =     0.000214


     Computing stress (Cartesian axis) and pressure

          total   stress  (Ry/bohr**3)                   (kbar)     P=      -45.26
  -0.00033072   0.00002436  -0.00001530          -48.65        3.58       -2.25
   0.00002436  -0.00027711  -0.00003965            3.58      -40.76       -5.83
  -0.00001530  -0.00003965  -0.00031519           -2.25       -5.83      -46.37

     kinetic stress (kbar)  18851.11      9.17     -5.77
                                9.17  18871.34    -14.94
                               -5.77    -14.94  18856.96

     local   stress (kbar)  -3553.20     21.49    -13.57
                               21.49  -3505.60    -35.07
                              -13.57    -35.07  -3539.48

     nonloc. stress (kbar)   4204.70     -0.21      0.14
                               -0.21   4204.22      0.35
                                0.14      0.35   4204.56

     hartree stress (kbar)   1296.30     -9.88      6.22
                               -9.88   1274.49     16.10
                                6.22     16.10   1290.00

     exc-cor stress (kbar)   -440.31      0.03     -0.02
                                0.03   -440.24     -0.05
                               -0.02     -0.05   -440.29

     corecor stress (kbar)  -4253.03     -0.19      0.12
                               -0.19  -4253.45      0.31
                                0.12      0.31  -4253.15

     ewald   stress (kbar) -16154.21    -16.83     10.64
                              -16.83 -16191.52     27.48
                               10.64     27.48 -16164.96

     hubbard stress (kbar)      0.00      0.00      0.00
                                0.00      0.00      0.00
                                0.00      0.00      0.00

     DFT-D   stress (kbar)      0.00      0.00      0.00
                                0.00      0.00      0.00
                                0.00      0.00      0.00

     XDM     stress (kbar)      0.00      0.00      0.00
                                0.00      0.00      0.00
                                0.00      0.00      0.00

     dft-nl  stress (kbar)      0.00      0.00      0.00
                                0.00      0.00      0.00
                                0.00      0.00      0.00

     TS-vdW  stress (kbar)      0.00      0.00      0.00
                                0.00      0.00      0.00
                                0.00      0.00      0.00

     MDB     stress (kbar)      0.00      0.00      0.00
                                0.00      0.00      0.00
                                0.00      0.00      0.00

     3D-RISM stress (kbar)      0.00      0.00      0.00
                                0.00      0.00      0.00
                                0.00      0.00      0.00


     Writing all to output data dir ../tmp/diamond_pd.save/ :
     XML data file, charge density, pseudopotentials, collected wavefunctions
 
     init_run     :     10.77s CPU     11.28s WALL (       1 calls)
     electrons    :    728.07s CPU    739.98s WALL (       1 calls)
     forces       :      7.92s CPU      8.07s WALL (       1 calls)
     stress       :     26.31s CPU     26.59s WALL (       1 calls)

     Called by init_run:
     wfcinit      :      9.50s CPU      9.73s WALL (       1 calls)
     wfcinit:wfcr :      9.25s CPU      9.43s WALL (       2 calls)
     potinit      :      0.90s CPU      1.12s WALL (       1 calls)
     hinit0       :      0.17s CPU      0.18s WALL (       1 calls)

     Called by electrons:
     c_bands      :    664.61s CPU    674.87s WALL (      17 calls)
     sum_band     :     45.77s CPU     46.77s WALL (      17 calls)
     v_of_rho     :      0.74s CPU      0.77s WALL (      18 calls)
     v_h          :      0.03s CPU      0.03s WALL (      18 calls)
     v_xc         :      0.79s CPU      0.81s WALL (      20 calls)
     newd         :      2.19s CPU      2.58s WALL (      18 calls)
     PAW_pot      :     15.28s CPU     15.55s WALL (      18 calls)
     mix_rho      :      0.41s CPU      0.41s WALL (      17 calls)

     Called by c_bands:
     init_us_2    :      4.10s CPU      4.17s WALL (      74 calls)
     cegterg      :    659.34s CPU    669.28s WALL (      34 calls)

     Called by sum_band:
     sum_band:wei :      0.00s CPU      0.00s WALL (      17 calls)
     sum_band:loo :     43.89s CPU     44.31s WALL (      17 calls)
     sum_band:buf :      0.74s CPU      0.75s WALL (      34 calls)
     sum_band:ini :      1.81s CPU      1.83s WALL (      34 calls)
     sum_band:cal :     29.35s CPU     29.53s WALL (      34 calls)
     sum_band:bec :      0.64s CPU      0.64s WALL (      34 calls)
     addusdens    :      1.64s CPU      1.99s WALL (      17 calls)
                                        0.00s GPU  (      17 calls)
     addusd:skk   :      0.34s CPU      0.67s WALL (      34 calls)
                                        0.00s GPU  (      34 calls)

     Called by *egterg:
     cdiaghg      :    116.95s CPU    120.42s WALL (     200 calls)
     cegterg:over :     74.23s CPU     74.71s WALL (     166 calls)
     cegterg:upda :     46.57s CPU     47.12s WALL (     166 calls)
     cegterg:last :    133.79s CPU    134.62s WALL (      77 calls)
     cdiaghg:chol :     10.44s CPU     10.50s WALL (     200 calls)
     cdiaghg:inve :      4.55s CPU      4.57s WALL (     200 calls)
     cdiaghg:para :     40.69s CPU     43.00s WALL (     400 calls)
     h_psi        :    197.41s CPU    200.32s WALL (     202 calls)
     s_psi        :     73.78s CPU     74.24s WALL (     202 calls)
     g_psi        :      0.65s CPU      0.66s WALL (     166 calls)

     Called by h_psi:
     h_psi:calbec :     72.63s CPU     73.08s WALL (     202 calls)
     vloc_psi     :     49.61s CPU     50.61s WALL (     202 calls)
     add_vuspsi   :     73.86s CPU     74.66s WALL (     202 calls)

     General routines
     calbec       :    131.28s CPU    132.11s WALL (     270 calls)
     fft          :      0.27s CPU      0.29s WALL (     420 calls)
     ffts         :      0.03s CPU      0.03s WALL (      34 calls)
     fftw         :     51.97s CPU     53.00s WALL (  171342 calls)
 
     Parallel routines

     PAW routines
     PAW_pot      :     15.28s CPU     15.55s WALL (      18 calls)
 
     PWSCF        :  12m53.90s CPU  13m17.93s WALL

 
   This run was terminated on:  13: 9:46   4Aug2026            

=------------------------------------------------------------------------------=
   JOB DONE.
=------------------------------------------------------------------------------=
