C  N 
 1.0000000000000000
    10.7211360931000002    0.0000000000000000    0.0000000000000000
     0.0000000000000000   10.7211360931000002    0.0000000000000000
     0.0000000000000000    0.0000000000000000   10.7211360931000002
 C   N  
 214   1
Direct
  0.0832558076164950  0.0834029610046981  0.0834108583835027
  0.0835900624161720  0.0832976159763922  0.4167764765931132
  0.0828699355116705  0.0833771151729036  0.7499915126222784
  0.0836581795181538  0.4167895609968196  0.0830084864818438
  0.0832971092942659  0.4168525460181208  0.4166976484745823
  0.0829404773845476  0.4166694014646231  0.7498768666088228
  0.0833965137140956  0.7500096833024001  0.0832701522859020
  0.0835553972563614  0.7500982630841008  0.4165788390339860
  0.0835266866182499  0.7498800237290673  0.7498381635415330
  0.4166751543777229  0.0833771151729036  0.0837967304883271
  0.4168064934639736  0.0835326180870694  0.4170996799646516
  0.4162197545119406  0.0826219025292200  0.7504469124880608
  0.4167898003911784  0.4166694014646231  0.0837261886154500
  0.4183836104827724  0.4175800965319451  0.4183248480676696
  0.4154417350811064  0.4159250729780101  0.7512249319188918
  0.4168285034584683  0.7498800237290673  0.0831399793817477
  0.4161133374756407  0.7506703185269128  0.4168699391953211
  0.4172053735205694  0.7491528798676874  0.7494612934794319
  0.7498901904068876  0.0832976159763922  0.0830766035838256
  0.7499494522354229  0.0836618689036755  0.4167172147645785
  0.7495669870353496  0.0835326180870694  0.7498601735360273
  0.7499690185254191  0.4168525460181208  0.0833695567057317
  0.7569245320976912  0.4111837759356755  0.4097421349023100
  0.7483418189323316  0.4175800965319451  0.7482830565172290
  0.7500878279660155  0.7500982630841008  0.0831112687436361
  0.7499388957185343  0.7495593707326969  0.4167277712814670
  0.7497967278046804  0.7506703185269128  0.7505533295243607
  0.2500437821729048  0.2500084873777217  0.0837967304883271
  0.2501992850870706  0.2501398264639725  0.4170996799646516
  0.2492885695292211  0.2495530875119394  0.7504469124880608
  0.2499642829763933  0.5832235234068865  0.0830766035838256
  0.2503285359036767  0.5832827852354217  0.4167172147645785
  0.2501992850870706  0.5829003200353484  0.7498601735360273
  0.2500696280046992  0.9165891416164974  0.0834108583835027
  0.2499642829763933  0.9169233964161745  0.4167764765931132
  0.2500437821729048  0.9162032695116729  0.7499915126222784
  0.5833360674646207  0.2501231333911772  0.0837261886154500
  0.5842467625319427  0.2517169434827712  0.4183248480676696
  0.5825917389780075  0.2487750680811053  0.7512249319188918
  0.5835192120181183  0.5833023515254178  0.0833695567057317
  0.5778504419356730  0.5902578650976900  0.4097421349023100
  0.5842467625319427  0.5816751519323303  0.7482830565172290
  0.5834562269968173  0.9169915135181560  0.0830084864818438
  0.5835192120181183  0.9166304432942682  0.4166976484745823
  0.5833360674646207  0.9162738113845500  0.7498768666088228
  0.9165466907290685  0.2501618364584671  0.0831399793817477
  0.9173369855269140  0.2494466704756395  0.4168699391953211
  0.9158195468676886  0.2505387065205682  0.7494612934794319
  0.9167649300841020  0.5834211609660142  0.0831112687436361
  0.9162260377326981  0.5832722287185331  0.4167277712814670
  0.9173369855269140  0.5831300608046792  0.7505533295243607
  0.9166763503024014  0.9167298477140980  0.0832701522859020
  0.9167649300841020  0.9168887312563638  0.4165788390339860
  0.9165466907290685  0.9168600206182524  0.7498381635415330
  0.2501914453731033  0.0835247783731020  0.2502642436788662
  0.2496773967010303  0.0830107297010292  0.5835787395912599
  0.2497282448776764  0.0830615778776752  0.9169384221223248
  0.2505461228400216  0.4168760057503799  0.2505434595651503
  0.2498623746798863  0.4164760035041039  0.5835239964958963
  0.2496773967010303  0.4164212604087401  0.9169892702989710
  0.2501281423097431  0.7500575974206151  0.2499424025793850
  0.2505461228400216  0.7494565404348498  0.5831239942496174
  0.2501914453731033  0.7497357563211338  0.9164752216268979
  0.5835426717503802  0.0838794558400204  0.2505434595651503
  0.5831426695041014  0.0831957076798851  0.5835239964958963
  0.5830879264087376  0.0830107297010292  0.9169892702989710
  0.5840629071256104  0.4173962411256129  0.2510316928127683
  0.5831426695041014  0.4164760035041039  0.9168042923201146
  0.5838448547253896  0.7510893391804310  0.2489106608195692
  0.5840629071256104  0.7489683071872317  0.5826037588743872
  0.5835426717503802  0.7494565404348498  0.9161205441599797
  0.9167242644206163  0.0834614753097419  0.2499424025793850
  0.9161232074348510  0.0838794558400204  0.5831239942496174
  0.9164024233211350  0.0835247783731020  0.9164752216268979
  0.9177560061804322  0.4171781887253919  0.2489106608195692
  0.9156349741872329  0.4173962411256129  0.5826037588743872
  0.9161232074348510  0.4168760057503799  0.9161205441599797
  0.9166422108190830  0.7499755438190817  0.2500244561809183
  0.9177560061804322  0.7510893391804310  0.5828218112746081
  0.9167242644206163  0.7500575974206151  0.9165385246902583
  0.0835266866182499  0.2501618364584671  0.2501199762709327
  0.0829404773845476  0.2501231333911772  0.5833305985353768
  0.0828699355116705  0.2500084873777217  0.9166228848270962
  0.0835553972563614  0.5834211609660142  0.2499017369158992
  0.0832971092942659  0.5833023515254178  0.5831474539818793
  0.0835900624161720  0.5832235234068865  0.9167023840236082
  0.0833965137140956  0.9167298477140980  0.2499903166976000
  0.0836581795181538  0.9169915135181560  0.5832104390031803
  0.0832558076164950  0.9165891416164974  0.9165970389953020
  0.4172053735205694  0.2505387065205682  0.2508471201323126
  0.4154417350811064  0.2487750680811053  0.5840749270219900
  0.4162197545119406  0.2495530875119394  0.9173780974707804
  0.4161133374756407  0.5831300608046792  0.2493296814730872
  0.4183836104827724  0.5816751519323303  0.5824199034680548
  0.4168064934639736  0.5829003200353484  0.9164673819129305
  0.4168285034584683  0.9168600206182524  0.2501199762709327
  0.4167898003911784  0.9162738113845500  0.5833305985353768
  0.4166751543777229  0.9162032695116729  0.9166228848270962
  0.7497967278046804  0.2494466704756395  0.2493296814730872
  0.7483418189323316  0.2517169434827712  0.5824199034680548
  0.7495669870353496  0.2501398264639725  0.9164673819129305
  0.7499388957185343  0.5832722287185331  0.2504406292673035
  0.7569245320976912  0.5902578650976900  0.5888162240643245
  0.7499494522354229  0.5832827852354217  0.9163381310963244
  0.7500878279660155  0.9168887312563638  0.2499017369158992
  0.7499690185254191  0.9166304432942682  0.5831474539818793
  0.7498901904068876  0.9169233964161745  0.9167023840236082
  0.9999094884951991  0.0000938213320961  0.9999061786679040
  0.0000999288090075  0.0001461582376363  0.3332496400581273
  0.9996745301493286  0.0002958751896549  0.6666045753337160
  0.9996745301493286  0.3333954246662843  0.9997041248103452
  0.0001693494740893  0.3335189952083031  0.3332330477852680
  0.9990949379115972  0.3339103138202361  0.6660896861797636
  0.0000999288090075  0.6667503599418727  0.9998538417623638
  0.9998620229819845  0.6665270347922367  0.3334729652077633
  0.0001693494740893  0.6667669522147320  0.6664810047916970
  0.3333234274883661  0.9998014099956005  0.0001985900043994
  0.3335299044487909  0.0002189948640626  0.3334896965278497
  0.3332188556029711  0.9994863344657168  0.6668365256645512
  0.3332188556029711  0.3331634743354488  0.0005136655342834
  0.3344760096094128  0.3337119661384508  0.3345531427551509
  0.3324656179468031  0.3327032841252374  0.6672967158747625
  0.3335299044487909  0.6665103034721503  0.9997810051359374
  0.3334687203062931  0.6667340637175094  0.3332659362824905
  0.3344760096094128  0.6654468572448493  0.6662880338615491
  0.6666332154422119  0.0000854507241574  0.9999145492758427
  0.6667474489444892  0.0002392846283858  0.3335077302463381
  0.6665396499156913  0.9998549058436225  0.6665624120757129
  0.6665396499156913  0.3334375879242872  0.0001450941563777
  0.6680446961118367  0.3348992958981678  0.3345062426350608
  0.6628968541877144  0.3337498982379003  0.6662501017620998
  0.6667474489444892  0.6664922697536619  0.9997607153716145
  0.6660774899263994  0.6663438223633278  0.3336561776366725
  0.6680446961118367  0.6654937573649392  0.6651007041018324
  0.1664680769956018  0.1666567614883684  0.0001985900043994
  0.1668856618640638  0.1668632384487934  0.3334896965278497
  0.1661530014657178  0.1665521896029736  0.6668365256645512
  0.1667521177241586  0.4999665484422106  0.9999145492758427
  0.1669059516283869  0.5000807819444852  0.3335077302463381
  0.1665215728436235  0.4998729829156900  0.6665624120757129
  0.1667604883320973  0.8332428214951979  0.9999061786679040
  0.1668128252376375  0.8334332618090063  0.3332496400581273
  0.1669625421896561  0.8330078631493274  0.6666045753337160
  0.4998301413354501  0.1665521896029736  0.0005136655342834
  0.5003786331384521  0.1678093436094152  0.3345531427551509
  0.4993699511252387  0.1657989519468055  0.6672967158747625
  0.5001042549242883  0.4998729829156900  0.0001450941563777
  0.5015659628981688  0.5013780291118355  0.3345062426350608
  0.5004165652379015  0.4962301871877131  0.6662501017620998
  0.5000620916662852  0.8330078631493274  0.9997041248103452
  0.5001856622083042  0.8335026824740882  0.3332330477852680
  0.5005769808202376  0.8324282709115960  0.6660896861797636
  0.8331769694721480  0.1668632384487934  0.9997810051359374
  0.8334007297175070  0.1668020543062956  0.3332659362824905
  0.8321135232448469  0.1678093436094152  0.6662880338615491
  0.8331589357536595  0.5000807819444852  0.9997607153716145
  0.8330104883633254  0.4994108229263982  0.3336561776366725
  0.8321604233649368  0.5013780291118355  0.6651007041018324
  0.8334170259418702  0.8334332618090063  0.9998538417623638
  0.8331937007922343  0.8331953559819832  0.3334729652077633
  0.8334336182147297  0.8335026824740882  0.6664810047916970
  0.1667604883320973  0.0000938213320961  0.1667571785048020
  0.1667521177241586  0.0000854507241574  0.5000334515577896
  0.1664680769956018  0.9998014099956005  0.8333432385116316
  0.1669625421896561  0.3333954246662843  0.1669921368506727
  0.1665215728436235  0.3334375879242872  0.5001270170843100
  0.1661530014657178  0.3331634743354488  0.8334478103970263
  0.1668128252376375  0.6667503599418727  0.1665667381909936
  0.1669059516283869  0.6664922697536619  0.4999192180555148
  0.1668856618640638  0.6665103034721503  0.8331367615512065
  0.5000620916662852  0.0002958751896549  0.1669921368506727
  0.5001042549242883  0.9998549058436225  0.5001270170843100
  0.4998301413354501  0.9994863344657168  0.8334478103970263
  0.5005769808202376  0.3339103138202361  0.1675717290884043
  0.5004165652379015  0.3337498982379003  0.5037698128122868
  0.4993699511252387  0.3327032841252374  0.8342010480531946
  0.5001856622083042  0.6667669522147320  0.1664973175259119
  0.5015659628981688  0.6654937573649392  0.4986219708881645
  0.5003786331384521  0.6654468572448493  0.8321906563905848
  0.8334170259418702  0.0001461582376363  0.1665667381909936
  0.8331589357536595  0.0002392846283858  0.4999192180555148
  0.8331769694721480  0.0002189948640626  0.8331367615512065
  0.8334336182147297  0.3335189952083031  0.1664973175259119
  0.8321604233649368  0.3348992958981678  0.4986219708881645
  0.8321135232448469  0.3337119661384508  0.8321906563905848
  0.8331937007922343  0.6665270347922367  0.1668046440180168
  0.8330104883633254  0.6663438223633278  0.5005891770736020
  0.8334007297175070  0.6667340637175094  0.8331979456937044
  0.9999890926848016  0.1668883296557379  0.1666775743151998
  0.0001999546707404  0.1664917732062335  0.4998271788092833
  0.9994042436069820  0.1669202740672135  0.8330797259327866
  0.0006731488840937  0.5000350357249164  0.1659935181159076
  0.9994989603016147  0.5002282194724522  0.4997717805275479
  0.0001999546707404  0.5001728211907168  0.8335082267937666
  0.0000292518033344  0.8333625848033333  0.1666374151966668
  0.0006731488840937  0.8340064818840923  0.4999649642750835
  0.9999890926848016  0.8333224256848004  0.8331116703442623
  0.3335869400672111  0.1669202740672135  0.1672624233930191
  0.3328665870484208  0.1661999210484233  0.5004819406324493
  0.3329123568272791  0.1662456908272815  0.8337543091727184
  0.3331584392062311  0.5001728211907168  0.1664667123292611
  0.3338805381069829  0.4998164774142773  0.5001835225857227
  0.3328665870484208  0.4995180593675506  0.8338000789515768
  0.3335549956557354  0.8333224256848004  0.1666775743151998
  0.3331584392062311  0.8335332876707391  0.4998271788092833
  0.3335869400672111  0.8327375766069808  0.8330797259327866
  0.6668394881907180  0.1664917732062335  0.1664667123292611
  0.6664831444142785  0.1672138721069853  0.5001835225857227
  0.6661847263675519  0.1661999210484233  0.8338000789515768
  0.6668948864724534  0.5002282194724522  0.1671677066983867
  0.6664831444142785  0.4998164774142773  0.8327861278930149
  0.6667017027249177  0.8340064818840923  0.1659935181159076
  0.6668948864724534  0.8328322933016135  0.4997717805275479
  0.6668394881907180  0.8335332876707391  0.8335082267937666
  0.5763685074550757  0.4097018414550780  0.5902981585449218
Cartesian
  0.0000000000000000  0.0000000000000000  0.0000000000000000
  0.0000000000000000  0.0000000000000000  0.0000000000000000
  0.0000000000000000  0.0000000000000000  0.0000000000000000
  0.0000000000000000  0.0000000000000000  0.0000000000000000
  0.0000000000000000  0.0000000000000000  0.0000000000000000
  0.0000000000000000  0.0000000000000000  0.0000000000000000
  0.0000000000000000  0.0000000000000000  0.0000000000000000
  0.0000000000000000  0.0000000000000000  0.0000000000000000
  0.0000000000000000  0.0000000000000000  0.0000000000000000
  0.0000000000000000  0.0000000000000000  0.0000000000000000
  0.0000000000000000  0.0000000000000000  0.0000000000000000
  0.0000000000000000  0.0000000000000000  0.0000000000000000
  0.0000000000000000  0.0000000000000000  0.0000000000000000
  0.0000000000000000  0.0000000000000000  0.0000000000000000
  0.0000000000000000  0.0000000000000000  0.0000000000000000
  0.0000000000000000  0.0000000000000000  0.0000000000000000
  0.0000000000000000  0.0000000000000000  0.0000000000000000
  0.0000000000000000  0.0000000000000000  0.0000000000000000
  0.0000000000000000  0.0000000000000000  0.0000000000000000
  0.0000000000000000  0.0000000000000000  0.0000000000000000
  0.0000000000000000  0.0000000000000000  0.0000000000000000
  0.0000000000000000  0.0000000000000000  0.0000000000000000
  0.0000000000000000  0.0000000000000000  0.0000000000000000
  0.0000000000000000  0.0000000000000000  0.0000000000000000
  0.0000000000000000  0.0000000000000000  0.0000000000000000
  0.0000000000000000  0.0000000000000000  0.0000000000000000
  0.0000000000000000  0.0000000000000000  0.0000000000000000
  0.0000000000000000  0.0000000000000000  0.0000000000000000
  0.0000000000000000  0.0000000000000000  0.0000000000000000
  0.0000000000000000  0.0000000000000000  0.0000000000000000
  0.0000000000000000  0.0000000000000000  0.0000000000000000
  0.0000000000000000  0.0000000000000000  0.0000000000000000
  0.0000000000000000  0.0000000000000000  0.0000000000000000
  0.0000000000000000  0.0000000000000000  0.0000000000000000
  0.0000000000000000  0.0000000000000000  0.0000000000000000
  0.0000000000000000  0.0000000000000000  0.0000000000000000
  0.0000000000000000  0.0000000000000000  0.0000000000000000
  0.0000000000000000  0.0000000000000000  0.0000000000000000
  0.0000000000000000  0.0000000000000000  0.0000000000000000
  0.0000000000000000  0.0000000000000000  0.0000000000000000
  0.0000000000000000  0.0000000000000000  0.0000000000000000
  0.0000000000000000  0.0000000000000000  0.0000000000000000
  0.0000000000000000  0.0000000000000000  0.0000000000000000
  0.0000000000000000  0.0000000000000000  0.0000000000000000
  0.0000000000000000  0.0000000000000000  0.0000000000000000
  0.0000000000000000  0.0000000000000000  0.0000000000000000
  0.0000000000000000  0.0000000000000000  0.0000000000000000
  0.0000000000000000  0.0000000000000000  0.0000000000000000
  0.0000000000000000  0.0000000000000000  0.0000000000000000
  0.0000000000000000  0.0000000000000000  0.0000000000000000
  0.0000000000000000  0.0000000000000000  0.0000000000000000
  0.0000000000000000  0.0000000000000000  0.0000000000000000
  0.0000000000000000  0.0000000000000000  0.0000000000000000
  0.0000000000000000  0.0000000000000000  0.0000000000000000
  0.0000000000000000  0.0000000000000000  0.0000000000000000
  0.0000000000000000  0.0000000000000000  0.0000000000000000
  0.0000000000000000  0.0000000000000000  0.0000000000000000
  0.0000000000000000  0.0000000000000000  0.0000000000000000
  0.0000000000000000  0.0000000000000000  0.0000000000000000
  0.0000000000000000  0.0000000000000000  0.0000000000000000
  0.0000000000000000  0.0000000000000000  0.0000000000000000
  0.0000000000000000  0.0000000000000000  0.0000000000000000
  0.0000000000000000  0.0000000000000000  0.0000000000000000
  0.0000000000000000  0.0000000000000000  0.0000000000000000
  0.0000000000000000  0.0000000000000000  0.0000000000000000
  0.0000000000000000  0.0000000000000000  0.0000000000000000
  0.0000000000000000  0.0000000000000000  0.0000000000000000
  0.0000000000000000  0.0000000000000000  0.0000000000000000
  0.0000000000000000  0.0000000000000000  0.0000000000000000
  0.0000000000000000  0.0000000000000000  0.0000000000000000
  0.0000000000000000  0.0000000000000000  0.0000000000000000
  0.0000000000000000  0.0000000000000000  0.0000000000000000
  0.0000000000000000  0.0000000000000000  0.0000000000000000
  0.0000000000000000  0.0000000000000000  0.0000000000000000
  0.0000000000000000  0.0000000000000000  0.0000000000000000
  0.0000000000000000  0.0000000000000000  0.0000000000000000
  0.0000000000000000  0.0000000000000000  0.0000000000000000
  0.0000000000000000  0.0000000000000000  0.0000000000000000
  0.0000000000000000  0.0000000000000000  0.0000000000000000
  0.0000000000000000  0.0000000000000000  0.0000000000000000
  0.0000000000000000  0.0000000000000000  0.0000000000000000
  0.0000000000000000  0.0000000000000000  0.0000000000000000
  0.0000000000000000  0.0000000000000000  0.0000000000000000
  0.0000000000000000  0.0000000000000000  0.0000000000000000
  0.0000000000000000  0.0000000000000000  0.0000000000000000
  0.0000000000000000  0.0000000000000000  0.0000000000000000
  0.0000000000000000  0.0000000000000000  0.0000000000000000
  0.0000000000000000  0.0000000000000000  0.0000000000000000
  0.0000000000000000  0.0000000000000000  0.0000000000000000
  0.0000000000000000  0.0000000000000000  0.0000000000000000
  0.0000000000000000  0.0000000000000000  0.0000000000000000
  0.0000000000000000  0.0000000000000000  0.0000000000000000
  0.0000000000000000  0.0000000000000000  0.0000000000000000
  0.0000000000000000  0.0000000000000000  0.0000000000000000
  0.0000000000000000  0.0000000000000000  0.0000000000000000
  0.0000000000000000  0.0000000000000000  0.0000000000000000
  0.0000000000000000  0.0000000000000000  0.0000000000000000
  0.0000000000000000  0.0000000000000000  0.0000000000000000
  0.0000000000000000  0.0000000000000000  0.0000000000000000
  0.0000000000000000  0.0000000000000000  0.0000000000000000
  0.0000000000000000  0.0000000000000000  0.0000000000000000
  0.0000000000000000  0.0000000000000000  0.0000000000000000
  0.0000000000000000  0.0000000000000000  0.0000000000000000
  0.0000000000000000  0.0000000000000000  0.0000000000000000
  0.0000000000000000  0.0000000000000000  0.0000000000000000
  0.0000000000000000  0.0000000000000000  0.0000000000000000
  0.0000000000000000  0.0000000000000000  0.0000000000000000
  0.0000000000000000  0.0000000000000000  0.0000000000000000
  0.0000000000000000  0.0000000000000000  0.0000000000000000
  0.0000000000000000  0.0000000000000000  0.0000000000000000
  0.0000000000000000  0.0000000000000000  0.0000000000000000
  0.0000000000000000  0.0000000000000000  0.0000000000000000
  0.0000000000000000  0.0000000000000000  0.0000000000000000
  0.0000000000000000  0.0000000000000000  0.0000000000000000
  0.0000000000000000  0.0000000000000000  0.0000000000000000
  0.0000000000000000  0.0000000000000000  0.0000000000000000
  0.0000000000000000  0.0000000000000000  0.0000000000000000
  0.0000000000000000  0.0000000000000000  0.0000000000000000
  0.0000000000000000  0.0000000000000000  0.0000000000000000
  0.0000000000000000  0.0000000000000000  0.0000000000000000
  0.0000000000000000  0.0000000000000000  0.0000000000000000
  0.0000000000000000  0.0000000000000000  0.0000000000000000
  0.0000000000000000  0.0000000000000000  0.0000000000000000
  0.0000000000000000  0.0000000000000000  0.0000000000000000
  0.0000000000000000  0.0000000000000000  0.0000000000000000
  0.0000000000000000  0.0000000000000000  0.0000000000000000
  0.0000000000000000  0.0000000000000000  0.0000000000000000
  0.0000000000000000  0.0000000000000000  0.0000000000000000
  0.0000000000000000  0.0000000000000000  0.0000000000000000
  0.0000000000000000  0.0000000000000000  0.0000000000000000
  0.0000000000000000  0.0000000000000000  0.0000000000000000
  0.0000000000000000  0.0000000000000000  0.0000000000000000
  0.0000000000000000  0.0000000000000000  0.0000000000000000
  0.0000000000000000  0.0000000000000000  0.0000000000000000
  0.0000000000000000  0.0000000000000000  0.0000000000000000
  0.0000000000000000  0.0000000000000000  0.0000000000000000
  0.0000000000000000  0.0000000000000000  0.0000000000000000
  0.0000000000000000  0.0000000000000000  0.0000000000000000
  0.0000000000000000  0.0000000000000000  0.0000000000000000
  0.0000000000000000  0.0000000000000000  0.0000000000000000
  0.0000000000000000  0.0000000000000000  0.0000000000000000
  0.0000000000000000  0.0000000000000000  0.0000000000000000
  0.0000000000000000  0.0000000000000000  0.0000000000000000
  0.0000000000000000  0.0000000000000000  0.0000000000000000
  0.0000000000000000  0.0000000000000000  0.0000000000000000
  0.0000000000000000  0.0000000000000000  0.0000000000000000
  0.0000000000000000  0.0000000000000000  0.0000000000000000
  0.0000000000000000  0.0000000000000000  0.0000000000000000
  0.0000000000000000  0.0000000000000000  0.0000000000000000
  0.0000000000000000  0.0000000000000000  0.0000000000000000
  0.0000000000000000  0.0000000000000000  0.0000000000000000
  0.0000000000000000  0.0000000000000000  0.0000000000000000
  0.0000000000000000  0.0000000000000000  0.0000000000000000
  0.0000000000000000  0.0000000000000000  0.0000000000000000
  0.0000000000000000  0.0000000000000000  0.0000000000000000
  0.0000000000000000  0.0000000000000000  0.0000000000000000
  0.0000000000000000  0.0000000000000000  0.0000000000000000
  0.0000000000000000  0.0000000000000000  0.0000000000000000
  0.0000000000000000  0.0000000000000000  0.0000000000000000
  0.0000000000000000  0.0000000000000000  0.0000000000000000
  0.0000000000000000  0.0000000000000000  0.0000000000000000
  0.0000000000000000  0.0000000000000000  0.0000000000000000
  0.0000000000000000  0.0000000000000000  0.0000000000000000
  0.0000000000000000  0.0000000000000000  0.0000000000000000
  0.0000000000000000  0.0000000000000000  0.0000000000000000
  0.0000000000000000  0.0000000000000000  0.0000000000000000
  0.0000000000000000  0.0000000000000000  0.0000000000000000
  0.0000000000000000  0.0000000000000000  0.0000000000000000
  0.0000000000000000  0.0000000000000000  0.0000000000000000
  0.0000000000000000  0.0000000000000000  0.0000000000000000
  0.0000000000000000  0.0000000000000000  0.0000000000000000
  0.0000000000000000  0.0000000000000000  0.0000000000000000
  0.0000000000000000  0.0000000000000000  0.0000000000000000
  0.0000000000000000  0.0000000000000000  0.0000000000000000
  0.0000000000000000  0.0000000000000000  0.0000000000000000
  0.0000000000000000  0.0000000000000000  0.0000000000000000
  0.0000000000000000  0.0000000000000000  0.0000000000000000
  0.0000000000000000  0.0000000000000000  0.0000000000000000
  0.0000000000000000  0.0000000000000000  0.0000000000000000
  0.0000000000000000  0.0000000000000000  0.0000000000000000
  0.0000000000000000  0.0000000000000000  0.0000000000000000
  0.0000000000000000  0.0000000000000000  0.0000000000000000
  0.0000000000000000  0.0000000000000000  0.0000000000000000
  0.0000000000000000  0.0000000000000000  0.0000000000000000
  0.0000000000000000  0.0000000000000000  0.0000000000000000
  0.0000000000000000  0.0000000000000000  0.0000000000000000
  0.0000000000000000  0.0000000000000000  0.0000000000000000
  0.0000000000000000  0.0000000000000000  0.0000000000000000
  0.0000000000000000  0.0000000000000000  0.0000000000000000
  0.0000000000000000  0.0000000000000000  0.0000000000000000
  0.0000000000000000  0.0000000000000000  0.0000000000000000
  0.0000000000000000  0.0000000000000000  0.0000000000000000
  0.0000000000000000  0.0000000000000000  0.0000000000000000
  0.0000000000000000  0.0000000000000000  0.0000000000000000
  0.0000000000000000  0.0000000000000000  0.0000000000000000
  0.0000000000000000  0.0000000000000000  0.0000000000000000
  0.0000000000000000  0.0000000000000000  0.0000000000000000
  0.0000000000000000  0.0000000000000000  0.0000000000000000
  0.0000000000000000  0.0000000000000000  0.0000000000000000
  0.0000000000000000  0.0000000000000000  0.0000000000000000
  0.0000000000000000  0.0000000000000000  0.0000000000000000
  0.0000000000000000  0.0000000000000000  0.0000000000000000
  0.0000000000000000  0.0000000000000000  0.0000000000000000
  0.0000000000000000  0.0000000000000000  0.0000000000000000
  0.0000000000000000  0.0000000000000000  0.0000000000000000
  0.0000000000000000  0.0000000000000000  0.0000000000000000
  0.0000000000000000  0.0000000000000000  0.0000000000000000
  0.0000000000000000  0.0000000000000000  0.0000000000000000
  0.0000000000000000  0.0000000000000000  0.0000000000000000
  0.0000000000000000  0.0000000000000000  0.0000000000000000
  0.0000000000000000  0.0000000000000000  0.0000000000000000
  0.0000000000000000  0.0000000000000000  0.0000000000000000
  0.0000000000000000  0.0000000000000000  0.0000000000000000
  0.0000000000000000  0.0000000000000000  0.0000000000000000
  0.0000000000000000  0.0000000000000000  0.0000000000000000
