
     Program PWSCF v.7.4.1 starts on 23Aug2026 at  0:35:25 

     This program is part of the open-source Quantum ESPRESSO suite
     for quantum simulation of materials; please cite
         "P. Giannozzi et al., J. Phys.:Condens. Matter 21 395502 (2009);
         "P. Giannozzi et al., J. Phys.:Condens. Matter 29 465901 (2017);
         "P. Giannozzi et al., J. Chem. Phys. 152 154105 (2020);
          URL http://www.quantum-espresso.org", 
     in publications or presentations arising from this work. More details at
     http://www.quantum-espresso.org/quote

     Parallel version (MPI), running on    24 processors

     MPI processes distributed on     1 nodes
     123543 MiB available memory on the printing compute node when the environment starts
 
     Reading input from scf.in

     Current dimensions of program PWSCF are:
     Max number of different atomic species (ntypx) = 10
     Max number of k-points (npk) =  40000
     Max angular momentum in pseudopotentials (lmaxx) =  4
     file C.pbe-n-kjpaw_psl.1.0.0.UPF: wavefunction(s)  2S 2P renormalized
     file N.pbe-n-kjpaw_psl.1.0.0.UPF: wavefunction(s)  2S renormalized
 
     R & G space division:  proc/nbgrp/npool/nimage =      24
     Subspace diagonalization in iterative solution of the eigenvalue problem:
     one sub-group per band group will be used
     scalapack distributed-memory algorithm (size of sub-group:  4*  4 procs)

 
     Parallelization info
     --------------------
     sticks:   dense  smooth     PW     G-vecs:    dense   smooth      PW
     Min         244     244     61                14112    14112    1765
     Max         245     245     62                14117    14117    1768
     Sum        5877    5877   1473               338755   338755   42379
 
     Using Slab Decomposition
 


     bravais-lattice index     =            0
     lattice parameter (alat)  =      20.2515  a.u.
     unit-cell volume          =    8305.5769 (a.u.)^3
     number of atoms/cell      =          215
     number of atomic types    =            2
     number of electrons       =       862.00 (up: 432.00, down: 430.00)
     number of Kohn-Sham states=          862
     kinetic-energy cutoff     =      45.0000  Ry
     charge density cutoff     =     180.0000  Ry
     scf convergence threshold =      1.0E-08
     mixing beta               =       0.7000
     number of iterations used =            8  plain     mixing
     Exchange-correlation= SLA  PW   PBX  PBC
                           (   1   4   3   4   0   0   0)

     celldm(1)=  20.251472  celldm(2)=   0.000000  celldm(3)=   0.000000
     celldm(4)=   0.000000  celldm(5)=   0.000000  celldm(6)=   0.000000

     crystal axes: (cart. coord. in units of alat)
               a(1) = (  -0.707107   0.000000   0.707107 )  
               a(2) = (   0.408248   0.816497   0.408248 )  
               a(3) = (  -0.577350   0.577350  -0.577350 )  

     reciprocal axes: (cart. coord. in units 2 pi/alat)
               b(1) = ( -0.707107  0.000000  0.707107 )  
               b(2) = (  0.408248  0.816497  0.408248 )  
               b(3) = ( -0.577350  0.577350 -0.577350 )  


     PseudoPot. # 1 for C  read from file:
     ../../pseudos/C.pbe-n-kjpaw_psl.1.0.0.UPF
     MD5 check sum: 5f16ad9a65e90284d1d834d4ab3b0f7d
     Pseudo is Projector augmented-wave + core cor, Zval =  4.0
     Generated using &quot;atomic&quot; code by A. Dal Corso  v.6.3
     Shape of augmentation charge: PSQ
     Using radial grid of 1073 points,  4 beta functions with: 
                l(1) =   0
                l(2) =   0
                l(3) =   1
                l(4) =   1
     Q(r) pseudized with 0 coefficients 


     PseudoPot. # 2 for N  read from file:
     ../../pseudos/N.pbe-n-kjpaw_psl.1.0.0.UPF
     MD5 check sum: a6186d50559fdcbe4b2d0187dd61a119
     Pseudo is Projector augmented-wave + core cor, Zval =  5.0
     Generated using &quot;atomic&quot; code by A. Dal Corso  v.6.3
     Shape of augmentation charge: PSQ
     Using radial grid of 1085 points,  4 beta functions with: 
                l(1) =   0
                l(2) =   0
                l(3) =   1
                l(4) =   1
     Q(r) pseudized with 0 coefficients 


     atomic species   valence    mass     pseudopotential
     C                 4.00    12.01070     C ( 1.00)
     N                 5.00    14.00670     N ( 1.00)

     Starting magnetic structure 
     atomic species   magnetization
     C               0.000
     N               0.000

     No symmetry found



   Cartesian axes

     site n.     atom                  positions (alat units)
         1        C      tau(   1) = (  -0.0001021   0.0001331   0.0000698  )
         2        C      tau(   2) = (  -0.1925559   0.1927447  -0.1921890  )
         3        C      tau(   3) = (  -0.3849451   0.3850146  -0.3848862  )
         4        C      tau(   4) = (   0.1357567   0.2724067   0.1361236  )
         5        C      tau(   5) = (  -0.0569087   0.4653495  -0.0560040  )
         6        C      tau(   6) = (  -0.2488185   0.6572510  -0.2488999  )
         7        C      tau(   7) = (   0.2721237   0.5444462   0.2721826  )
         8        C      tau(   8) = (   0.0797519   0.7369755   0.0796705  )
         9        C      tau(   9) = (  -0.1128972   0.9290208  -0.1125211  )
        10        C      tau(  10) = (  -0.2357680   0.0001556   0.2357302  )
        11        C      tau(  11) = (  -0.4283014   0.1925392   0.0432260  )
        12        C      tau(  12) = (  -0.6205138   0.3850275  -0.1490393  )
        13        C      tau(  13) = (  -0.0996193   0.2722908   0.3719080  )
        14        C      tau(  14) = (  -0.2947431   0.4651138   0.1818876  )
        15        C      tau(  15) = (  -0.4824521   0.6577406  -0.0126532  )
        16        C      tau(  16) = (   0.0362817   0.5443928   0.5077563  )
        17        C      tau(  17) = (  -0.1565356   0.7368212   0.3132634  )
        18        C      tau(  18) = (  -0.3489073   0.9288130   0.1235394  )
        19        C      tau(  19) = (  -0.4714239  -0.0000051   0.4714252  )
        20        C      tau(  20) = (  -0.6640345   0.1922806   0.2789189  )
        21        C      tau(  21) = (  -0.8562022   0.3850930   0.0865600  )
        22        C      tau(  22) = (  -0.3352524   0.2720565   0.6077009  )
        23        C      tau(  23) = (  -0.5282412   0.4641130   0.4156285  )
        24        C      tau(  24) = (  -0.7189472   0.6568609   0.2225773  )
        25        C      tau(  25) = (  -0.1993355   0.5444756   0.7434267  )
        26        C      tau(  26) = (  -0.3915948   0.7362899   0.5499297  )
        27        C      tau(  27) = (  -0.5841930   0.9293884   0.3586855  )
        28        C      tau(  28) = (  -0.0499492   0.1363444   0.1859100  )
        29        C      tau(  29) = (  -0.2427285   0.3295795  -0.0056450  )
        30        C      tau(  30) = (  -0.4347545   0.5211140  -0.1990272  )
        31        C      tau(  31) = (   0.0860466   0.4084332   0.3220321  )
        32        C      tau(  32) = (  -0.1074224   0.6026424   0.1299740  )
        33        C      tau(  33) = (  -0.2990058   0.7924785  -0.0626964  )
        34        C      tau(  34) = (   0.2223121   0.6805333   0.4580815  )
        35        C      tau(  35) = (   0.0299318   0.8730853   0.2655995  )
        36        C      tau(  36) = (  -0.1627118   1.0651163   0.0733893  )
        37        C      tau(  37) = (  -0.2854435   0.1359755   0.4218111  )
        38        C      tau(  38) = (  -0.4783539   0.3278174   0.2294469  )
        39        C      tau(  39) = (  -0.6693442   0.5213406   0.0374528  )
        40        C      tau(  40) = (  -0.1493968   0.4082853   0.5576796  )
        41        C      tau(  41) = (  -0.3433790   0.5979902   0.3633968  )
        42        C      tau(  42) = (  -0.5321651   0.7935616   0.1728821  )
        43        C      tau(  43) = (  -0.0136105   0.6804843   0.6935677  )
        44        C      tau(  44) = (  -0.2060290   0.8727514   0.5005166  )
        45        C      tau(  45) = (  -0.3982692   1.0655568   0.3088565  )
        46        C      tau(  46) = (  -0.5212653   0.1361643   0.6574362  )
        47        C      tau(  47) = (  -0.7139200   0.3285717   0.4650956  )
        48        C      tau(  48) = (  -0.9059944   0.5211285   0.2723878  )
        49        C      tau(  49) = (  -0.3851827   0.4083658   0.7933547  )
        50        C      tau(  50) = (  -0.5777429   0.6008227   0.6009508  )
        51        C      tau(  51) = (  -0.7699056   0.7931751   0.4085003  )
        52        C      tau(  52) = (  -0.2491251   0.6804768   0.9294363  )
        53        C      tau(  53) = (  -0.4414751   0.8728049   0.7367903  )
        54        C      tau(  54) = (  -0.6339963   1.0654355   0.5445859  )
        55        C      tau(  55) = (  -0.2141588   0.0965005   0.0217004  )
        56        C      tau(  56) = (  -0.4066315   0.2888895  -0.1706460  )
        57        C      tau(  57) = (  -0.5990285   0.4812426  -0.3632592  )
        58        C      tau(  58) = (  -0.0791400   0.3692727   0.1579435  )
        59        C      tau(  59) = (  -0.2713733   0.5628613  -0.0339769  )
        60        C      tau(  60) = (  -0.4629368   0.7534953  -0.2272691  )
        61        C      tau(  61) = (   0.0580762   0.6406948   0.2938035  )
        62        C      tau(  62) = (  -0.1344356   0.8324099   0.1018738  )
        63        C      tau(  63) = (  -0.3269939   1.0252548  -0.0908927  )
        64        C      tau(  64) = (  -0.4499614   0.0960568   0.2572932  )
        65        C      tau(  65) = (  -0.6422383   0.2887019   0.0648381  )
        66        C      tau(  66) = (  -0.8345157   0.4812993  -0.1273374  )
        67        C      tau(  67) = (  -0.3138318   0.3677371   0.3939690  )
        68        C      tau(  68) = (  -0.5037720   0.5590723   0.2030038  )
        69        C      tau(  69) = (  -0.6978051   0.7534265   0.0087405  )
        70        C      tau(  70) = (  -0.1784032   0.6404629   0.5283938  )
        71        C      tau(  71) = (  -0.3702002   0.8328609   0.3348470  )
        72        C      tau(  72) = (  -0.5625675   1.0256914   0.1445583  )
        73        C      tau(  73) = (  -0.6856366   0.0962812   0.4930650  )
        74        C      tau(  74) = (  -0.8779356   0.2888039   0.3006018  )
        75        C      tau(  75) = (  -1.0703724   0.4812088   0.1081890  )
        76        C      tau(  76) = (  -0.5496559   0.3684288   0.6293597  )
        77        C      tau(  77) = (  -0.7419024   0.5609909   0.4367913  )
        78        C      tau(  78) = (  -0.9340677   0.7532819   0.2441977  )
        79        C      tau(  79) = (  -0.4133373   0.6406672   0.7650450  )
        80        C      tau(  80) = (  -0.6057881   0.8329967   0.5726179  )
        81        C      tau(  81) = (  -0.7982682   1.0255765   0.3803140  )
        82        C      tau(  82) = (  -0.0285161   0.2326944  -0.0279450  )
        83        C      tau(  83) = (  -0.2207062   0.4247818  -0.2209315  )
        84        C      tau(  84) = (  -0.4131094   0.6173620  -0.4130121  )
        85        C      tau(  85) = (   0.1081806   0.5045831   0.1079553  )
        86        C      tau(  86) = (  -0.0849228   0.6971960  -0.0842453  )
        87        C      tau(  87) = (  -0.2770263   0.8896950  -0.2776727  )
        88        C      tau(  88) = (   0.2438752   0.7767732   0.2439724  )
        89        C      tau(  89) = (   0.0521077   0.9695563   0.0514613  )
        90        C      tau(  90) = (  -0.1410236   1.1615067  -0.1408052  )
        91        C      tau(  91) = (  -0.2640494   0.2317979   0.2078058  )
        92        C      tau(  92) = (  -0.4562185   0.4251658   0.0154070  )
        93        C      tau(  93) = (  -0.6489382   0.6172682  -0.1776706  )
        94        C      tau(  94) = (  -0.1282247   0.5047504   0.3434008  )
        95        C      tau(  95) = (  -0.5123758   0.8893320  -0.0410633  )
        96        C      tau(  96) = (   0.0085418   0.7767996   0.4798094  )
        97        C      tau(  97) = (  -0.1843801   0.9689171   0.2869324  )
        98        C      tau(  98) = (  -0.3768283   1.1623578   0.0947930  )
        99        C      tau(  99) = (  -0.4997444   0.2321429   0.4434170  )
       100        C      tau( 100) = (  -0.6924285   0.4243514   0.2510808  )
       101        C      tau( 101) = (  -0.8841130   0.6172768   0.0584882  )
       102        C      tau( 102) = (  -0.3637219   0.5041090   0.5797873  )
       103        C      tau( 103) = (  -0.5556743   0.6968853   0.3865816  )
       104        C      tau( 104) = (  -0.7486640   0.8897265   0.1945144  )
       105        C      tau( 105) = (  -0.2275908   0.7765758   0.7150103  )
       106        C      tau( 106) = (  -0.4200711   0.9694565   0.5231073  )
       107        C      tau( 107) = (  -0.6123240   1.1616262   0.3304662  )
       108        C      tau( 108) = (  -0.0731829   0.1164325   0.0449317  )
       109        C      tau( 109) = (  -0.2657169   0.3091242  -0.1472419  )
       110        C      tau( 110) = (  -0.4579801   0.5011434  -0.3400685  )
       111        C      tau( 111) = (   0.0625719   0.3887804   0.1810469  )
       112        C      tau( 112) = (  -0.1301023   0.5816195  -0.0110222  )
       113        C      tau( 113) = (  -0.3216226   0.7741559  -0.2050408  )
       114        C      tau( 114) = (   0.1991273   0.6605844   0.3170389  )
       115        C      tau( 115) = (   0.0075103   0.8540170   0.1240921  )
       116        C      tau( 116) = (  -0.1858822   1.0452891  -0.0677475  )
       117        C      tau( 117) = (  -0.3087876   0.1159051   0.2806643  )
       118        C      tau( 118) = (  -0.5012686   0.3085847   0.0882012  )
       119        C      tau( 119) = (  -0.6931772   0.5012643  -0.1040590  )
       120        C      tau( 120) = (  -0.1727472   0.3882974   0.4167227  )
       121        C      tau( 121) = (  -0.5565204   0.7732905   0.0320553  )
       122        C      tau( 122) = (  -0.0368875   0.6605069   0.5522307  )
       123        C      tau( 123) = (  -0.2293189   0.8526829   0.3592568  )
       124        C      tau( 124) = (  -0.4214239   1.0468176   0.1674234  )
       125        C      tau( 125) = (  -0.5445290   0.1161179   0.5163541  )
       126        C      tau( 126) = (  -0.7371591   0.3084544   0.3239386  )
       127        C      tau( 127) = (  -0.9291603   0.5011859   0.1314033  )
       128        C      tau( 128) = (  -0.4084582   0.3882106   0.6526395  )
       129        C      tau( 129) = (  -0.6008845   0.5807413   0.4599730  )
       130        C      tau( 130) = (  -0.7927218   0.7732265   0.2674491  )
       131        C      tau( 131) = (  -0.2723461   0.6605558   0.7882174  )
       132        C      tau( 132) = (  -0.4647208   0.8528129   0.5954501  )
       133        C      tau( 133) = (  -0.6572318   1.0455091   0.4035488  )
       134        C      tau( 134) = (  -0.1231005   0.2524887   0.2308654  )
       135        C      tau( 135) = (  -0.3162276   0.4465393   0.0395046  )
       136        C      tau( 136) = (  -0.5085106   0.6370955  -0.1545862  )
       137        C      tau( 137) = (   0.0130435   0.5245733   0.3667444  )
       138        C      tau( 138) = (  -0.1690056   0.7194012   0.1753358  )
       139        C      tau( 139) = (  -0.3716043   0.9090385  -0.0177706  )
       140        C      tau( 140) = (   0.1493789   0.7967675   0.5031118  )
       141        C      tau( 141) = (  -0.0432487   0.9891290   0.3104226  )
       142        C      tau( 142) = (  -0.2356017   1.1816615   0.1180548  )
       143        C      tau( 143) = (  -0.3585852   0.2518726   0.4667977  )
       144        C      tau( 144) = (  -0.5520407   0.4435687   0.2746288  )
       145        C      tau( 145) = (  -0.7427009   0.6372758   0.0817393  )
       146        C      tau( 146) = (  -0.2226275   0.5244004   0.6023019  )
       147        C      tau( 147) = (  -0.4149386   0.7162228   0.4078971  )
       148        C      tau( 148) = (  -0.6082458   0.9095787   0.2176342  )
       149        C      tau( 149) = (  -0.0865345   0.7965058   0.7384282  )
       150        C      tau( 150) = (  -0.2789240   0.9889830   0.5459954  )
       151        C      tau( 151) = (  -0.4711943   1.1816605   0.3537841  )
       152        C      tau( 152) = (  -0.5944965   0.2524325   0.7023176  )
       153        C      tau( 153) = (  -0.7868787   0.4448904   0.5098579  )
       154        C      tau( 154) = (  -0.9790303   0.6372434   0.3172034  )
       155        C      tau( 155) = (  -0.4580288   0.5243854   0.8381380  )
       156        C      tau( 156) = (  -0.6507420   0.7169805   0.6457678  )
       157        C      tau( 157) = (  -0.8430565   0.9094072   0.4532550  )
       158        C      tau( 158) = (  -0.3221726   0.7966541   0.9743228  )
       159        C      tau( 159) = (  -0.5143239   0.9893864   0.7817455  )
       160        C      tau( 160) = (  -0.7070430   1.1815056   0.5894664  )
       161        C      tau( 161) = (  -0.2872960   0.2126482   0.0666700  )
       162        C      tau( 162) = (  -0.4795273   0.4050555  -0.1258264  )
       163        C      tau( 163) = (  -0.6722534   0.5974061  -0.3185206  )
       164        C      tau( 164) = (  -0.1526680   0.4862255   0.2030642  )
       165        C      tau( 165) = (  -0.3447192   0.6767660  -0.0003778  )
       166        C      tau( 166) = (  -0.5359226   0.8695862  -0.1822512  )
       167        C      tau( 167) = (  -0.0145402   0.7569528   0.3393842  )
       168        C      tau( 168) = (  -0.2076262   0.9488263   0.1462075  )
       169        C      tau( 169) = (  -0.3999364   1.1417872  -0.0462799  )
       170        C      tau( 170) = (  -0.5230703   0.2119618   0.3023127  )
       171        C      tau( 171) = (  -0.7150473   0.4049193   0.1098821  )
       172        C      tau( 172) = (  -0.9075252   0.5973000  -0.0825625  )
       173        C      tau( 173) = (  -0.3871116   0.4835872   0.4395578  )
       174        C      tau( 174) = (  -0.5769138   0.6769210   0.2459219  )
       175        C      tau( 175) = (  -0.7714639   0.8694728   0.0534555  )
       176        C      tau( 176) = (  -0.2508472   0.7566195   0.5735930  )
       177        C      tau( 177) = (  -0.4431937   0.9496271   0.3826863  )
       178        C      tau( 178) = (  -0.6356615   1.1417541   0.1893168  )
       179        C      tau( 179) = (  -0.7587333   0.2125819   0.5380808  )
       180        C      tau( 180) = (  -0.9508674   0.4048027   0.3452994  )
       181        C      tau( 181) = (  -1.1434474   0.5973794   0.1530479  )
       182        C      tau( 182) = (  -0.6226411   0.4847411   0.6740955  )
       183        C      tau( 183) = (  -0.8149040   0.6771482   0.4816059  )
       184        C      tau( 184) = (  -1.0072991   0.8697706   0.2887703  )
       185        C      tau( 185) = (  -0.4863284   0.7567929   0.8099053  )
       186        C      tau( 186) = (  -0.6787509   0.9492744   0.6175606  )
       187        C      tau( 187) = (  -0.8713121   1.1416472   0.4251973  )
       188        C      tau( 188) = (  -0.1017035   0.3491529   0.0169848  )
       189        C      tau( 189) = (  -0.2934092   0.5404088  -0.1763164  )
       190        C      tau( 190) = (  -0.4862615   0.7335862  -0.3682507  )
       191        C      tau( 191) = (   0.0355087   0.6202177   0.1526016  )
       192        C      tau( 192) = (  -0.1579042   0.8129829  -0.0393585  )
       193        C      tau( 193) = (  -0.3501147   1.0056722  -0.2322167  )
       194        C      tau( 194) = (   0.1709076   0.8930421   0.2889184  )
       195        C      tau( 195) = (  -0.0214745   1.0854137   0.0964235  )
       196        C      tau( 196) = (  -0.2140156   1.2777321  -0.0960142  )
       197        C      tau( 197) = (  -0.3371004   0.3469535   0.2529154  )
       198        C      tau( 198) = (  -0.5273197   0.5414250   0.0608303  )
       199        C      tau( 199) = (  -0.7216631   0.7334142  -0.1324041  )
       200        C      tau( 200) = (  -0.2017849   0.6204130   0.3863652  )
       201        C      tau( 201) = (  -0.3979983   0.8223299   0.1984676  )
       202        C      tau( 202) = (  -0.5857008   1.0055824   0.0035230  )
       203        C      tau( 203) = (  -0.0648857   0.8927751   0.5243732  )
       204        C      tau( 204) = (  -0.2571887   1.0852928   0.3320351  )
       205        C      tau( 205) = (  -0.4496752   1.2781647   0.1395404  )
       206        C      tau( 206) = (  -0.5729462   0.3482261   0.4884523  )
       207        C      tau( 207) = (  -0.7648350   0.5409429   0.2956938  )
       208        C      tau( 208) = (  -0.9573260   0.7333580   0.1032965  )
       209        C      tau( 209) = (  -0.4366105   0.6205835   0.6239183  )
       210        C      tau( 210) = (  -0.6288868   0.8131143   0.4315922  )
       211        C      tau( 211) = (  -0.8216944   1.0056867   0.2392013  )
       212        C      tau( 212) = (  -0.3005720   0.8927132   0.7600505  )
       213        C      tau( 213) = (  -0.4929006   1.0854654   0.5679951  )
       214        C      tau( 214) = (  -0.6853722   1.2777461   0.3753390  )
       215        N      tau( 215) = (  -0.3690032   0.5708483   0.2304922  )

     number of k points=     1
                       cart. coord. in units 2pi/alat
        k(    1) = (   0.0000000   0.0000000   0.0000000), wk =   1.0000000

     Dense  grid:   338755 G-vectors     FFT dimensions: (  90,  90,  90)

     Occupations read from input 

      Spin-up

        1.0000   1.0000   1.0000   1.0000   1.0000   1.0000   1.0000   1.0000
        1.0000   1.0000   1.0000   1.0000   1.0000   1.0000   1.0000   1.0000
        1.0000   1.0000   1.0000   1.0000   1.0000   1.0000   1.0000   1.0000
        1.0000   1.0000   1.0000   1.0000   1.0000   1.0000   1.0000   1.0000
        1.0000   1.0000   1.0000   1.0000   1.0000   1.0000   1.0000   1.0000
        1.0000   1.0000   1.0000   1.0000   1.0000   1.0000   1.0000   1.0000
        1.0000   1.0000   1.0000   1.0000   1.0000   1.0000   1.0000   1.0000
        1.0000   1.0000   1.0000   1.0000   1.0000   1.0000   1.0000   1.0000
        1.0000   1.0000   1.0000   1.0000   1.0000   1.0000   1.0000   1.0000
        1.0000   1.0000   1.0000   1.0000   1.0000   1.0000   1.0000   1.0000
        1.0000   1.0000   1.0000   1.0000   1.0000   1.0000   1.0000   1.0000
        1.0000   1.0000   1.0000   1.0000   1.0000   1.0000   1.0000   1.0000
        1.0000   1.0000   1.0000   1.0000   1.0000   1.0000   1.0000   1.0000
        1.0000   1.0000   1.0000   1.0000   1.0000   1.0000   1.0000   1.0000
        1.0000   1.0000   1.0000   1.0000   1.0000   1.0000   1.0000   1.0000
        1.0000   1.0000   1.0000   1.0000   1.0000   1.0000   1.0000   1.0000
        1.0000   1.0000   1.0000   1.0000   1.0000   1.0000   1.0000   1.0000
        1.0000   1.0000   1.0000   1.0000   1.0000   1.0000   1.0000   1.0000
        1.0000   1.0000   1.0000   1.0000   1.0000   1.0000   1.0000   1.0000
        1.0000   1.0000   1.0000   1.0000   1.0000   1.0000   1.0000   1.0000
        1.0000   1.0000   1.0000   1.0000   1.0000   1.0000   1.0000   1.0000
        1.0000   1.0000   1.0000   1.0000   1.0000   1.0000   1.0000   1.0000
        1.0000   1.0000   1.0000   1.0000   1.0000   1.0000   1.0000   1.0000
        1.0000   1.0000   1.0000   1.0000   1.0000   1.0000   1.0000   1.0000
        1.0000   1.0000   1.0000   1.0000   1.0000   1.0000   1.0000   1.0000
        1.0000   1.0000   1.0000   1.0000   1.0000   1.0000   1.0000   1.0000
        1.0000   1.0000   1.0000   1.0000   1.0000   1.0000   1.0000   1.0000
        1.0000   1.0000   1.0000   1.0000   1.0000   1.0000   1.0000   1.0000
        1.0000   1.0000   1.0000   1.0000   1.0000   1.0000   1.0000   1.0000
        1.0000   1.0000   1.0000   1.0000   1.0000   1.0000   1.0000   1.0000
        1.0000   1.0000   1.0000   1.0000   1.0000   1.0000   1.0000   1.0000
        1.0000   1.0000   1.0000   1.0000   1.0000   1.0000   1.0000   1.0000
        1.0000   1.0000   1.0000   1.0000   1.0000   1.0000   1.0000   1.0000
        1.0000   1.0000   1.0000   1.0000   1.0000   1.0000   1.0000   1.0000
        1.0000   1.0000   1.0000   1.0000   1.0000   1.0000   1.0000   1.0000
        1.0000   1.0000   1.0000   1.0000   1.0000   1.0000   1.0000   1.0000
        1.0000   1.0000   1.0000   1.0000   1.0000   1.0000   1.0000   1.0000
        1.0000   1.0000   1.0000   1.0000   1.0000   1.0000   1.0000   1.0000
        1.0000   1.0000   1.0000   1.0000   1.0000   1.0000   1.0000   1.0000
        1.0000   1.0000   1.0000   1.0000   1.0000   1.0000   1.0000   1.0000
        1.0000   1.0000   1.0000   1.0000   1.0000   1.0000   1.0000   1.0000
        1.0000   1.0000   1.0000   1.0000   1.0000   1.0000   1.0000   1.0000
        1.0000   1.0000   1.0000   1.0000   1.0000   1.0000   1.0000   1.0000
        1.0000   1.0000   1.0000   1.0000   1.0000   1.0000   1.0000   1.0000
        1.0000   1.0000   1.0000   1.0000   1.0000   1.0000   1.0000   1.0000
        1.0000   1.0000   1.0000   1.0000   1.0000   1.0000   1.0000   1.0000
        1.0000   1.0000   1.0000   1.0000   1.0000   1.0000   1.0000   1.0000
        1.0000   1.0000   1.0000   1.0000   1.0000   1.0000   1.0000   1.0000
        1.0000   1.0000   1.0000   1.0000   1.0000   1.0000   1.0000   1.0000
        1.0000   1.0000   1.0000   1.0000   1.0000   1.0000   1.0000   1.0000
        1.0000   1.0000   1.0000   1.0000   1.0000   1.0000   1.0000   1.0000
        1.0000   1.0000   1.0000   1.0000   1.0000   1.0000   1.0000   1.0000
        1.0000   1.0000   1.0000   1.0000   1.0000   1.0000   1.0000   1.0000
        1.0000   1.0000   1.0000   1.0000   1.0000   1.0000   1.0000   1.0000
        0.0000   0.0000   0.0000   0.0000   0.0000   0.0000   0.0000   0.0000
        0.0000   0.0000   0.0000   0.0000   0.0000   0.0000   0.0000   0.0000
        0.0000   0.0000   0.0000   0.0000   0.0000   0.0000   0.0000   0.0000
        0.0000   0.0000   0.0000   0.0000   0.0000   0.0000   0.0000   0.0000
        0.0000   0.0000   0.0000   0.0000   0.0000   0.0000   0.0000   0.0000
        0.0000   0.0000   0.0000   0.0000   0.0000   0.0000   0.0000   0.0000
        0.0000   0.0000   0.0000   0.0000   0.0000   0.0000   0.0000   0.0000
        0.0000   0.0000   0.0000   0.0000   0.0000   0.0000   0.0000   0.0000
        0.0000   0.0000   0.0000   0.0000   0.0000   0.0000   0.0000   0.0000
        0.0000   0.0000   0.0000   0.0000   0.0000   0.0000   0.0000   0.0000
        0.0000   0.0000   0.0000   0.0000   0.0000   0.0000   0.0000   0.0000
        0.0000   0.0000   0.0000   0.0000   0.0000   0.0000   0.0000   0.0000
        0.0000   0.0000   0.0000   0.0000   0.0000   0.0000   0.0000   0.0000
        0.0000   0.0000   0.0000   0.0000   0.0000   0.0000   0.0000   0.0000
        0.0000   0.0000   0.0000   0.0000   0.0000   0.0000   0.0000   0.0000
        0.0000   0.0000   0.0000   0.0000   0.0000   0.0000   0.0000   0.0000
        0.0000   0.0000   0.0000   0.0000   0.0000   0.0000   0.0000   0.0000
        0.0000   0.0000   0.0000   0.0000   0.0000   0.0000   0.0000   0.0000
        0.0000   0.0000   0.0000   0.0000   0.0000   0.0000   0.0000   0.0000
        0.0000   0.0000   0.0000   0.0000   0.0000   0.0000   0.0000   0.0000
        0.0000   0.0000   0.0000   0.0000   0.0000   0.0000   0.0000   0.0000
        0.0000   0.0000   0.0000   0.0000   0.0000   0.0000   0.0000   0.0000
        0.0000   0.0000   0.0000   0.0000   0.0000   0.0000   0.0000   0.0000
        0.0000   0.0000   0.0000   0.0000   0.0000   0.0000   0.0000   0.0000
        0.0000   0.0000   0.0000   0.0000   0.0000   0.0000   0.0000   0.0000
        0.0000   0.0000   0.0000   0.0000   0.0000   0.0000   0.0000   0.0000
        0.0000   0.0000   0.0000   0.0000   0.0000   0.0000   0.0000   0.0000
        0.0000   0.0000   0.0000   0.0000   0.0000   0.0000   0.0000   0.0000
        0.0000   0.0000   0.0000   0.0000   0.0000   0.0000   0.0000   0.0000
        0.0000   0.0000   0.0000   0.0000   0.0000   0.0000   0.0000   0.0000
        0.0000   0.0000   0.0000   0.0000   0.0000   0.0000   0.0000   0.0000
        0.0000   0.0000   0.0000   0.0000   0.0000   0.0000   0.0000   0.0000
        0.0000   0.0000   0.0000   0.0000   0.0000   0.0000   0.0000   0.0000
        0.0000   0.0000   0.0000   0.0000   0.0000   0.0000   0.0000   0.0000
        0.0000   0.0000   0.0000   0.0000   0.0000   0.0000   0.0000   0.0000
        0.0000   0.0000   0.0000   0.0000   0.0000   0.0000   0.0000   0.0000
        0.0000   0.0000   0.0000   0.0000   0.0000   0.0000   0.0000   0.0000
        0.0000   0.0000   0.0000   0.0000   0.0000   0.0000   0.0000   0.0000
        0.0000   0.0000   0.0000   0.0000   0.0000   0.0000   0.0000   0.0000
        0.0000   0.0000   0.0000   0.0000   0.0000   0.0000   0.0000   0.0000
        0.0000   0.0000   0.0000   0.0000   0.0000   0.0000   0.0000   0.0000
        0.0000   0.0000   0.0000   0.0000   0.0000   0.0000   0.0000   0.0000
        0.0000   0.0000   0.0000   0.0000   0.0000   0.0000   0.0000   0.0000
        0.0000   0.0000   0.0000   0.0000   0.0000   0.0000   0.0000   0.0000
        0.0000   0.0000   0.0000   0.0000   0.0000   0.0000   0.0000   0.0000
        0.0000   0.0000   0.0000   0.0000   0.0000   0.0000   0.0000   0.0000
        0.0000   0.0000   0.0000   0.0000   0.0000   0.0000   0.0000   0.0000
        0.0000   0.0000   0.0000   0.0000   0.0000   0.0000   0.0000   0.0000
        0.0000   0.0000   0.0000   0.0000   0.0000   0.0000   0.0000   0.0000
        0.0000   0.0000   0.0000   0.0000   0.0000   0.0000   0.0000   0.0000
        0.0000   0.0000   0.0000   0.0000   0.0000   0.0000   0.0000   0.0000
        0.0000   0.0000   0.0000   0.0000   0.0000   0.0000   0.0000   0.0000
        0.0000   0.0000   0.0000   0.0000   0.0000   0.0000   0.0000   0.0000
        0.0000   0.0000   0.0000   0.0000   0.0000   0.0000

      Spin-down

        1.0000   1.0000   1.0000   1.0000   1.0000   1.0000   1.0000   1.0000
        1.0000   1.0000   1.0000   1.0000   1.0000   1.0000   1.0000   1.0000
        1.0000   1.0000   1.0000   1.0000   1.0000   1.0000   1.0000   1.0000
        1.0000   1.0000   1.0000   1.0000   1.0000   1.0000   1.0000   1.0000
        1.0000   1.0000   1.0000   1.0000   1.0000   1.0000   1.0000   1.0000
        1.0000   1.0000   1.0000   1.0000   1.0000   1.0000   1.0000   1.0000
        1.0000   1.0000   1.0000   1.0000   1.0000   1.0000   1.0000   1.0000
        1.0000   1.0000   1.0000   1.0000   1.0000   1.0000   1.0000   1.0000
        1.0000   1.0000   1.0000   1.0000   1.0000   1.0000   1.0000   1.0000
        1.0000   1.0000   1.0000   1.0000   1.0000   1.0000   1.0000   1.0000
        1.0000   1.0000   1.0000   1.0000   1.0000   1.0000   1.0000   1.0000
        1.0000   1.0000   1.0000   1.0000   1.0000   1.0000   1.0000   1.0000
        1.0000   1.0000   1.0000   1.0000   1.0000   1.0000   1.0000   1.0000
        1.0000   1.0000   1.0000   1.0000   1.0000   1.0000   1.0000   1.0000
        1.0000   1.0000   1.0000   1.0000   1.0000   1.0000   1.0000   1.0000
        1.0000   1.0000   1.0000   1.0000   1.0000   1.0000   1.0000   1.0000
        1.0000   1.0000   1.0000   1.0000   1.0000   1.0000   1.0000   1.0000
        1.0000   1.0000   1.0000   1.0000   1.0000   1.0000   1.0000   1.0000
        1.0000   1.0000   1.0000   1.0000   1.0000   1.0000   1.0000   1.0000
        1.0000   1.0000   1.0000   1.0000   1.0000   1.0000   1.0000   1.0000
        1.0000   1.0000   1.0000   1.0000   1.0000   1.0000   1.0000   1.0000
        1.0000   1.0000   1.0000   1.0000   1.0000   1.0000   1.0000   1.0000
        1.0000   1.0000   1.0000   1.0000   1.0000   1.0000   1.0000   1.0000
        1.0000   1.0000   1.0000   1.0000   1.0000   1.0000   1.0000   1.0000
        1.0000   1.0000   1.0000   1.0000   1.0000   1.0000   1.0000   1.0000
        1.0000   1.0000   1.0000   1.0000   1.0000   1.0000   1.0000   1.0000
        1.0000   1.0000   1.0000   1.0000   1.0000   1.0000   1.0000   1.0000
        1.0000   1.0000   1.0000   1.0000   1.0000   1.0000   1.0000   1.0000
        1.0000   1.0000   1.0000   1.0000   1.0000   1.0000   1.0000   1.0000
        1.0000   1.0000   1.0000   1.0000   1.0000   1.0000   1.0000   1.0000
        1.0000   1.0000   1.0000   1.0000   1.0000   1.0000   1.0000   1.0000
        1.0000   1.0000   1.0000   1.0000   1.0000   1.0000   1.0000   1.0000
        1.0000   1.0000   1.0000   1.0000   1.0000   1.0000   1.0000   1.0000
        1.0000   1.0000   1.0000   1.0000   1.0000   1.0000   1.0000   1.0000
        1.0000   1.0000   1.0000   1.0000   1.0000   1.0000   1.0000   1.0000
        1.0000   1.0000   1.0000   1.0000   1.0000   1.0000   1.0000   1.0000
        1.0000   1.0000   1.0000   1.0000   1.0000   1.0000   1.0000   1.0000
        1.0000   1.0000   1.0000   1.0000   1.0000   1.0000   1.0000   1.0000
        1.0000   1.0000   1.0000   1.0000   1.0000   1.0000   1.0000   1.0000
        1.0000   1.0000   1.0000   1.0000   1.0000   1.0000   1.0000   1.0000
        1.0000   1.0000   1.0000   1.0000   1.0000   1.0000   1.0000   1.0000
        1.0000   1.0000   1.0000   1.0000   1.0000   1.0000   1.0000   1.0000
        1.0000   1.0000   1.0000   1.0000   1.0000   1.0000   1.0000   1.0000
        1.0000   1.0000   1.0000   1.0000   1.0000   1.0000   1.0000   1.0000
        1.0000   1.0000   1.0000   1.0000   1.0000   1.0000   1.0000   1.0000
        1.0000   1.0000   1.0000   1.0000   1.0000   1.0000   1.0000   1.0000
        1.0000   1.0000   1.0000   1.0000   1.0000   1.0000   1.0000   1.0000
        1.0000   1.0000   1.0000   1.0000   1.0000   1.0000   1.0000   1.0000
        1.0000   1.0000   1.0000   1.0000   1.0000   1.0000   1.0000   1.0000
        1.0000   1.0000   1.0000   1.0000   1.0000   1.0000   1.0000   1.0000
        1.0000   1.0000   1.0000   1.0000   1.0000   1.0000   1.0000   1.0000
        1.0000   1.0000   1.0000   1.0000   1.0000   1.0000   1.0000   1.0000
        1.0000   1.0000   1.0000   1.0000   1.0000   1.0000   1.0000   1.0000
        1.0000   1.0000   1.0000   1.0000   1.0000   0.0000   0.5000   0.5000
        0.0000   0.0000   0.0000   0.0000   0.0000   0.0000   0.0000   0.0000
        0.0000   0.0000   0.0000   0.0000   0.0000   0.0000   0.0000   0.0000
        0.0000   0.0000   0.0000   0.0000   0.0000   0.0000   0.0000   0.0000
        0.0000   0.0000   0.0000   0.0000   0.0000   0.0000   0.0000   0.0000
        0.0000   0.0000   0.0000   0.0000   0.0000   0.0000   0.0000   0.0000
        0.0000   0.0000   0.0000   0.0000   0.0000   0.0000   0.0000   0.0000
        0.0000   0.0000   0.0000   0.0000   0.0000   0.0000   0.0000   0.0000
        0.0000   0.0000   0.0000   0.0000   0.0000   0.0000   0.0000   0.0000
        0.0000   0.0000   0.0000   0.0000   0.0000   0.0000   0.0000   0.0000
        0.0000   0.0000   0.0000   0.0000   0.0000   0.0000   0.0000   0.0000
        0.0000   0.0000   0.0000   0.0000   0.0000   0.0000   0.0000   0.0000
        0.0000   0.0000   0.0000   0.0000   0.0000   0.0000   0.0000   0.0000
        0.0000   0.0000   0.0000   0.0000   0.0000   0.0000   0.0000   0.0000
        0.0000   0.0000   0.0000   0.0000   0.0000   0.0000   0.0000   0.0000
        0.0000   0.0000   0.0000   0.0000   0.0000   0.0000   0.0000   0.0000
        0.0000   0.0000   0.0000   0.0000   0.0000   0.0000   0.0000   0.0000
        0.0000   0.0000   0.0000   0.0000   0.0000   0.0000   0.0000   0.0000
        0.0000   0.0000   0.0000   0.0000   0.0000   0.0000   0.0000   0.0000
        0.0000   0.0000   0.0000   0.0000   0.0000   0.0000   0.0000   0.0000
        0.0000   0.0000   0.0000   0.0000   0.0000   0.0000   0.0000   0.0000
        0.0000   0.0000   0.0000   0.0000   0.0000   0.0000   0.0000   0.0000
        0.0000   0.0000   0.0000   0.0000   0.0000   0.0000   0.0000   0.0000
        0.0000   0.0000   0.0000   0.0000   0.0000   0.0000   0.0000   0.0000
        0.0000   0.0000   0.0000   0.0000   0.0000   0.0000   0.0000   0.0000
        0.0000   0.0000   0.0000   0.0000   0.0000   0.0000   0.0000   0.0000
        0.0000   0.0000   0.0000   0.0000   0.0000   0.0000   0.0000   0.0000
        0.0000   0.0000   0.0000   0.0000   0.0000   0.0000   0.0000   0.0000
        0.0000   0.0000   0.0000   0.0000   0.0000   0.0000   0.0000   0.0000
        0.0000   0.0000   0.0000   0.0000   0.0000   0.0000   0.0000   0.0000
        0.0000   0.0000   0.0000   0.0000   0.0000   0.0000   0.0000   0.0000
        0.0000   0.0000   0.0000   0.0000   0.0000   0.0000   0.0000   0.0000
        0.0000   0.0000   0.0000   0.0000   0.0000   0.0000   0.0000   0.0000
        0.0000   0.0000   0.0000   0.0000   0.0000   0.0000   0.0000   0.0000
        0.0000   0.0000   0.0000   0.0000   0.0000   0.0000   0.0000   0.0000
        0.0000   0.0000   0.0000   0.0000   0.0000   0.0000   0.0000   0.0000
        0.0000   0.0000   0.0000   0.0000   0.0000   0.0000   0.0000   0.0000
        0.0000   0.0000   0.0000   0.0000   0.0000   0.0000   0.0000   0.0000
        0.0000   0.0000   0.0000   0.0000   0.0000   0.0000   0.0000   0.0000
        0.0000   0.0000   0.0000   0.0000   0.0000   0.0000   0.0000   0.0000
        0.0000   0.0000   0.0000   0.0000   0.0000   0.0000   0.0000   0.0000
        0.0000   0.0000   0.0000   0.0000   0.0000   0.0000   0.0000   0.0000
        0.0000   0.0000   0.0000   0.0000   0.0000   0.0000   0.0000   0.0000
        0.0000   0.0000   0.0000   0.0000   0.0000   0.0000   0.0000   0.0000
        0.0000   0.0000   0.0000   0.0000   0.0000   0.0000   0.0000   0.0000
        0.0000   0.0000   0.0000   0.0000   0.0000   0.0000   0.0000   0.0000
        0.0000   0.0000   0.0000   0.0000   0.0000   0.0000   0.0000   0.0000
        0.0000   0.0000   0.0000   0.0000   0.0000   0.0000   0.0000   0.0000
        0.0000   0.0000   0.0000   0.0000   0.0000   0.0000   0.0000   0.0000
        0.0000   0.0000   0.0000   0.0000   0.0000   0.0000   0.0000   0.0000
        0.0000   0.0000   0.0000   0.0000   0.0000   0.0000   0.0000   0.0000
        0.0000   0.0000   0.0000   0.0000   0.0000   0.0000   0.0000   0.0000
        0.0000   0.0000   0.0000   0.0000   0.0000   0.0000   0.0000   0.0000
        0.0000   0.0000   0.0000   0.0000   0.0000   0.0000   0.0000   0.0000
        0.0000   0.0000   0.0000   0.0000   0.0000   0.0000

     Estimated max dynamical RAM per process >     300.93 MB

     Estimated total dynamical RAM >       7.05 GB

     Check: negative core charge=   -0.000075
     Generating pointlists ...
     new r_m :   0.0569 (alat units)  1.1532 (a.u.) for type    1
     new r_m :   0.0569 (alat units)  1.1532 (a.u.) for type    2

     Initial potential from superposition of free atoms

     starting charge     860.9911, renormalised to     862.0000
     Starting wfcs are random
     Checking if some PAW data can be deallocated... 

     total cpu time spent up to now is        6.0 secs

     per-process dynamical memory:   204.2 Mb

     Self-consistent Calculation

     iteration #  1     ecut=    45.00 Ry     beta= 0.70
     Davidson diagonalization with overlap
     ethr =  1.00E-02,  avg # of iterations =  9.0

     total cpu time spent up to now is       69.5 secs

     total energy              =   -3970.06719110 Ry
     estimated scf accuracy    <      12.72151012 Ry

     total magnetization       =     2.00 Bohr mag/cell
     absolute magnetization    =     2.13 Bohr mag/cell

     iteration #  2     ecut=    45.00 Ry     beta= 0.70
     Davidson diagonalization with overlap
     ethr =  1.48E-03,  avg # of iterations =  3.0

     total cpu time spent up to now is       86.5 secs

     total energy              =   -3967.96251163 Ry
     estimated scf accuracy    <       5.48964244 Ry

     total magnetization       =     2.00 Bohr mag/cell
     absolute magnetization    =     2.34 Bohr mag/cell

     iteration #  3     ecut=    45.00 Ry     beta= 0.70
     Davidson diagonalization with overlap
     ethr =  6.37E-04,  avg # of iterations =  5.0

     total cpu time spent up to now is      112.1 secs

     total energy              =   -3969.12138158 Ry
     estimated scf accuracy    <      20.46452340 Ry

     total magnetization       =     2.00 Bohr mag/cell
     absolute magnetization    =     2.12 Bohr mag/cell

     iteration #  4     ecut=    45.00 Ry     beta= 0.70
     Davidson diagonalization with overlap
     ethr =  6.37E-04,  avg # of iterations =  6.0

     total cpu time spent up to now is      133.0 secs

     total energy              =   -3971.10980392 Ry
     estimated scf accuracy    <       1.33028934 Ry

     total magnetization       =     2.00 Bohr mag/cell
     absolute magnetization    =     2.08 Bohr mag/cell

     iteration #  5     ecut=    45.00 Ry     beta= 0.70
     Davidson diagonalization with overlap
     ethr =  1.54E-04,  avg # of iterations =  8.0

     total cpu time spent up to now is      152.7 secs

     total energy              =   -3971.21860015 Ry
     estimated scf accuracy    <       0.34397769 Ry

     total magnetization       =     2.00 Bohr mag/cell
     absolute magnetization    =     2.06 Bohr mag/cell

     iteration #  6     ecut=    45.00 Ry     beta= 0.70
     Davidson diagonalization with overlap
     ethr =  3.99E-05,  avg # of iterations = 13.5

     total cpu time spent up to now is      175.9 secs

     total energy              =   -3971.20742894 Ry
     estimated scf accuracy    <       0.12981309 Ry

     total magnetization       =     2.00 Bohr mag/cell
     absolute magnetization    =     2.09 Bohr mag/cell

     iteration #  7     ecut=    45.00 Ry     beta= 0.70
     Davidson diagonalization with overlap
     ethr =  1.51E-05,  avg # of iterations =  4.0

     total cpu time spent up to now is      193.6 secs

     total energy              =   -3971.21356178 Ry
     estimated scf accuracy    <       0.02374810 Ry

     total magnetization       =     2.00 Bohr mag/cell
     absolute magnetization    =     2.12 Bohr mag/cell

     iteration #  8     ecut=    45.00 Ry     beta= 0.70
     Davidson diagonalization with overlap
     ethr =  2.76E-06,  avg # of iterations = 10.5

     total cpu time spent up to now is      216.9 secs

     total energy              =   -3971.21762216 Ry
     estimated scf accuracy    <       0.00269106 Ry

     total magnetization       =     2.00 Bohr mag/cell
     absolute magnetization    =     2.16 Bohr mag/cell

     iteration #  9     ecut=    45.00 Ry     beta= 0.70
     Davidson diagonalization with overlap
     ethr =  3.12E-07,  avg # of iterations =  2.5

     total cpu time spent up to now is      233.6 secs

     total energy              =   -3971.21825370 Ry
     estimated scf accuracy    <       0.00047428 Ry

     total magnetization       =     2.00 Bohr mag/cell
     absolute magnetization    =     2.18 Bohr mag/cell

     iteration # 10     ecut=    45.00 Ry     beta= 0.70
     Davidson diagonalization with overlap
     ethr =  5.50E-08,  avg # of iterations =  2.0

     total cpu time spent up to now is      250.1 secs

     total energy              =   -3971.21839528 Ry
     estimated scf accuracy    <       0.00011364 Ry

     total magnetization       =     2.00 Bohr mag/cell
     absolute magnetization    =     2.19 Bohr mag/cell

     iteration # 11     ecut=    45.00 Ry     beta= 0.70
     Davidson diagonalization with overlap
     ethr =  1.32E-08,  avg # of iterations =  2.5

     total cpu time spent up to now is      266.9 secs

     total energy              =   -3971.21842899 Ry
     estimated scf accuracy    <       0.00003204 Ry

     total magnetization       =     2.00 Bohr mag/cell
     absolute magnetization    =     2.19 Bohr mag/cell

     iteration # 12     ecut=    45.00 Ry     beta= 0.70
     Davidson diagonalization with overlap
     ethr =  3.72E-09,  avg # of iterations =  2.0

     total cpu time spent up to now is      283.3 secs

     total energy              =   -3971.21843818 Ry
     estimated scf accuracy    <       0.00000493 Ry

     total magnetization       =     2.00 Bohr mag/cell
     absolute magnetization    =     2.20 Bohr mag/cell

     iteration # 13     ecut=    45.00 Ry     beta= 0.70
     Davidson diagonalization with overlap
     ethr =  5.72E-10,  avg # of iterations =  3.0

     total cpu time spent up to now is      300.5 secs

     total energy              =   -3971.21843970 Ry
     estimated scf accuracy    <       0.00000157 Ry

     total magnetization       =     2.00 Bohr mag/cell
     absolute magnetization    =     2.20 Bohr mag/cell

     iteration # 14     ecut=    45.00 Ry     beta= 0.70
     Davidson diagonalization with overlap
     ethr =  1.82E-10,  avg # of iterations =  2.5

     total cpu time spent up to now is      317.2 secs

     total energy              =   -3971.21844011 Ry
     estimated scf accuracy    <       0.00000023 Ry

     total magnetization       =     2.00 Bohr mag/cell
     absolute magnetization    =     2.20 Bohr mag/cell

     iteration # 15     ecut=    45.00 Ry     beta= 0.70
     Davidson diagonalization with overlap
     ethr =  2.64E-11,  avg # of iterations =  3.0

     total cpu time spent up to now is      334.5 secs

     total energy              =   -3971.21844018 Ry
     estimated scf accuracy    <       0.00000011 Ry

     total magnetization       =     2.00 Bohr mag/cell
     absolute magnetization    =     2.20 Bohr mag/cell

     iteration # 16     ecut=    45.00 Ry     beta= 0.70
     Davidson diagonalization with overlap
     ethr =  1.30E-11,  avg # of iterations =  2.0

     total cpu time spent up to now is      350.9 secs

     total energy              =   -3971.21844020 Ry
     estimated scf accuracy    <       0.00000001 Ry

     total magnetization       =     2.00 Bohr mag/cell
     absolute magnetization    =     2.20 Bohr mag/cell

     iteration # 17     ecut=    45.00 Ry     beta= 0.70
     Davidson diagonalization with overlap
     ethr =  1.41E-12,  avg # of iterations =  2.0
 
     Magnetic moment per site  (integrated on atomic sphere of radius R)
     atom   1 (R=0.057)  charge=  1.8266  magn=  0.0001
     atom   2 (R=0.057)  charge=  1.8266  magn= -0.0000
     atom   3 (R=0.057)  charge=  1.8279  magn=  0.0000
     atom   4 (R=0.057)  charge=  1.8266  magn= -0.0000
     atom   5 (R=0.057)  charge=  1.8253  magn= -0.0002
     atom   6 (R=0.057)  charge=  1.8261  magn= -0.0008
     atom   7 (R=0.057)  charge=  1.8279  magn=  0.0000
     atom   8 (R=0.057)  charge=  1.8261  magn= -0.0008
     atom   9 (R=0.057)  charge=  1.8261  magn= -0.0002
     atom  10 (R=0.057)  charge=  1.8317  magn=  0.0015
     atom  11 (R=0.057)  charge=  1.8278  magn= -0.0001
     atom  12 (R=0.057)  charge=  1.8277  magn= -0.0001
     atom  13 (R=0.057)  charge=  1.8278  magn= -0.0001
     atom  14 (R=0.057)  charge=  1.7990  magn=  0.0003
     atom  15 (R=0.057)  charge=  1.8255  magn= -0.0026
     atom  16 (R=0.057)  charge=  1.8277  magn= -0.0001
     atom  17 (R=0.057)  charge=  1.8255  magn= -0.0026
     atom  18 (R=0.057)  charge=  1.8311  magn=  0.0016
     atom  19 (R=0.057)  charge=  1.8262  magn=  0.0001
     atom  20 (R=0.057)  charge=  1.8282  magn=  0.0000
     atom  21 (R=0.057)  charge=  1.8275  magn= -0.0001
     atom  22 (R=0.057)  charge=  1.8282  magn=  0.0000
     atom  23 (R=0.057)  charge=  1.8288  magn= -0.0002
     atom  24 (R=0.057)  charge=  1.8209  magn= -0.0002
     atom  25 (R=0.057)  charge=  1.8275  magn= -0.0001
     atom  26 (R=0.057)  charge=  1.8209  magn= -0.0002
     atom  27 (R=0.057)  charge=  1.8268  magn= -0.0009
     atom  28 (R=0.057)  charge=  1.8276  magn= -0.0001
     atom  29 (R=0.057)  charge=  1.8207  magn= -0.0002
     atom  30 (R=0.057)  charge=  1.8268  magn= -0.0009
     atom  31 (R=0.057)  charge=  1.8278  magn= -0.0001
     atom  32 (R=0.057)  charge=  1.8252  magn= -0.0026
     atom  33 (R=0.057)  charge=  1.8311  magn=  0.0016
     atom  34 (R=0.057)  charge=  1.8279  magn=  0.0000
     atom  35 (R=0.057)  charge=  1.8262  magn= -0.0008
     atom  36 (R=0.057)  charge=  1.8261  magn= -0.0002
     atom  37 (R=0.057)  charge=  1.8282  magn=  0.0000
     atom  38 (R=0.057)  charge=  1.8288  magn= -0.0002
     atom  39 (R=0.057)  charge=  1.8208  magn= -0.0002
     atom  40 (R=0.057)  charge=  1.8278  magn= -0.0001
     atom  41 (R=0.057)  charge=  1.7992  magn=  0.0003
     atom  42 (R=0.057)  charge=  1.8255  magn= -0.0026
     atom  43 (R=0.057)  charge=  1.8265  magn= -0.0000
     atom  44 (R=0.057)  charge=  1.8254  magn= -0.0002
     atom  45 (R=0.057)  charge=  1.8262  magn= -0.0008
     atom  46 (R=0.057)  charge=  1.8262  magn=  0.0001
     atom  47 (R=0.057)  charge=  1.8284  magn=  0.0000
     atom  48 (R=0.057)  charge=  1.8275  magn= -0.0001
     atom  49 (R=0.057)  charge=  1.8317  magn=  0.0015
     atom  50 (R=0.057)  charge=  1.8278  magn= -0.0001
     atom  51 (R=0.057)  charge=  1.8277  magn= -0.0001
     atom  52 (R=0.057)  charge=  1.8266  magn=  0.0001
     atom  53 (R=0.057)  charge=  1.8264  magn= -0.0000
     atom  54 (R=0.057)  charge=  1.8279  magn=  0.0000
     atom  55 (R=0.057)  charge=  1.8276  magn= -0.0001
     atom  56 (R=0.057)  charge=  1.8278  magn= -0.0001
     atom  57 (R=0.057)  charge=  1.8279  magn=  0.0000
     atom  58 (R=0.057)  charge=  1.8207  magn= -0.0002
     atom  59 (R=0.057)  charge=  1.8252  magn= -0.0026
     atom  60 (R=0.057)  charge=  1.8262  magn= -0.0008
     atom  61 (R=0.057)  charge=  1.8268  magn= -0.0009
     atom  62 (R=0.057)  charge=  1.8311  magn=  0.0016
     atom  63 (R=0.057)  charge=  1.8261  magn= -0.0002
     atom  64 (R=0.057)  charge=  1.8282  magn=  0.0000
     atom  65 (R=0.057)  charge=  1.8278  magn= -0.0001
     atom  66 (R=0.057)  charge=  1.8265  magn= -0.0000
     atom  67 (R=0.057)  charge=  1.8288  magn= -0.0002
     atom  68 (R=0.057)  charge=  1.7992  magn=  0.0003
     atom  69 (R=0.057)  charge=  1.8254  magn= -0.0002
     atom  70 (R=0.057)  charge=  1.8208  magn= -0.0002
     atom  71 (R=0.057)  charge=  1.8255  magn= -0.0026
     atom  72 (R=0.057)  charge=  1.8262  magn= -0.0008
     atom  73 (R=0.057)  charge=  1.8262  magn=  0.0001
     atom  74 (R=0.057)  charge=  1.8317  magn=  0.0015
     atom  75 (R=0.057)  charge=  1.8266  magn=  0.0001
     atom  76 (R=0.057)  charge=  1.8284  magn=  0.0000
     atom  77 (R=0.057)  charge=  1.8278  magn= -0.0001
     atom  78 (R=0.057)  charge=  1.8264  magn= -0.0000
     atom  79 (R=0.057)  charge=  1.8275  magn= -0.0001
     atom  80 (R=0.057)  charge=  1.8277  magn= -0.0001
     atom  81 (R=0.057)  charge=  1.8279  magn=  0.0000
     atom  82 (R=0.057)  charge=  1.8267  magn=  0.0000
     atom  83 (R=0.057)  charge=  1.8315  magn=  0.0019
     atom  84 (R=0.057)  charge=  1.8269  magn=  0.0000
     atom  85 (R=0.057)  charge=  1.8315  magn=  0.0019
     atom  86 (R=0.057)  charge=  1.8279  magn= -0.0007
     atom  87 (R=0.057)  charge=  1.8314  magn=  0.0035
     atom  88 (R=0.057)  charge=  1.8269  magn=  0.0000
     atom  89 (R=0.057)  charge=  1.8314  magn=  0.0035
     atom  90 (R=0.057)  charge=  1.8271  magn=  0.0005
     atom  91 (R=0.057)  charge=  1.8317  magn=  0.0012
     atom  92 (R=0.057)  charge=  1.8309  magn= -0.0006
     atom  93 (R=0.057)  charge=  1.8316  magn=  0.0019
     atom  94 (R=0.057)  charge=  1.8309  magn= -0.0006
     atom  95 (R=0.057)  charge=  1.8279  magn= -0.0007
     atom  96 (R=0.057)  charge=  1.8316  magn=  0.0019
     atom  97 (R=0.057)  charge=  1.8279  magn= -0.0007
     atom  98 (R=0.057)  charge=  1.8314  magn=  0.0035
     atom  99 (R=0.057)  charge=  1.8277  magn=  0.0001
     atom 100 (R=0.057)  charge=  1.8316  magn=  0.0012
     atom 101 (R=0.057)  charge=  1.8267  magn=  0.0000
     atom 102 (R=0.057)  charge=  1.8316  magn=  0.0012
     atom 103 (R=0.057)  charge=  1.8308  magn= -0.0006
     atom 104 (R=0.057)  charge=  1.8317  magn=  0.0019
     atom 105 (R=0.057)  charge=  1.8267  magn=  0.0000
     atom 106 (R=0.057)  charge=  1.8317  magn=  0.0019
     atom 107 (R=0.057)  charge=  1.8269  magn=  0.0000
     atom 108 (R=0.057)  charge=  1.8262  magn=  0.0002
     atom 109 (R=0.057)  charge=  1.8226  magn=  0.0001
     atom 110 (R=0.057)  charge=  1.8261  magn=  0.0014
     atom 111 (R=0.057)  charge=  1.8226  magn=  0.0001
     atom 112 (R=0.057)  charge=  1.8236  magn=  0.0049
     atom 113 (R=0.057)  charge=  1.8246  magn=  0.0154
     atom 114 (R=0.057)  charge=  1.8261  magn=  0.0014
     atom 115 (R=0.057)  charge=  1.8246  magn=  0.0154
     atom 116 (R=0.057)  charge=  1.8248  magn=  0.0008
     atom 117 (R=0.057)  charge=  1.8275  magn=  0.0010
     atom 118 (R=0.057)  charge=  1.8258  magn=  0.0010
     atom 119 (R=0.057)  charge=  1.8227  magn=  0.0001
     atom 120 (R=0.057)  charge=  1.8258  magn=  0.0010
     atom 121 (R=0.057)  charge=  1.8238  magn=  0.0049
     atom 122 (R=0.057)  charge=  1.8227  magn=  0.0001
     atom 123 (R=0.057)  charge=  1.8238  magn=  0.0049
     atom 124 (R=0.057)  charge=  1.8246  magn=  0.0154
     atom 125 (R=0.057)  charge=  1.8260  magn=  0.0007
     atom 126 (R=0.057)  charge=  1.8275  magn=  0.0010
     atom 127 (R=0.057)  charge=  1.8262  magn=  0.0002
     atom 128 (R=0.057)  charge=  1.8275  magn=  0.0010
     atom 129 (R=0.057)  charge=  1.8258  magn=  0.0010
     atom 130 (R=0.057)  charge=  1.8228  magn=  0.0001
     atom 131 (R=0.057)  charge=  1.8262  magn=  0.0002
     atom 132 (R=0.057)  charge=  1.8228  magn=  0.0001
     atom 133 (R=0.057)  charge=  1.8261  magn=  0.0014
     atom 134 (R=0.057)  charge=  1.8251  magn=  0.0001
     atom 135 (R=0.057)  charge=  1.8182  magn=  0.0039
     atom 136 (R=0.057)  charge=  1.8227  magn=  0.0152
     atom 137 (R=0.057)  charge=  1.8254  magn=  0.0012
     atom 138 (R=0.057)  charge=  1.8428  magn=  0.1908
     atom 139 (R=0.057)  charge=  1.8247  magn=  0.0047
     atom 140 (R=0.057)  charge=  1.8271  magn=  0.0013
     atom 141 (R=0.057)  charge=  1.8257  magn=  0.0010
     atom 142 (R=0.057)  charge=  1.8246  magn=  0.0002
     atom 143 (R=0.057)  charge=  1.8277  magn=  0.0011
     atom 144 (R=0.057)  charge=  1.8304  magn=  0.0078
     atom 145 (R=0.057)  charge=  1.8253  magn=  0.0001
     atom 146 (R=0.057)  charge=  1.8251  magn=  0.0001
     atom 147 (R=0.057)  charge=  1.8183  magn=  0.0039
     atom 148 (R=0.057)  charge=  1.8226  magn=  0.0152
     atom 149 (R=0.057)  charge=  1.8262  magn=  0.0003
     atom 150 (R=0.057)  charge=  1.8249  magn=  0.0001
     atom 151 (R=0.057)  charge=  1.8262  magn=  0.0012
     atom 152 (R=0.057)  charge=  1.8262  magn=  0.0003
     atom 153 (R=0.057)  charge=  1.8249  magn=  0.0001
     atom 154 (R=0.057)  charge=  1.8262  magn=  0.0012
     atom 155 (R=0.057)  charge=  1.8271  magn=  0.0013
     atom 156 (R=0.057)  charge=  1.8257  magn=  0.0010
     atom 157 (R=0.057)  charge=  1.8246  magn=  0.0002
     atom 158 (R=0.057)  charge=  1.8258  magn=  0.0006
     atom 159 (R=0.057)  charge=  1.8264  magn=  0.0017
     atom 160 (R=0.057)  charge=  1.8259  magn=  0.0004
     atom 161 (R=0.057)  charge=  1.8251  magn=  0.0001
     atom 162 (R=0.057)  charge=  1.8254  magn=  0.0012
     atom 163 (R=0.057)  charge=  1.8271  magn=  0.0013
     atom 164 (R=0.057)  charge=  1.8182  magn=  0.0039
     atom 165 (R=0.057)  charge=  1.8428  magn=  0.1908
     atom 166 (R=0.057)  charge=  1.8257  magn=  0.0010
     atom 167 (R=0.057)  charge=  1.8227  magn=  0.0152
     atom 168 (R=0.057)  charge=  1.8247  magn=  0.0047
     atom 169 (R=0.057)  charge=  1.8246  magn=  0.0002
     atom 170 (R=0.057)  charge=  1.8277  magn=  0.0011
     atom 171 (R=0.057)  charge=  1.8251  magn=  0.0001
     atom 172 (R=0.057)  charge=  1.8262  magn=  0.0003
     atom 173 (R=0.057)  charge=  1.8304  magn=  0.0078
     atom 174 (R=0.057)  charge=  1.8183  magn=  0.0039
     atom 175 (R=0.057)  charge=  1.8249  magn=  0.0001
     atom 176 (R=0.057)  charge=  1.8253  magn=  0.0001
     atom 177 (R=0.057)  charge=  1.8226  magn=  0.0152
     atom 178 (R=0.057)  charge=  1.8262  magn=  0.0012
     atom 179 (R=0.057)  charge=  1.8262  magn=  0.0003
     atom 180 (R=0.057)  charge=  1.8271  magn=  0.0013
     atom 181 (R=0.057)  charge=  1.8258  magn=  0.0006
     atom 182 (R=0.057)  charge=  1.8249  magn=  0.0001
     atom 183 (R=0.057)  charge=  1.8257  magn=  0.0010
     atom 184 (R=0.057)  charge=  1.8264  magn=  0.0017
     atom 185 (R=0.057)  charge=  1.8262  magn=  0.0012
     atom 186 (R=0.057)  charge=  1.8246  magn=  0.0002
     atom 187 (R=0.057)  charge=  1.8259  magn=  0.0004
     atom 188 (R=0.057)  charge=  1.8250  magn=  0.0001
     atom 189 (R=0.057)  charge=  1.8229  magn=  0.0152
     atom 190 (R=0.057)  charge=  1.8262  magn=  0.0012
     atom 191 (R=0.057)  charge=  1.8229  magn=  0.0152
     atom 192 (R=0.057)  charge=  1.8247  magn=  0.0047
     atom 193 (R=0.057)  charge=  1.8246  magn=  0.0002
     atom 194 (R=0.057)  charge=  1.8262  magn=  0.0012
     atom 195 (R=0.057)  charge=  1.8246  magn=  0.0002
     atom 196 (R=0.057)  charge=  1.8259  magn=  0.0004
     atom 197 (R=0.057)  charge=  1.8304  magn=  0.0078
     atom 198 (R=0.057)  charge=  1.8183  magn=  0.0039
     atom 199 (R=0.057)  charge=  1.8249  magn=  0.0001
     atom 200 (R=0.057)  charge=  1.8183  magn=  0.0039
     atom 201 (R=0.057)  charge=  1.8427  magn=  0.1908
     atom 202 (R=0.057)  charge=  1.8257  magn=  0.0010
     atom 203 (R=0.057)  charge=  1.8249  magn=  0.0001
     atom 204 (R=0.057)  charge=  1.8257  magn=  0.0010
     atom 205 (R=0.057)  charge=  1.8264  magn=  0.0017
     atom 206 (R=0.057)  charge=  1.8276  magn=  0.0011
     atom 207 (R=0.057)  charge=  1.8251  magn=  0.0001
     atom 208 (R=0.057)  charge=  1.8262  magn=  0.0003
     atom 209 (R=0.057)  charge=  1.8251  magn=  0.0001
     atom 210 (R=0.057)  charge=  1.8254  magn=  0.0012
     atom 211 (R=0.057)  charge=  1.8271  magn=  0.0013
     atom 212 (R=0.057)  charge=  1.8262  magn=  0.0003
     atom 213 (R=0.057)  charge=  1.8271  magn=  0.0013
     atom 214 (R=0.057)  charge=  1.8258  magn=  0.0006
     atom 215 (R=0.057)  charge=  2.8890  magn=  0.1259

     total cpu time spent up to now is      367.4 secs

     End of self-consistent calculation

 ------ SPIN UP ------------


          k = 0.0000 0.0000 0.0000 ( 42379 PWs)   bands (ev):

    -8.3204  -7.6385  -7.2887  -7.2887  -7.2332  -7.2332  -7.1646  -6.7344
    -6.2985  -6.2985  -6.2776  -6.2776  -6.2560  -6.2373  -6.2302  -6.2301
    -6.1686  -6.1686  -6.0129  -5.5644  -5.2618  -5.2614  -5.2614  -5.2247
    -5.2222  -5.2222  -5.0623  -4.5049  -4.2742  -4.2742  -4.2472  -4.2472
    -4.1949  -3.9235  -3.4157  -3.4156  -3.3820  -3.3820  -3.3750  -3.3609
    -3.3609  -3.3587  -3.3532  -3.3515  -3.3515  -3.3280  -3.3257  -3.3257
    -3.2968  -3.2968  -3.2795  -3.2772  -3.2772  -3.2746  -3.1917  -3.1917
    -3.0332  -2.8568  -2.6441  -2.6441  -2.5905  -2.5801  -2.5801  -2.5711
    -2.5668  -2.5667  -2.5649  -2.5419  -2.5419  -2.5260  -2.5260  -2.5199
    -2.5015  -2.5015  -2.4642  -2.4532  -2.4532  -2.4131  -2.2883  -2.2883
    -1.6483  -1.0867  -0.9233  -0.9233  -0.8681  -0.8681  -0.8601  -0.8544
    -0.8544  -0.8442  -0.7915  -0.7915  -0.4472   0.3310   0.3860   0.3860
     0.4150   0.4150   0.4537   0.6498   0.7972   0.7972   0.8902   0.8927
     0.8927   0.8977   0.8977   0.9048   0.9096   0.9096   0.9176   0.9485
     0.9485   0.9677   0.9944   1.0178   1.0178   1.0313   1.0313   1.0464
     1.0714   1.0715   1.0799   1.1067   1.1067   1.1088   1.1283   1.1368
     1.1368   1.1378   1.1488   1.1488   1.1490   1.1742   1.1742   1.1978
     1.1978   1.2094   1.2102   1.2103   1.2154   1.2154   1.2343   1.4271
     1.5696   1.5696   1.9408   2.1837   2.1837   2.1870   2.2420   2.2420
     2.2457   2.2547   2.2771   2.2771   2.4238   2.4238   3.3548   3.6692
     3.6692   3.7201   3.7831   3.7929   3.7952   3.7952   3.7989   3.7989
     3.8107   3.8134   3.8278   3.8314   3.8314   3.8548   3.8548   3.9616
     3.9617   3.9646   4.0065   4.3219   4.3219   4.3666   4.4435   4.4507
     4.4508   4.4544   4.4577   4.4577   4.4657   4.4657   4.4789   4.4812
     4.4898   4.4898   4.4909   4.4909   4.5056   4.5290   4.5290   4.5352
     4.7450   4.7450   5.1929   5.1929   5.2477   5.3109   5.3109   5.3125
     5.3161   5.3161   5.3162   5.3312   5.3361   5.3361   5.3600   5.3600
     5.4123   5.4123   5.4193   5.4333   5.4427   5.4706   5.4706   5.5052
     5.5407   5.5407   5.6103   5.7198   5.7198   5.8192   5.8330   5.8330
     5.8522   5.8604   5.8604   5.8653   5.8691   5.8704   5.8704   5.8801
     5.8801   5.8914   5.8992   5.9157   5.9157   5.9234   5.9439   5.9439
     5.9505   5.9766   5.9766   6.0170   6.0170   6.2847   6.3505   6.3506
     6.8303   6.8303   6.9065   6.9083   6.9434   6.9434   7.0489   7.3431
     7.3431   7.4426   7.4517   7.4517   7.4739   7.4773   7.4773   7.5014
     7.5584   7.5584   7.6854   7.6854   7.8136   7.8593   7.8638   7.8641
     7.8641   7.8779   7.8779   7.9056   7.9285   7.9285   7.9405   8.0475
     8.0475   8.0845   8.1060   8.1130   8.1130   8.1307   8.1347   8.1347
     8.1351   8.1351   8.1431   8.1501   8.1502   8.1566   8.1829   8.1829
     8.1946   8.2031   8.2031   8.2055   8.2055   8.2211   8.2652   8.2652
     8.2927   8.3174   8.3194   8.3195   8.3227   8.3278   8.3335   8.3335
     8.3384   8.3384   8.3506   8.3522   8.3539   8.3540   8.3601   8.3601
     8.3644   8.3658   8.3658   8.3713   8.3818   8.3818   8.3901   8.3952
     8.3952   8.3980   8.4064   8.4065   8.4320   8.4320   8.4375   8.4533
     8.4533   8.4930   8.4930   8.4955   8.5192   8.5484   8.5516   8.5516
     8.5586   8.6722   8.6722   8.9042   8.9226   8.9226   9.0804   9.0804
     9.1528   9.1558   9.1558   9.1615   9.1937   9.1937   9.1990   9.2023
     9.2241   9.2241   9.2273   9.2345   9.2345   9.2447   9.2448   9.2654
     9.3174   9.3174   9.3921   9.9075  10.1497  10.1498  10.4585  10.5040
    10.5040  10.5705  10.5705  10.5777  10.6009  10.6090  10.6105  10.6105
    10.6687  10.6687  10.6893  10.7619  10.7619  10.8255  10.8329  10.8329
    10.8387  10.8387  10.8451  10.8451  10.8564  10.8797  10.8797  10.9054
    10.9114  10.9114  10.9136  10.9366  10.9366  11.4185  11.5248  11.5249
    11.7004  11.7363  11.7364  11.7518  11.7812  11.7812  11.7847  11.8231
    11.8608  11.8608  12.9284  13.0177  13.0178  13.7150  15.2979  15.2980
    17.2966  17.2966  17.3028  17.3540  17.3540  17.3724  17.8467  17.9396
    17.9396  17.9557  17.9557  18.0163  18.0803  18.0803  18.1320  18.1886
    18.1886  18.2025  18.8066  18.8067  18.8344  19.3431  19.4687  19.4687
    19.4868  19.5154  19.5154  19.5348  19.5348  19.5379  19.5482  19.5483
    19.5875  19.9538  20.1718  20.1718  20.2120  20.2185  20.2185  20.2236
    20.2266  20.2266  20.2348  20.2348  20.2497  20.2497  20.2546  20.2604
    20.2864  20.2868  20.2868  20.3284  20.3284  20.3537  20.3686  20.3686
    20.3709  20.6017  20.6360  20.6361  20.7014  20.7098  20.7171  20.7172
    20.7283  20.7283  20.7387  20.7497  20.7498  20.7602  20.7799  20.7799
    20.8099  20.8099  20.8118  20.8284  20.8289  20.8289  20.8369  20.8578
    20.8579  20.8631  20.8695  20.8695  20.8773  20.8773  20.8834  20.8834
    20.8969  20.9122  20.9122  20.9494  20.9531  21.0087  21.0149  21.0149
    21.0744  21.0744  21.0848  21.1827  21.2788  21.2789  21.3083  21.3280
    21.3280  21.3406  21.3424  21.3425  21.3514  21.3514  21.3528  21.3687
    21.3687  21.3909  21.3950  21.4009  21.4010  21.4061  21.4061  21.4195
    21.4199  21.4199  21.4265  21.4340  21.4341  21.4512  21.4512  21.4588
    21.4674  21.4674  21.4963  21.5055  21.5055  21.5193  21.5950  21.6131
    21.6131  21.6304  21.6531  21.6531  21.6593  21.6803  21.6859  21.6859
    21.7021  21.7021  21.7244  21.7511  21.7511  21.7729  21.8037  21.8259
    21.8260  21.9457  21.9457  21.9700  21.9881  21.9882  22.1114  22.1114
    22.1314  22.1772  22.1772  22.1898  22.2005  22.2030  22.2030  22.3305
    22.3464  22.3465  22.3938  22.4549  22.4550  22.4846  22.4872  22.4872
    22.6492  22.6858  22.6858  22.7997  22.9501  22.9501  22.9783  23.1004
    23.1004  23.1092  23.1215  23.1215  23.1268  23.1269  23.1426  23.1426
    23.1443  23.1480  23.1750  23.1825  23.2040  23.2040  23.2057  23.2616
    23.3012  23.3013  23.3535  23.3536  23.4169  23.4531  23.4532  23.7733
    23.7733  23.7813  23.7871  23.7967  23.8076  23.8076  23.8103  23.8290
    23.8290  23.8453  23.8453  23.8585  23.8585  23.8657  23.8940  23.8980
    23.9713  23.9739  23.9739  24.0996  24.0996  24.1803  24.1804  24.2217
    24.2270  24.2270  24.2461  24.2751  24.2751  24.2755  24.2833  24.2833
    24.2983  24.3292  24.3292  24.3475  24.3787  24.3788  24.3991  24.3991
    24.4012  24.4021  24.4021  24.4136  24.4639  24.4785  24.4785  24.4795
    24.4810  24.4866  24.4866  24.5065  24.5135  24.5136  24.5287  24.5287
    24.5371  24.5606  24.5606  24.5824  24.6482  24.6482  24.6736  24.7937
    24.7937  24.8885  24.8885  25.4800  25.5040  25.5040  25.5983  25.7427
    25.7930  25.7930  25.8041  25.8041  25.9943  25.9943  25.9985  26.0118
    26.0456  26.0456  26.0919  26.1203  26.1436  26.1436  26.2006  26.2791
    26.2791  26.4322  26.5604  26.5604  26.5707  26.6327  26.6399  26.6421
    26.6421  26.6757  26.6757  26.6870  26.6870  26.6967  26.7487  26.7494
    26.7494  26.7721  26.7845  26.7845  26.8276  26.8353  26.8353  26.9401
    26.9401  27.0339  27.0339  27.0744  27.0873  27.1001  27.1002  27.1092
    27.1219  27.1228  27.1228  27.1287  27.1288  27.1532  27.1532  27.1765
    27.1864  27.2122  27.2122  27.2441  27.2441  27.2542  27.2625  27.2625
    27.2748  27.2813  27.2922  27.2923  27.2993  27.3102  27.3102  27.3115
    27.3116  27.3116  27.3325  27.3437  27.3437  27.3477  27.3631  27.3631
    27.3650  27.3759  27.3829  27.3829  27.3973  27.3973  27.4100  27.4186
    27.4345  27.4346  27.4604  27.4795  27.4795  27.5052  27.5052  27.5116
    27.5116  27.5339  27.5495  27.5512  27.5513  27.5538  27.5781  27.5872
    27.5872  27.5970  27.5970  27.6083  27.6117  27.6138  27.6138  27.6495
    27.6495  27.7151  27.7151  27.7180  27.7500  27.8436  27.8436  27.8804
    27.9105  27.9257  27.9257  27.9767  28.0487  28.0487  28.0901  28.0901
    28.1220  28.1520  28.1520  28.2953  28.3006  28.3006  28.3245  28.3578
    28.3697  28.3697  28.5553  28.6202  28.6203  28.6831  29.7059  29.7970
    29.7970  29.8604  29.9355  29.9356  29.9955  30.0617

 ------ SPIN DOWN ----------


          k = 0.0000 0.0000 0.0000 ( 42379 PWs)   bands (ev):

    -8.3086  -7.5944  -7.2859  -7.2859  -7.2276  -7.2275  -7.1523  -6.7060
    -6.2953  -6.2953  -6.2754  -6.2754  -6.2525  -6.2328  -6.2248  -6.2248
    -6.1551  -6.1551  -5.9913  -5.5462  -5.2572  -5.2548  -5.2548  -5.2176
    -5.2097  -5.2097  -5.0402  -4.4792  -4.2684  -4.2684  -4.2393  -4.2393
    -4.1873  -3.8979  -3.4083  -3.4083  -3.3794  -3.3794  -3.3741  -3.3570
    -3.3570  -3.3562  -3.3508  -3.3489  -3.3489  -3.3263  -3.3219  -3.3219
    -3.2876  -3.2876  -3.2704  -3.2697  -3.2676  -3.2676  -3.1716  -3.1716
    -3.0212  -2.8476  -2.6393  -2.6393  -2.5868  -2.5758  -2.5757  -2.5635
    -2.5632  -2.5627  -2.5627  -2.5370  -2.5370  -2.5197  -2.5197  -2.5112
    -2.4969  -2.4969  -2.4542  -2.4421  -2.4421  -2.4019  -2.2354  -2.2354
    -1.5945  -1.0726  -0.9179  -0.9179  -0.8588  -0.8588  -0.8549  -0.8478
    -0.8477  -0.8392  -0.7654  -0.7654  -0.3946   0.3474   0.3910   0.3910
     0.4213   0.4213   0.4596   0.6752   0.8061   0.8061   0.8906   0.8950
     0.8950   0.9000   0.9000   0.9081   0.9153   0.9153   0.9195   0.9514
     0.9514   0.9748   1.0036   1.0266   1.0267   1.0415   1.0415   1.0519
     1.0836   1.0836   1.0842   1.1117   1.1117   1.1174   1.1322   1.1400
     1.1417   1.1417   1.1551   1.1551   1.1585   1.1780   1.1780   1.2038
     1.2038   1.2153   1.2158   1.2158   1.2345   1.2345   1.2649   1.4475
     1.6102   1.6102   1.9607   2.1917   2.1917   2.2070   2.2461   2.2461
     2.2495   2.2627   2.2832   2.2832   2.4747   2.4747   3.4220   3.6819
     3.6819   3.7327   3.7901   3.7998   3.8002   3.8002   3.8010   3.8010
     3.8135   3.8200   3.8349   3.8358   3.8358   3.8630   3.8630   3.9755
     3.9755   3.9780   4.0245   4.3330   4.3330   4.3907   4.4456   4.4534
     4.4534   4.4563   4.4626   4.4626   4.4718   4.4718   4.4839   4.4946
     4.4946   4.4974   4.4993   4.4993   4.5167   4.5390   4.5390   4.5433
     4.7937   4.7937   5.2060   5.2060   5.2642   5.3127   5.3127   5.3172
     5.3180   5.3193   5.3193   5.3330   5.3400   5.3400   5.3637   5.3637
     5.4186   5.4186   5.4259   5.4431   5.4497   5.4824   5.4824   5.5171
     5.5495   5.5495   5.6429   5.7288   5.7288   5.8324   5.8361   5.8361
     5.8564   5.8641   5.8641   5.8700   5.8764   5.8764   5.8788   5.8863
     5.8863   5.8982   5.9119   5.9266   5.9275   5.9276   5.9534   5.9534
     5.9687   5.9887   5.9887   6.0315   6.0315   6.3198   6.3869   6.3869
     6.8402   6.8402   6.9138   6.9261   6.9582   6.9582   7.1182   7.3595
     7.3595   7.4548   7.4549   7.4549   7.4777   7.4836   7.4836   7.5196
     7.5715   7.5715   7.6955   7.6955   7.8371   7.8638   7.8692   7.8693
     7.8844   7.8875   7.8875   7.9128   7.9376   7.9376   7.9555   8.0583
     8.0584   8.0888   8.1091   8.1163   8.1163   8.1337   8.1372   8.1372
     8.1389   8.1389   8.1454   8.1526   8.1526   8.1623   8.1887   8.1887
     8.1990   8.2080   8.2081   8.2172   8.2172   8.2283   8.2711   8.2711
     8.3006   8.3222   8.3222   8.3244   8.3299   8.3328   8.3361   8.3361
     8.3414   8.3414   8.3536   8.3572   8.3573   8.3573   8.3673   8.3673
     8.3684   8.3689   8.3689   8.3759   8.3876   8.3876   8.4014   8.4030
     8.4030   8.4109   8.4198   8.4198   8.4387   8.4387   8.4452   8.4585
     8.4585   8.5055   8.5055   8.5245   8.5325   8.5524   8.5716   8.5716
     8.5722   8.7049   8.7049   8.9240   8.9380   8.9380   9.0872   9.0872
     9.1555   9.1591   9.1591   9.1635   9.1987   9.1987   9.2032   9.2153
     9.2312   9.2312   9.2347   9.2479   9.2480   9.2621   9.2621   9.2704
     9.3483   9.3483   9.4221   9.9918  10.2034  10.2034  10.5182  10.5183
    10.5737  10.5737  10.5820  10.5853  10.6034  10.6219  10.6219  10.6398
    10.6736  10.6736  10.6985  10.7665  10.7666  10.8348  10.8387  10.8387
    10.8447  10.8447  10.8570  10.8570  10.8609  10.8905  10.8905  10.9196
    10.9255  10.9255  10.9304  10.9454  10.9454  11.4936  11.5486  11.5486
    11.7446  11.7447  11.7540  11.7881  11.7882  11.7882  11.8341  11.8781
    11.8781  12.0031  13.0464  13.0465  13.0517  14.4375  16.2488  16.2489
    17.3006  17.3006  17.3180  17.3647  17.3647  17.3821  17.8582  17.9468
    17.9468  17.9614  17.9614  18.0253  18.0856  18.0857  18.1599  18.2046
    18.2046  18.2133  18.8240  18.8241  18.8468  19.3624  19.4719  19.4719
    19.4893  19.5239  19.5239  19.5399  19.5399  19.5437  19.5528  19.5529
    19.5949  19.9706  20.1757  20.1757  20.2147  20.2218  20.2218  20.2265
    20.2303  20.2303  20.2412  20.2412  20.2562  20.2563  20.2595  20.2652
    20.2919  20.2948  20.2949  20.3342  20.3342  20.3631  20.3767  20.3767
    20.3790  20.6145  20.6462  20.6462  20.7033  20.7112  20.7200  20.7201
    20.7315  20.7315  20.7410  20.7522  20.7522  20.7636  20.7842  20.7842
    20.8141  20.8141  20.8153  20.8327  20.8327  20.8403  20.8405  20.8669
    20.8676  20.8676  20.8784  20.8784  20.8884  20.8885  20.8916  20.8917
    20.9021  20.9186  20.9186  20.9561  20.9616  21.0198  21.0211  21.0211
    21.0819  21.0820  21.0921  21.1918  21.2861  21.2861  21.3114  21.3322
    21.3322  21.3443  21.3457  21.3458  21.3564  21.3568  21.3568  21.3735
    21.3736  21.3980  21.4029  21.4065  21.4065  21.4104  21.4104  21.4245
    21.4285  21.4285  21.4336  21.4397  21.4398  21.4669  21.4670  21.4749
    21.4784  21.4785  21.5082  21.5253  21.5253  21.5423  21.6008  21.6236
    21.6236  21.6339  21.6577  21.6578  21.6622  21.6932  21.6932  21.6944
    21.7099  21.7100  21.7366  21.7568  21.7568  21.7780  21.8249  21.8434
    21.8434  21.9678  21.9678  21.9770  22.0047  22.0047  22.1151  22.1151
    22.1334  22.1917  22.1917  22.1973  22.2087  22.2106  22.2106  22.3424
    22.3567  22.3567  22.4151  22.4638  22.4639  22.4914  22.4914  22.4919
    22.6716  22.7202  22.7202  22.8643  22.9675  22.9676  22.9963  23.1066
    23.1066  23.1111  23.1245  23.1245  23.1311  23.1311  23.1458  23.1458
    23.1499  23.1520  23.1797  23.1971  23.2165  23.2165  23.2316  23.2977
    23.3377  23.3378  23.3736  23.3736  23.4417  23.4814  23.4815  23.7825
    23.7825  23.7849  23.7905  23.8123  23.8123  23.8133  23.8345  23.8345
    23.8396  23.8547  23.8547  23.8653  23.8653  23.8722  23.9040  23.9114
    23.9800  23.9923  23.9924  24.1120  24.1120  24.1946  24.1946  24.2292
    24.2323  24.2324  24.2489  24.2791  24.2791  24.2818  24.2882  24.2883
    24.3050  24.3361  24.3362  24.3524  24.3886  24.3886  24.4065  24.4065
    24.4076  24.4175  24.4175  24.4238  24.4671  24.4820  24.4922  24.4923
    24.5024  24.5061  24.5061  24.5152  24.5205  24.5205  24.5383  24.5383
    24.5414  24.5660  24.5661  24.6061  24.6848  24.6848  24.6958  24.8947
    24.8947  24.9459  24.9459  25.5370  25.5481  25.5481  25.6264  25.7553
    25.8048  25.8048  25.8158  25.8158  26.0008  26.0047  26.0047  26.0168
    26.0554  26.0555  26.1196  26.1295  26.1591  26.1591  26.2249  26.3067
    26.3067  26.4480  26.5702  26.5702  26.5907  26.6387  26.6459  26.6479
    26.6479  26.6816  26.6816  26.6947  26.6947  26.7103  26.7577  26.7577
    26.7623  26.7771  26.7905  26.7905  26.8356  26.8478  26.8478  26.9618
    26.9618  27.0456  27.0456  27.0838  27.0899  27.1043  27.1043  27.1137
    27.1261  27.1266  27.1266  27.1321  27.1321  27.1592  27.1592  27.1883
    27.1904  27.2171  27.2171  27.2499  27.2500  27.2583  27.2672  27.2672
    27.2834  27.2850  27.3005  27.3005  27.3061  27.3152  27.3153  27.3199
    27.3199  27.3232  27.3347  27.3542  27.3545  27.3546  27.3702  27.3706
    27.3706  27.3859  27.3881  27.3882  27.4044  27.4044  27.4263  27.4362
    27.4447  27.4447  27.4665  27.4891  27.4891  27.5166  27.5166  27.5223
    27.5223  27.5425  27.5538  27.5558  27.5558  27.5611  27.5835  27.5956
    27.5956  27.6054  27.6054  27.6116  27.6202  27.6202  27.6235  27.6789
    27.6790  27.7398  27.7399  27.7732  27.7848  27.8841  27.8841  27.8954
    27.9201  27.9431  27.9431  28.0048  28.0652  28.0653  28.1207  28.1207
    28.1345  28.1802  28.1802  28.3125  28.3375  28.3436  28.3437  28.4117
    28.4245  28.4245  28.6168  28.7056  28.7057  28.7783  29.7424  29.8124
    29.8124  29.9265  29.9579  29.9579  30.0114  30.0689

     highest occupied, lowest unoccupied level (ev):    15.29803852   14.43754132

!    total energy              =   -3971.21844021 Ry
     total all-electron energy =    -16414.034043 Ry
     estimated scf accuracy    <          1.9E-09 Ry

     The total energy is the sum of the following terms:
     one-electron contribution =     885.99516690 Ry
     hartree contribution      =     218.03975909 Ry
     xc contribution           =   -1009.03382819 Ry
     ewald contribution        =   -2739.44484231 Ry
     one-center paw contrib.   =   -1326.77469570 Ry

     total magnetization       =     2.00 Bohr mag/cell
     absolute magnetization    =     2.20 Bohr mag/cell

     convergence has been achieved in  17 iterations

     Forces acting on atoms (cartesian axes, Ry/au):

     atom    1 type  1   force =     0.00017687    0.00024442   -0.00023615
     atom    2 type  1   force =    -0.00009826    0.00001282    0.00015057
     atom    3 type  1   force =     0.00031457    0.00054398   -0.00022526
     atom    4 type  1   force =    -0.00015200   -0.00000040    0.00009673
     atom    5 type  1   force =    -0.00028444    0.00007773    0.00026553
     atom    6 type  1   force =     0.00023263    0.00022521    0.00092912
     atom    7 type  1   force =     0.00009965    0.00049164   -0.00044020
     atom    8 type  1   force =    -0.00094910   -0.00006154   -0.00025248
     atom    9 type  1   force =     0.00072461   -0.00007069   -0.00070746
     atom   10 type  1   force =     0.00101225    0.00041473   -0.00111271
     atom   11 type  1   force =     0.00006973   -0.00017340    0.00020488
     atom   12 type  1   force =     0.00003381   -0.00009812    0.00035697
     atom   13 type  1   force =    -0.00015615   -0.00022830   -0.00002103
     atom   14 type  1   force =     0.00876420    0.00120648   -0.00905697
     atom   15 type  1   force =     0.00869745    0.00128308   -0.00440928
     atom   16 type  1   force =    -0.00032262   -0.00018468    0.00000048
     atom   17 type  1   force =     0.00422950    0.00019888   -0.00887746
     atom   18 type  1   force =     0.00724793   -0.00834664   -0.00522261
     atom   19 type  1   force =     0.00008650    0.00012697   -0.00011727
     atom   20 type  1   force =     0.00005352    0.00028912   -0.00027703
     atom   21 type  1   force =    -0.00006900   -0.00003247    0.00004242
     atom   22 type  1   force =     0.00020247    0.00032517   -0.00012801
     atom   23 type  1   force =    -0.00016285    0.00074026   -0.00001678
     atom   24 type  1   force =     0.00037320   -0.00095717   -0.00018991
     atom   25 type  1   force =    -0.00003547   -0.00002443    0.00007599
     atom   26 type  1   force =     0.00042069   -0.00094559   -0.00014240
     atom   27 type  1   force =     0.00096590   -0.00028165   -0.00089761
     atom   28 type  1   force =    -0.00000726   -0.00009371   -0.00001961
     atom   29 type  1   force =     0.00011012   -0.00009084    0.00102357
     atom   30 type  1   force =     0.00051661    0.00095535    0.00078216
     atom   31 type  1   force =    -0.00033297   -0.00015507    0.00004459
     atom   32 type  1   force =     0.00095150    0.00916825    0.00338010
     atom   33 type  1   force =     0.00282777    0.00373476    0.01127408
     atom   34 type  1   force =     0.00006826    0.00058260   -0.00032164
     atom   35 type  1   force =    -0.00095709   -0.00003087   -0.00020985
     atom   36 type  1   force =     0.00041469    0.00079072    0.00046451
     atom   37 type  1   force =     0.00022552    0.00026730   -0.00020996
     atom   38 type  1   force =     0.00003023    0.00021493   -0.00073576
     atom   39 type  1   force =     0.00004775   -0.00006038    0.00103245
     atom   40 type  1   force =    -0.00020186   -0.00010764    0.00014299
     atom   41 type  1   force =     0.00525563    0.01077958    0.00402191
     atom   42 type  1   force =     0.00675929    0.00655159    0.00279632
     atom   43 type  1   force =    -0.00010512   -0.00013101   -0.00008673
     atom   44 type  1   force =    -0.00014817   -0.00029513   -0.00024197
     atom   45 type  1   force =     0.00058093   -0.00072257   -0.00036327
     atom   46 type  1   force =     0.00007243    0.00016451   -0.00006132
     atom   47 type  1   force =     0.00002785    0.00035234   -0.00018756
     atom   48 type  1   force =    -0.00005527   -0.00007328   -0.00001080
     atom   49 type  1   force =     0.00065119    0.00138598    0.00022599
     atom   50 type  1   force =     0.00009046   -0.00023992    0.00011647
     atom   51 type  1   force =     0.00012488   -0.00036282    0.00000274
     atom   52 type  1   force =     0.00014081    0.00033595   -0.00011138
     atom   53 type  1   force =    -0.00003577   -0.00016590   -0.00009120
     atom   54 type  1   force =     0.00034351    0.00045422   -0.00034447
     atom   55 type  1   force =     0.00004097   -0.00008192    0.00002864
     atom   56 type  1   force =    -0.00001633   -0.00007813    0.00036128
     atom   57 type  1   force =     0.00017721    0.00060905   -0.00021276
     atom   58 type  1   force =    -0.00096976   -0.00035290   -0.00005629
     atom   59 type  1   force =    -0.00541705    0.00762290   -0.00298863
     atom   60 type  1   force =     0.00018378    0.00024597    0.00093099
     atom   61 type  1   force =    -0.00097027    0.00059460   -0.00070473
     atom   62 type  1   force =    -0.01175110    0.00019738   -0.00330482
     atom   63 type  1   force =    -0.00062575    0.00053828   -0.00057593
     atom   64 type  1   force =     0.00014745    0.00024838   -0.00028801
     atom   65 type  1   force =    -0.00011932   -0.00008753    0.00022552
     atom   66 type  1   force =     0.00011225   -0.00007824    0.00013068
     atom   67 type  1   force =     0.00066489    0.00036891   -0.00010105
     atom   68 type  1   force =    -0.00629769    0.00797645   -0.00753130
     atom   69 type  1   force =     0.00030027   -0.00018640    0.00020659
     atom   70 type  1   force =    -0.00098728   -0.00031160   -0.00000268
     atom   71 type  1   force =    -0.00406726    0.00392460   -0.00803038
     atom   72 type  1   force =     0.00053983   -0.00073265   -0.00040440
     atom   73 type  1   force =     0.00002285    0.00015245   -0.00011083
     atom   74 type  1   force =    -0.00052761    0.00110019   -0.00095283
     atom   75 type  1   force =     0.00003305    0.00030988   -0.00021913
     atom   76 type  1   force =     0.00009996    0.00036971   -0.00011541
     atom   77 type  1   force =    -0.00005410   -0.00027499   -0.00002808
     atom   78 type  1   force =     0.00012667   -0.00012656    0.00007120
     atom   79 type  1   force =     0.00002618   -0.00005355    0.00007068
     atom   80 type  1   force =     0.00008637   -0.00037213   -0.00003578
     atom   81 type  1   force =     0.00023739    0.00042838   -0.00045059
     atom   82 type  1   force =     0.00013622   -0.00031172   -0.00006065
     atom   83 type  1   force =    -0.00031435   -0.00001099   -0.00150484
     atom   84 type  1   force =     0.00008400    0.00016727    0.00001945
     atom   85 type  1   force =     0.00145534    0.00041838    0.00026494
     atom   86 type  1   force =    -0.00066776   -0.00030986    0.00074292
     atom   87 type  1   force =     0.00063204    0.00132706    0.00027231
     atom   88 type  1   force =    -0.00005589    0.00013344   -0.00012046
     atom   89 type  1   force =    -0.00055929    0.00103803   -0.00091897
     atom   90 type  1   force =     0.00026411    0.00066851   -0.00042625
     atom   91 type  1   force =     0.00170597    0.00198980   -0.00218873
     atom   92 type  1   force =     0.00014664    0.00026749    0.00018755
     atom   93 type  1   force =    -0.00003751   -0.00013160   -0.00153228
     atom   94 type  1   force =    -0.00024108    0.00017342   -0.00020026
     atom   95 type  1   force =     0.00034099   -0.00076636    0.00063789
     atom   96 type  1   force =     0.00151852    0.00024592    0.00002359
     atom   97 type  1   force =    -0.00042930   -0.00095325   -0.00013246
     atom   98 type  1   force =     0.00099639    0.00034406   -0.00107982
     atom   99 type  1   force =     0.00019693    0.00049391   -0.00031676
     atom  100 type  1   force =     0.00001931    0.00274848   -0.00201435
     atom  101 type  1   force =    -0.00031468   -0.00010585   -0.00001330
     atom  102 type  1   force =     0.00130946    0.00306140   -0.00072423
     atom  103 type  1   force =     0.00026451   -0.00005883   -0.00025035
     atom  104 type  1   force =    -0.00057769    0.00132729    0.00047038
     atom  105 type  1   force =     0.00002890   -0.00002236    0.00033033
     atom  106 type  1   force =    -0.00078638    0.00127688    0.00026171
     atom  107 type  1   force =     0.00012562    0.00005003   -0.00013768
     atom  108 type  1   force =     0.00007617   -0.00045698    0.00003479
     atom  109 type  1   force =    -0.00019389    0.00045525   -0.00032909
     atom  110 type  1   force =    -0.00010749   -0.00026494    0.00020982
     atom  111 type  1   force =     0.00020681    0.00055238    0.00007167
     atom  112 type  1   force =    -0.00060636    0.00083551    0.00040367
     atom  113 type  1   force =    -0.00128963   -0.00266142   -0.00085220
     atom  114 type  1   force =    -0.00014441   -0.00027392    0.00017296
     atom  115 type  1   force =     0.00141820   -0.00200442    0.00185570
     atom  116 type  1   force =    -0.00020225   -0.00050101    0.00032380
     atom  117 type  1   force =    -0.00117937    0.00047703    0.00106363
     atom  118 type  1   force =    -0.00028506   -0.00045278   -0.00070410
     atom  119 type  1   force =     0.00038866    0.00018542   -0.00038801
     atom  120 type  1   force =     0.00078250   -0.00019384    0.00036348
     atom  121 type  1   force =     0.00107165    0.00008626    0.00023582
     atom  122 type  1   force =     0.00034442    0.00017463   -0.00043234
     atom  123 type  1   force =    -0.00021877   -0.00022692   -0.00105458
     atom  124 type  1   force =    -0.00211719   -0.00041495    0.00221790
     atom  125 type  1   force =    -0.00027805   -0.00070507    0.00044913
     atom  126 type  1   force =     0.00128380   -0.00062751    0.00080781
     atom  127 type  1   force =    -0.00039657   -0.00024397    0.00007686
     atom  128 type  1   force =    -0.00060015   -0.00108475   -0.00107601
     atom  129 type  1   force =    -0.00060346    0.00042871    0.00049939
     atom  130 type  1   force =     0.00027160    0.00052342    0.00006279
     atom  131 type  1   force =    -0.00002845   -0.00015470    0.00044500
     atom  132 type  1   force =    -0.00017667    0.00041476   -0.00038545
     atom  133 type  1   force =    -0.00009078   -0.00029647    0.00016276
     atom  134 type  1   force =     0.00038568   -0.00007354    0.00017136
     atom  135 type  1   force =    -0.00047341   -0.00115381   -0.00131208
     atom  136 type  1   force =    -0.00334360   -0.00186739    0.00019534
     atom  137 type  1   force =     0.00017377    0.00037279   -0.00021368
     atom  138 type  1   force =     0.03216069   -0.01902875    0.02256598
     atom  139 type  1   force =    -0.00131026    0.00058543   -0.00076348
     atom  140 type  1   force =    -0.00044983   -0.00018926    0.00079478
     atom  141 type  1   force =     0.00017738    0.00022320   -0.00037922
     atom  142 type  1   force =    -0.00011543   -0.00014274   -0.00018019
     atom  143 type  1   force =    -0.00071551   -0.00084298    0.00043486
     atom  144 type  1   force =     0.00456871   -0.00334690    0.00367937
     atom  145 type  1   force =    -0.00027506    0.00021693   -0.00022459
     atom  146 type  1   force =     0.00039177   -0.00007694    0.00017054
     atom  147 type  1   force =    -0.00115107    0.00070618    0.00122162
     atom  148 type  1   force =    -0.00343762   -0.00159510    0.00055226
     atom  149 type  1   force =    -0.00006547   -0.00015101    0.00050823
     atom  150 type  1   force =    -0.00014757   -0.00046993   -0.00015916
     atom  151 type  1   force =    -0.00012851   -0.00040122   -0.00000886
     atom  152 type  1   force =     0.00007305   -0.00051450   -0.00000014
     atom  153 type  1   force =    -0.00030390   -0.00003735    0.00042968
     atom  154 type  1   force =    -0.00021795   -0.00014842    0.00033124
     atom  155 type  1   force =    -0.00019077   -0.00088070   -0.00016247
     atom  156 type  1   force =     0.00009035    0.00047367   -0.00004263
     atom  157 type  1   force =    -0.00019580    0.00010236    0.00014538
     atom  158 type  1   force =    -0.00002404   -0.00030187    0.00022277
     atom  159 type  1   force =     0.00030388   -0.00034923    0.00034211
     atom  160 type  1   force =    -0.00012958   -0.00006440    0.00001832
     atom  161 type  1   force =    -0.00013808   -0.00020058   -0.00035243
     atom  162 type  1   force =     0.00012469    0.00036097   -0.00026280
     atom  163 type  1   force =    -0.00074019   -0.00025974    0.00050442
     atom  164 type  1   force =     0.00153296   -0.00066691    0.00069432
     atom  165 type  1   force =    -0.01651581   -0.03083954   -0.02611068
     atom  166 type  1   force =     0.00032085    0.00025789   -0.00023576
     atom  167 type  1   force =     0.00015473   -0.00101848    0.00369374
     atom  168 type  1   force =     0.00056619    0.00104072    0.00111297
     atom  169 type  1   force =     0.00020538   -0.00006492    0.00014059
     atom  170 type  1   force =    -0.00024416   -0.00072861    0.00090610
     atom  171 type  1   force =    -0.00013638   -0.00020495   -0.00035763
     atom  172 type  1   force =    -0.00045993   -0.00024678    0.00011379
     atom  173 type  1   force =    -0.00265465   -0.00509955   -0.00354396
     atom  174 type  1   force =    -0.00138615    0.00064916    0.00098668
     atom  175 type  1   force =     0.00026115   -0.00037091    0.00024957
     atom  176 type  1   force =     0.00015923    0.00032236    0.00020967
     atom  177 type  1   force =    -0.00025879   -0.00082379    0.00373111
     atom  178 type  1   force =     0.00009958   -0.00034593    0.00021916
     atom  179 type  1   force =     0.00012352   -0.00050224    0.00005040
     atom  180 type  1   force =     0.00035994   -0.00074693    0.00038820
     atom  181 type  1   force =    -0.00014592   -0.00033147    0.00010091
     atom  182 type  1   force =    -0.00041739   -0.00006493    0.00031625
     atom  183 type  1   force =    -0.00006774    0.00043530   -0.00020074
     atom  184 type  1   force =    -0.00024136   -0.00048165   -0.00020312
     atom  185 type  1   force =    -0.00029299   -0.00016653    0.00025614
     atom  186 type  1   force =    -0.00017097    0.00010840    0.00017020
     atom  187 type  1   force =    -0.00000624   -0.00003449    0.00014163
     atom  188 type  1   force =     0.00028795   -0.00003288   -0.00027998
     atom  189 type  1   force =     0.00080615   -0.00373150   -0.00022829
     atom  190 type  1   force =     0.00007498   -0.00028181    0.00030385
     atom  191 type  1   force =     0.00112431   -0.00365431    0.00008985
     atom  192 type  1   force =     0.00114133   -0.00051710   -0.00101583
     atom  193 type  1   force =     0.00021622   -0.00008578    0.00010795
     atom  194 type  1   force =    -0.00022653   -0.00035489    0.00000226
     atom  195 type  1   force =    -0.00007850   -0.00015726   -0.00018682
     atom  196 type  1   force =     0.00002437   -0.00013703    0.00000899
     atom  197 type  1   force =    -0.00485145    0.00088764    0.00463605
     atom  198 type  1   force =    -0.00077834   -0.00101838   -0.00128479
     atom  199 type  1   force =     0.00022510   -0.00028038    0.00037823
     atom  200 type  1   force =     0.00146583   -0.00047380    0.00095922
     atom  201 type  1   force =    -0.03126489    0.00948595    0.02896330
     atom  202 type  1   force =     0.00027369    0.00038931   -0.00005509
     atom  203 type  1   force =    -0.00029491   -0.00040648   -0.00014176
     atom  204 type  1   force =    -0.00003042    0.00031564   -0.00035925
     atom  205 type  1   force =    -0.00041374   -0.00003336    0.00042192
     atom  206 type  1   force =    -0.00009835   -0.00111976    0.00037010
     atom  207 type  1   force =    -0.00029190    0.00023001    0.00023520
     atom  208 type  1   force =    -0.00043923   -0.00028552    0.00005139
     atom  209 type  1   force =    -0.00029112    0.00023012    0.00023602
     atom  210 type  1   force =     0.00011551    0.00040265   -0.00021326
     atom  211 type  1   force =    -0.00056660   -0.00071111   -0.00012466
     atom  212 type  1   force =     0.00000491   -0.00017781    0.00049540
     atom  213 type  1   force =     0.00027251   -0.00050730    0.00071446
     atom  214 type  1   force =    -0.00018136   -0.00023323    0.00023796
     atom  215 type  2   force =     0.00565974    0.01467283   -0.00921981

     Total force =     0.089290     Total SCF correction =     0.000119


     Computing stress (Cartesian axis) and pressure

          total   stress  (Ry/bohr**3)                   (kbar)     P=       27.47
   0.00018464   0.00000224  -0.00000139           27.16        0.33       -0.20
   0.00000224   0.00018951  -0.00000363            0.33       27.88       -0.53
  -0.00000139  -0.00000363   0.00018606           -0.20       -0.53       27.37


     Writing all to output data dir ./tmp/diamond_pd.save/ :
     XML data file, charge density
     init_run     :      5.49s CPU      5.87s WALL (       1 calls)
     electrons    :    353.96s CPU    361.59s WALL (       1 calls)
     forces       :      3.45s CPU      3.55s WALL (       1 calls)
     stress       :     11.75s CPU     11.85s WALL (       1 calls)

     Called by init_run:
     wfcinit      :      4.42s CPU      4.58s WALL (       1 calls)
     potinit      :      0.79s CPU      0.96s WALL (       1 calls)
     hinit0       :      0.13s CPU      0.14s WALL (       1 calls)

     Called by electrons:
     c_bands      :    316.65s CPU    323.08s WALL (      17 calls)
     sum_band     :     22.88s CPU     23.55s WALL (      17 calls)
     v_of_rho     :      0.57s CPU      0.59s WALL (      18 calls)
     newd         :      1.59s CPU      1.89s WALL (      18 calls)
     PAW_pot      :     12.72s CPU     12.94s WALL (      18 calls)
     mix_rho      :      0.32s CPU      0.33s WALL (      17 calls)

     Called by c_bands:
     init_us_2    :      3.44s CPU      3.50s WALL (      74 calls)
     cegterg      :    312.29s CPU    318.46s WALL (      34 calls)

     Called by *egterg:
     cdiaghg      :     67.99s CPU     70.65s WALL (     195 calls)
     h_psi        :     93.37s CPU     95.06s WALL (     197 calls)
     s_psi        :     29.73s CPU     29.90s WALL (     197 calls)
     g_psi        :      0.55s CPU      0.56s WALL (     161 calls)

     Called by h_psi:
     h_psi:calbec :     28.78s CPU     28.95s WALL (     197 calls)
     vloc_psi     :     33.66s CPU     34.29s WALL (     197 calls)
     add_vuspsi   :     29.86s CPU     30.26s WALL (     197 calls)

     General routines
     calbec       :     51.37s CPU     51.67s WALL (     265 calls)
     fft          :      0.21s CPU      0.21s WALL (     420 calls)
     ffts         :      0.02s CPU      0.02s WALL (      34 calls)
     fftw         :     34.71s CPU     35.34s WALL (  173550 calls)
 
     Parallel routines
 
     PWSCF        :   6m14.77s CPU   6m23.30s WALL

 
   This run was terminated on:   0:41:48  23Aug2026            

=------------------------------------------------------------------------------=
   JOB DONE.
=------------------------------------------------------------------------------=
