 vasp.6.5.1 10Mar25 (build Feb 13 2026 23:13:13) complex                        
  
 executed on             LinuxIFC date 2026.09.04  18:46:07
 running   28 mpi-ranks, with    1 threads/rank, on    1 nodes
 distrk:  each k-point on   28 cores,    1 groups
 distr:  one band on NCORE=   7 cores,    4 groups


--------------------------------------------------------------------------------------------------------


 INCAR:
   ALGO = Normal
   PREC = Normal
   LREAL = Auto
   EDIFF = 1e-06
   ENCUT = 500.0
   NELM = 100
   ISIF = 2
   IBRION = 2
   EDIFFG = -0.01
   NSW = 200
   ISMEAR = 0
   SIGMA = 0.005
   ISPIN = 2
   LWAVE = False
   LCHARG = False
   LORBIT = 10
   NPAR = 4
   NCORE = 7

 POTCAR:    PAW_PBE C 08Apr2002                   
 -----------------------------------------------------------------------------
|                                                                             |
|           W    W    AA    RRRRR   N    N  II  N    N   GGGG   !!!           |
|           W    W   A  A   R    R  NN   N  II  NN   N  G    G  !!!           |
|           W    W  A    A  R    R  N N  N  II  N N  N  G       !!!           |
|           W WW W  AAAAAA  RRRRR   N  N N  II  N  N N  G  GGG   !            |
|           WW  WW  A    A  R   R   N   NN  II  N   NN  G    G                |
|           W    W  A    A  R    R  N    N  II  N    N   GGGG   !!!           |
|                                                                             |
|     You requested a magnetic or noncollinear calculation, but did not       |
|     specify the initial magnetic moment with the MAGMOM tag. Note that      |
|     a default of 1 will be used for all atoms. This ferromagnetic setup     |
|     may break the symmetry of the crystal, in particular it may rule        |
|     out finding an antiferromagnetic solution. Thence, we recommend         |
|     setting the initial magnetic moment manually or verifying carefully     |
|     that this magnetic setup is desired.                                    |
|                                                                             |
 -----------------------------------------------------------------------------

 POTCAR:    PAW_PBE C 08Apr2002                   
   SHA256 =  253f7b50bb8d59471dbedb8285d89021f4a42ed1a2c5d38a03a736e69125dd95 C/POTCAR              
   COPYR  = (c) Copyright 08Apr2002 Georg Kresse                                                    
   COPYR  = This file is part of the software VASP. Any use, copying, and all other rights are regul
   COPYR  = If you do not have a valid VASP license, you may not use, copy or distribute this file. 
   VRHFIN =C: s2p2                                                                                  
   LEXCH  = PE                                                                                      
   EATOM  =   147.1560 eV,   10.8157 Ry                                                             
                                                                                                    
   TITEL  = PAW_PBE C 08Apr2002                                                                     
   LULTRA =        F    use ultrasoft PP ?                                                          
   IUNSCR =        1    unscreen: 0-lin 1-nonlin 2-no                                               
   RPACOR =    1.200    partial core radius                                                         
   POMASS =   12.011; ZVAL   =    4.000    mass and valenz                                          
   RCORE  =    1.500    outmost cutoff radius                                                       
   RWIGS  =    1.630; RWIGS  =    0.863    wigner-seitz radius (au A)                               
   ENMAX  =  400.000; ENMIN  =  300.000 eV                                                          
   ICORE  =        2    local potential                                                             
   LCOR   =        T    correct aug charges                                                         
   LPAW   =        T    paw PP                                                                      
   EAUG   =  644.873                                                                                
   DEXC   =    0.000                                                                                
   RMAX   =    1.529    core radius for proj-oper                                                   
   RAUG   =    1.300    factor for augmentation sphere                                              
   RDEP   =    1.501    radius for radial grids                                                     
   RDEPT  =    1.300    core radius for aug-charge                                                  
                                                                                                    
   Atomic configuration                                                                             
    4 entries                                                                                       
     n  l   j            E        occ.                                                              
     1  0  0.50      -273.3789   2.0000                                                             
     2  0  0.50       -13.7508   2.0000                                                             
     2  1  0.50        -5.2854   2.0000                                                             
     3  2  1.50        -5.4423   0.0000                                                             
   Description                                                                                      
     l       E           TYP  RCUT    TYP  RCUT                                                     
     0    -13.7508458     23  1.200                                                                 
     0     -8.2022199     23  1.200                                                                 
     1     -5.2854383     23  1.500                                                                 
     1     34.0145650     23  1.500                                                                 
     2     -5.4423304      7  1.500                                                                 
  local pseudopotential read in
  partial core-charges read in
  partial kinetic energy density read in
  atomic valenz-charges read in
  non local Contribution for L=           0  read in
    real space projection operators read in
  non local Contribution for L=           0  read in
    real space projection operators read in
  non local Contribution for L=           1  read in
    real space projection operators read in
  non local Contribution for L=           1  read in
    real space projection operators read in
    PAW grid and wavefunctions read in
 
   number of l-projection  operators is LMAX  =           4
   number of lm-projection operators is LMMAX =           8
 
 Optimization of the real space projectors (new method)

 maximal supplied QI-value         = 25.13
 optimisation between [QCUT,QGAM] = [ 11.31, 22.87] = [ 35.82,146.48] Ry 
 Optimized for a Real-space Cutoff    1.00 Angstroem

   l    n(q)    QCUT    max X(q) W(low)/X(q) W(high)/X(q)  e(spline) 
   0      7    11.310   115.676    0.43E-03    0.13E-02    0.19E-06
   0      7    11.310    87.132    0.43E-03    0.13E-02    0.18E-06
   1      6    11.310     4.429    0.42E-03    0.74E-03    0.11E-06
   1      6    11.310     2.733    0.34E-03    0.55E-03    0.92E-07
  PAW_PBE C 08Apr2002                   :
 energy of atom  1       EATOM= -147.1560
 kinetic energy error for atom=    0.0076 (will be added to EATOM!!)
 
 
 POSCAR: C8
  positions in direct lattice
  No initial velocities read in


 exchange-correlation table for PE
   RHO(1)=    0.500       N(1)  =     2000
   RHO(2)=  100.500       N(2)  =     4000
 


--------------------------------------------------------------------------------------------------------


 ion  position               nearest neighbor table
   1  0.083  0.083  0.083- 109 1.55 136 1.55 163 1.55 190 1.55
   2  0.083  0.083  0.417- 110 1.55 164 1.55 191 1.55 137 1.55
   3  0.083  0.083  0.750- 111 1.55 165 1.55 192 1.55 138 1.55
   4  0.083  0.417  0.083- 112 1.55 139 1.55 193 1.55 166 1.55
   5  0.083  0.417  0.417- 194 1.55 140 1.55 167 1.55 113 1.55
   6  0.083  0.417  0.750- 195 1.55 141 1.55 114 1.55 168 1.55
   7  0.083  0.750  0.083- 115 1.55 142 1.55 196 1.55 169 1.55
   8  0.083  0.750  0.417- 197 1.55 170 1.55 116 1.55 143 1.55
   9  0.083  0.750  0.750- 117 1.55 198 1.55 171 1.55 144 1.55
  10  0.417  0.083  0.083- 118 1.55 145 1.55 172 1.55 199 1.55
  11  0.417  0.083  0.417- 173 1.55 146 1.55 119 1.55 200 1.55
  12  0.417  0.083  0.750- 174 1.55 147 1.55 120 1.55 201 1.55
  13  0.417  0.417  0.083- 148 1.55 121 1.55 175 1.55 202 1.55
  14  0.417  0.417  0.417- 149 1.55 176 1.55 203 1.55 122 1.55
  15  0.417  0.417  0.750- 150 1.55 177 1.55 204 1.55 123 1.55
  16  0.417  0.750  0.083- 151 1.55 124 1.55 178 1.55 205 1.55
  17  0.417  0.750  0.417- 179 1.55 152 1.55 206 1.55 125 1.55
  18  0.417  0.750  0.750- 153 1.55 180 1.55 126 1.55 207 1.55
  19  0.750  0.083  0.083- 127 1.55 154 1.55 181 1.55 208 1.55
  20  0.750  0.083  0.417- 182 1.55 128 1.55 209 1.55 155 1.55
  21  0.750  0.083  0.750- 129 1.55 183 1.55 156 1.55 210 1.55
  22  0.750  0.417  0.083- 157 1.55 130 1.55 211 1.55 184 1.55
  23  0.750  0.417  0.417- 212 1.55 185 1.55 158 1.55 131 1.55
  24  0.750  0.417  0.750- 159 1.55 213 1.55 186 1.55 132 1.55
  25  0.750  0.750  0.083- 133 1.55 160 1.55 187 1.55 214 1.55
  26  0.750  0.750  0.417- 188 1.55 215 1.55 134 1.55 161 1.55
  27  0.750  0.750  0.750- 135 1.55 162 1.55 189 1.55 216 1.55
  28  0.250  0.250  0.083- 121 1.55 136 1.55 166 1.55 199 1.55
  29  0.250  0.250  0.417- 167 1.55 200 1.55 122 1.55 137 1.55
  30  0.250  0.250  0.750- 123 1.55 138 1.55 168 1.55 201 1.55
  31  0.250  0.583  0.083- 139 1.55 124 1.55 202 1.55 169 1.55
  32  0.250  0.583  0.417- 203 1.55 170 1.55 140 1.55 125 1.55
  33  0.250  0.583  0.750- 141 1.55 204 1.55 171 1.55 126 1.55
  34  0.250  0.917  0.083- 118 1.55 142 1.55 163 1.55 205 1.55
  35  0.250  0.917  0.417- 164 1.55 119 1.55 206 1.55 143 1.55
  36  0.250  0.917  0.750- 120 1.55 165 1.55 144 1.55 207 1.55
  37  0.583  0.250  0.083- 145 1.55 130 1.55 175 1.55 208 1.55
  38  0.583  0.250  0.417- 176 1.55 146 1.55 209 1.55 131 1.55
  39  0.583  0.250  0.750- 147 1.55 177 1.55 132 1.55 210 1.55
  40  0.583  0.583  0.083- 148 1.55 133 1.55 178 1.55 211 1.55
  41  0.583  0.583  0.417- 149 1.55 179 1.55 212 1.55 134 1.55
  42  0.583  0.583  0.750- 150 1.55 180 1.55 213 1.55 135 1.55
  43  0.583  0.917  0.083- 127 1.55 151 1.55 172 1.55 214 1.55
  44  0.583  0.917  0.417- 173 1.55 152 1.55 128 1.55 215 1.55
  45  0.583  0.917  0.750- 174 1.55 153 1.55 129 1.55 216 1.55
  46  0.917  0.250  0.083- 112 1.55 154 1.55 190 1.55 184 1.55
  47  0.917  0.250  0.417- 191 1.55 185 1.55 113 1.55 155 1.55
  48  0.917  0.250  0.750- 114 1.55 192 1.55 186 1.55 156 1.55
  49  0.917  0.583  0.083- 115 1.55 157 1.55 193 1.55 187 1.55
  50  0.917  0.583  0.417- 194 1.55 158 1.55 188 1.55 116 1.55
  51  0.917  0.583  0.750- 195 1.55 159 1.55 117 1.55 189 1.55
  52  0.917  0.917  0.083- 109 1.55 160 1.55 181 1.55 196 1.55
  53  0.917  0.917  0.417- 110 1.55 182 1.55 197 1.55 161 1.55
  54  0.917  0.917  0.750- 111 1.55 183 1.55 198 1.55 162 1.55
  55  0.250  0.083  0.250- 119 1.55 163 1.55 137 1.55 199 1.55
  56  0.250  0.083  0.583- 164 1.55 120 1.55 200 1.55 138 1.55
  57  0.250  0.083  0.917- 118 1.55 136 1.55 165 1.55 201 1.55
  58  0.250  0.417  0.250- 140 1.55 202 1.55 166 1.55 122 1.55
  59  0.250  0.417  0.583- 203 1.55 167 1.55 141 1.55 123 1.55
  60  0.250  0.417  0.917- 139 1.55 121 1.55 204 1.55 168 1.55
  61  0.250  0.750  0.250- 125 1.55 143 1.55 169 1.55 205 1.55
  62  0.250  0.750  0.583- 170 1.55 206 1.55 126 1.55 144 1.55
  63  0.250  0.750  0.917- 124 1.55 142 1.55 171 1.55 207 1.55
  64  0.583  0.083  0.250- 172 1.55 146 1.55 128 1.55 208 1.55
  65  0.583  0.083  0.583- 173 1.55 147 1.55 129 1.55 209 1.55
  66  0.583  0.083  0.917- 127 1.55 145 1.55 174 1.55 210 1.55
  67  0.583  0.417  0.250- 149 1.55 175 1.55 211 1.55 131 1.55
  68  0.583  0.417  0.583- 150 1.55 176 1.55 212 1.55 132 1.55
  69  0.583  0.417  0.917- 148 1.55 130 1.55 177 1.55 213 1.55
  70  0.583  0.750  0.250- 152 1.55 178 1.55 134 1.55 214 1.55
  71  0.583  0.750  0.583- 179 1.55 153 1.55 215 1.55 135 1.55
  72  0.583  0.750  0.917- 151 1.55 133 1.55 180 1.55 216 1.55
  73  0.917  0.083  0.250- 110 1.55 181 1.55 190 1.55 155 1.55
  74  0.917  0.083  0.583- 111 1.55 182 1.55 191 1.55 156 1.55
  75  0.917  0.083  0.917- 109 1.55 154 1.55 183 1.55 192 1.55
  76  0.917  0.417  0.250- 193 1.55 158 1.55 113 1.55 184 1.55
  77  0.917  0.417  0.583- 194 1.55 159 1.55 185 1.55 114 1.55
  78  0.917  0.417  0.917- 112 1.55 157 1.55 195 1.55 186 1.55
  79  0.917  0.750  0.250- 116 1.55 196 1.55 187 1.55 161 1.55
  80  0.917  0.750  0.583- 197 1.55 188 1.55 117 1.55 162 1.55
  81  0.917  0.750  0.917- 115 1.55 160 1.55 198 1.55 189 1.55
  82  0.083  0.250  0.250- 113 1.55 190 1.55 166 1.55 137 1.55
  83  0.083  0.250  0.583- 191 1.55 167 1.55 114 1.55 138 1.55
  84  0.083  0.250  0.917- 112 1.55 136 1.55 192 1.55 168 1.55
  85  0.083  0.583  0.250- 193 1.55 140 1.55 116 1.55 169 1.55
  86  0.083  0.583  0.583- 194 1.55 141 1.55 170 1.55 117 1.55
  87  0.083  0.583  0.917- 115 1.55 139 1.55 195 1.55 171 1.55
  88  0.083  0.917  0.250- 110 1.55 163 1.55 196 1.55 143 1.55
  89  0.083  0.917  0.583- 111 1.55 164 1.55 197 1.55 144 1.55
  90  0.083  0.917  0.917- 109 1.55 142 1.55 165 1.55 198 1.55
  91  0.417  0.250  0.250- 146 1.55 175 1.55 122 1.55 199 1.55
  92  0.417  0.250  0.583- 176 1.55 147 1.55 200 1.55 123 1.55
  93  0.417  0.250  0.917- 145 1.55 121 1.55 177 1.55 201 1.55
  94  0.417  0.583  0.250- 149 1.55 178 1.55 202 1.55 125 1.55
  95  0.417  0.583  0.583- 150 1.55 179 1.55 203 1.55 126 1.55
  96  0.417  0.583  0.917- 148 1.55 124 1.55 180 1.55 204 1.55
  97  0.417  0.917  0.250- 172 1.55 152 1.55 119 1.55 205 1.55
  98  0.417  0.917  0.583- 173 1.55 153 1.55 120 1.55 206 1.55
  99  0.417  0.917  0.917- 118 1.55 151 1.55 174 1.55 207 1.55
 100  0.750  0.250  0.250- 131 1.55 155 1.55 184 1.55 208 1.55
 101  0.750  0.250  0.583- 185 1.55 209 1.55 132 1.55 156 1.55
 102  0.750  0.250  0.917- 130 1.55 154 1.55 186 1.55 210 1.55
 103  0.750  0.583  0.250- 158 1.55 211 1.55 187 1.55 134 1.55
 104  0.750  0.583  0.583- 212 1.55 188 1.55 159 1.55 135 1.55
 105  0.750  0.583  0.917- 157 1.55 133 1.55 213 1.55 189 1.55
 106  0.750  0.917  0.250- 128 1.55 181 1.55 161 1.55 214 1.55
 107  0.750  0.917  0.583- 182 1.55 129 1.55 215 1.55 162 1.55
 108  0.750  0.917  0.917- 127 1.55 160 1.55 183 1.55 216 1.55
 109  0.000  0.000  0.000-   1 1.55  52 1.55  75 1.55  90 1.55
 110  0.000  0.000  0.333-  73 1.55  88 1.55   2 1.55  53 1.55
 111  0.000  0.000  0.667-   3 1.55  54 1.55  74 1.55  89 1.55
 112  0.000  0.333  0.000-  46 1.55  84 1.55  78 1.55   4 1.55
 113  0.000  0.333  0.333-  82 1.55  76 1.55  47 1.55   5 1.55
 114  0.000  0.333  0.667-  48 1.55   6 1.55  83 1.55  77 1.55
 115  0.000  0.667  0.000-   7 1.55  81 1.55  49 1.55  87 1.55
 116  0.000  0.667  0.333-  79 1.55   8 1.55  85 1.55  50 1.55
 117  0.000  0.667  0.667-   9 1.55  51 1.55  80 1.55  86 1.55
 118  0.333  0.000  0.000-  34 1.55  57 1.55  10 1.55  99 1.55
 119  0.333  0.000  0.333-  55 1.55  35 1.55  97 1.55  11 1.55
 120  0.333  0.000  0.667-  36 1.55  12 1.55  56 1.55  98 1.55
 121  0.333  0.333  0.000-  28 1.55  60 1.55  93 1.55  13 1.55
 122  0.333  0.333  0.333-  29 1.55  58 1.55  91 1.55  14 1.55
 123  0.333  0.333  0.667-  30 1.55  15 1.55  59 1.55  92 1.55
 124  0.333  0.667  0.000-  63 1.55  31 1.55  16 1.55  96 1.55
 125  0.333  0.667  0.333-  61 1.55  32 1.55  17 1.55  94 1.55
 126  0.333  0.667  0.667-  18 1.55  33 1.55  62 1.55  95 1.55
 127  0.667  0.000  0.000-  19 1.55 108 1.55  66 1.55  43 1.55
 128  0.667  0.000  0.333- 106 1.55  64 1.55  20 1.55  44 1.55
 129  0.667  0.000  0.667-  21 1.55  45 1.55 107 1.55  65 1.55
 130  0.667  0.333  0.000- 102 1.55  37 1.55  22 1.55  69 1.55
 131  0.667  0.333  0.333- 100 1.55  38 1.55  67 1.55  23 1.55
 132  0.667  0.333  0.667-  24 1.55  39 1.55 101 1.55  68 1.55
 133  0.667  0.667  0.000-  25 1.55  72 1.55 105 1.55  40 1.55
 134  0.667  0.667  0.333-  26 1.55  70 1.55 103 1.55  41 1.55
 135  0.667  0.667  0.667-  27 1.55  42 1.55  71 1.55 104 1.55
 136  0.167  0.167  0.000-  28 1.55  57 1.55  84 1.55   1 1.55
 137  0.167  0.167  0.333-  29 1.55  55 1.55  82 1.55   2 1.55
 138  0.167  0.167  0.667-  30 1.55   3 1.55  56 1.55  83 1.55
 139  0.167  0.500  0.000-  31 1.55  60 1.55   4 1.55  87 1.55
 140  0.167  0.500  0.333-  58 1.55  32 1.55  85 1.55   5 1.55
 141  0.167  0.500  0.667-  33 1.55   6 1.55  59 1.55  86 1.55
 142  0.167  0.833  0.000-  63 1.55  34 1.55   7 1.55  90 1.55
 143  0.167  0.833  0.333-  61 1.55  35 1.55   8 1.55  88 1.55
 144  0.167  0.833  0.667-   9 1.55  36 1.55  62 1.55  89 1.55
 145  0.500  0.167  0.000-  37 1.55  93 1.55  66 1.55  10 1.55
 146  0.500  0.167  0.333-  91 1.55  64 1.55  38 1.55  11 1.55
 147  0.500  0.167  0.667-  39 1.55  12 1.55  92 1.55  65 1.55
 148  0.500  0.500  0.000-  13 1.55  40 1.55  69 1.55  96 1.55
 149  0.500  0.500  0.333-  67 1.55  94 1.55  14 1.55  41 1.55
 150  0.500  0.500  0.667-  15 1.55  42 1.55  68 1.55  95 1.55
 151  0.500  0.833  0.000-  16 1.55  72 1.55  43 1.55  99 1.55
 152  0.500  0.833  0.333-  70 1.55  17 1.55  97 1.55  44 1.55
 153  0.500  0.833  0.667-  18 1.55  45 1.55  71 1.55  98 1.55
 154  0.833  0.167  0.000- 102 1.55  46 1.55  19 1.55  75 1.55
 155  0.833  0.167  0.333- 100 1.55  47 1.55  73 1.55  20 1.55
 156  0.833  0.167  0.667-  21 1.55  48 1.55 101 1.55  74 1.55
 157  0.833  0.500  0.000-  22 1.55 105 1.55  78 1.55  49 1.55
 158  0.833  0.500  0.333- 103 1.55  76 1.55  23 1.55  50 1.55
 159  0.833  0.500  0.667-  24 1.55  51 1.55 104 1.55  77 1.55
 160  0.833  0.833  0.000-  25 1.55  81 1.55 108 1.55  52 1.55
 161  0.833  0.833  0.333-  26 1.55  79 1.55 106 1.55  53 1.55
 162  0.833  0.833  0.667-  27 1.55  54 1.55  80 1.55 107 1.55
 163  0.167  0.000  0.167-  55 1.55  34 1.55  88 1.55   1 1.55
 164  0.167  0.000  0.500-  35 1.55  56 1.55   2 1.55  89 1.55
 165  0.167  0.000  0.833-  36 1.55   3 1.55  57 1.55  90 1.55
 166  0.167  0.333  0.167-  28 1.55  58 1.55  82 1.55   4 1.55
 167  0.167  0.333  0.500-  29 1.55  59 1.55  83 1.55   5 1.55
 168  0.167  0.333  0.833-  30 1.55   6 1.55  60 1.55  84 1.55
 169  0.167  0.667  0.167-  61 1.55  31 1.55   7 1.55  85 1.55
 170  0.167  0.667  0.500-  62 1.55  32 1.55   8 1.55  86 1.55
 171  0.167  0.667  0.833-   9 1.55  33 1.55  63 1.55  87 1.55
 172  0.500  0.000  0.167-  64 1.55  97 1.55  10 1.55  43 1.55
 173  0.500  0.000  0.500-  11 1.55  44 1.55  65 1.55  98 1.55
 174  0.500  0.000  0.833-  12 1.55  45 1.55  66 1.55  99 1.55
 175  0.500  0.333  0.167-  91 1.55  67 1.55  37 1.55  13 1.55
 176  0.500  0.333  0.500-  38 1.55  92 1.55  68 1.55  14 1.55
 177  0.500  0.333  0.833-  39 1.55  15 1.55  93 1.55  69 1.55
 178  0.500  0.667  0.167-  70 1.55  16 1.55  94 1.55  40 1.55
 179  0.500  0.667  0.500-  17 1.55  71 1.55  41 1.55  95 1.55
 180  0.500  0.667  0.833-  18 1.55  42 1.55  72 1.55  96 1.55
 181  0.833  0.000  0.167- 106 1.55  73 1.55  19 1.55  52 1.55
 182  0.833  0.000  0.500-  20 1.55 107 1.55  74 1.55  53 1.55
 183  0.833  0.000  0.833-  21 1.55  54 1.55 108 1.55  75 1.55
 184  0.833  0.333  0.167- 100 1.55  46 1.55  76 1.55  22 1.55
 185  0.833  0.333  0.500- 101 1.55  47 1.55  23 1.55  77 1.55
 186  0.833  0.333  0.833-  24 1.55  48 1.55 102 1.55  78 1.55
 187  0.833  0.667  0.167-  25 1.55  79 1.55 103 1.55  49 1.55
 188  0.833  0.667  0.500-  26 1.55  80 1.55 104 1.55  50 1.55
 189  0.833  0.667  0.833-  27 1.55  51 1.55  81 1.55 105 1.55
 190  0.000  0.167  0.167-  82 1.55  73 1.55  46 1.55   1 1.55
 191  0.000  0.167  0.500-  47 1.55  83 1.55  74 1.55   2 1.55
 192  0.000  0.167  0.833-  48 1.55   3 1.55  84 1.55  75 1.55
 193  0.000  0.500  0.167-  76 1.55  85 1.55   4 1.55  49 1.55
 194  0.000  0.500  0.500-   5 1.55  50 1.55  77 1.55  86 1.55
 195  0.000  0.500  0.833-   6 1.55  51 1.55  78 1.55  87 1.55
 196  0.000  0.833  0.167-  79 1.55   7 1.55  88 1.55  52 1.55
 197  0.000  0.833  0.500-   8 1.55  80 1.55  53 1.55  89 1.55
 198  0.000  0.833  0.833-   9 1.55  54 1.55  81 1.55  90 1.55
 199  0.333  0.167  0.167-  28 1.55  55 1.55  91 1.55  10 1.55
 200  0.333  0.167  0.500-  29 1.55  56 1.55  92 1.55  11 1.55
 201  0.333  0.167  0.833-  30 1.55  12 1.55  57 1.55  93 1.55
 202  0.333  0.500  0.167-  58 1.55  31 1.55  94 1.55  13 1.55
 203  0.333  0.500  0.500-  32 1.55  59 1.55  14 1.55  95 1.55
 204  0.333  0.500  0.833-  33 1.55  15 1.55  60 1.55  96 1.55
 205  0.333  0.833  0.167-  61 1.55  34 1.55  16 1.55  97 1.55
 206  0.333  0.833  0.500-  62 1.55  35 1.55  17 1.55  98 1.55
 207  0.333  0.833  0.833-  18 1.55  36 1.55  63 1.55  99 1.55
 208  0.667  0.167  0.167- 100 1.55  37 1.55  64 1.55  19 1.55
 209  0.667  0.167  0.500- 101 1.55  38 1.55  20 1.55  65 1.55
 210  0.667  0.167  0.833-  21 1.55  39 1.55 102 1.55  66 1.55
 211  0.667  0.500  0.167- 103 1.55  67 1.55  22 1.55  40 1.55
 212  0.667  0.500  0.500-  23 1.55 104 1.55  68 1.55  41 1.55
 213  0.667  0.500  0.833-  24 1.55  42 1.55 105 1.55  69 1.55
 214  0.667  0.833  0.167-  25 1.55  70 1.55 106 1.55  43 1.55
 215  0.667  0.833  0.500-  26 1.55  71 1.55 107 1.55  44 1.55
 216  0.667  0.833  0.833-  27 1.55  45 1.55  72 1.55 108 1.55
 
  LATTYP: Found a simple cubic cell.
 ALAT       =    10.7211360931
  
  Lattice vectors:
  
 A1 = (  10.7211360931,   0.0000000000,   0.0000000000)
 A2 = (   0.0000000000,  10.7211360931,   0.0000000000)
 A3 = (   0.0000000000,   0.0000000000,  10.7211360931)


Analysis of symmetry for initial positions (statically):
=====================================================================
 Subroutine PRICEL returns following result:
 
  LATTYP: Found a face centered cubic cell.
 ALAT       =     3.5737120382
  
  Lattice vectors:
  
 A1 = (   1.7868560191,  -1.7868560191,   0.0000000000)
 A2 = (   1.7868560191,   0.0000000000,   1.7868560191)
 A3 = (   0.0000000000,  -1.7868560191,   1.7868560084)
 
 108 primitive cells build up your supercell.
 

 Routine SETGRP: Setting up the symmetry group for a 
 simple cubic supercell.


 Subroutine GETGRP returns: Found 48 space group operations
 (whereof 24 operations were pure point group operations)
 out of a pool of 48 trial point group operations.


The static configuration has the point symmetry T_d .
 The point group associated with its full space group is O_h .


Analysis of symmetry for dynamics (positions and initial velocities):
=====================================================================
 Subroutine PRICEL returns following result:
 
  LATTYP: Found a face centered cubic cell.
 ALAT       =     3.5737120382
  
  Lattice vectors:
  
 A1 = (   1.7868560191,  -1.7868560191,   0.0000000000)
 A2 = (   1.7868560191,   0.0000000000,   1.7868560191)
 A3 = (   0.0000000000,  -1.7868560191,   1.7868560084)
 
 108 primitive cells build up your supercell.
 

 Routine SETGRP: Setting up the symmetry group for a 
 simple cubic supercell.


 Subroutine GETGRP returns: Found 48 space group operations
 (whereof 24 operations were pure point group operations)
 out of a pool of 48 trial point group operations.


The dynamic configuration has the point symmetry T_d .
 The point group associated with its full space group is O_h .


Analysis of structural, dynamic, and magnetic symmetry:
=====================================================================
 Subroutine PRICEL returns following result:
 
  LATTYP: Found a face centered cubic cell.
 ALAT       =     3.5737120382
  
  Lattice vectors:
  
 A1 = (   1.7868560191,  -1.7868560191,   0.0000000000)
 A2 = (   1.7868560191,   0.0000000000,   1.7868560191)
 A3 = (   0.0000000000,  -1.7868560191,   1.7868560084)
 
 108 primitive cells build up your supercell.
 

 Routine SETGRP: Setting up the symmetry group for a 
 simple cubic supercell.


 Subroutine GETGRP returns: Found 48 space group operations
 (whereof 24 operations were pure point group operations)
 out of a pool of 48 trial point group operations.


The overall configuration has the point symmetry T_d .
 The point group associated with its full space group is O_h .


 Subroutine INISYM returns: Found 48 space group operations
 (whereof 24 operations are pure point group operations),
 and found   108 'primitive' translations


----------------------------------------------------------------------------------------

                                     Primitive cell                                     

  volume of cell :      11.4103

  direct lattice vectors                    reciprocal lattice vectors
     1.786856019 -1.786856019  0.000000000     0.279821091 -0.279821090 -0.279821091
     1.786856019  0.000000000  1.786856019     0.279821090  0.279821090  0.279821091
     0.000000000 -1.786856019  1.786856008    -0.279821091 -0.279821091  0.279821091

  length of vectors
     2.526996016  2.526996016  2.526996009     0.484664346  0.484664345  0.484664347

  position of ions in fractional coordinates (direct lattice)
     0.750000002  0.749999995  0.750000001
     0.000000000  0.000000000  0.000000000

  ion indices of the primitive-cell ions
   primitive index   ion index
                 1           1
                 2         109

----------------------------------------------------------------------------------------

 
 
 KPOINTS: Gamma-point                             

Automatic generation of k-mesh.
 Grid dimensions read from file:
 generate k-points for:    1    1    1

 Generating k-lattice:

  Cartesian coordinates                     Fractional coordinates (reciprocal lattice)
     0.093273697  0.000000000  0.000000000     1.000000000  0.000000000  0.000000000
     0.000000000  0.093273697  0.000000000     0.000000000  1.000000000  0.000000000
     0.000000000  0.000000000  0.093273697     0.000000000  0.000000000  1.000000000

  Length of vectors
     0.093273697  0.093273697  0.093273697

  Shift w.r.t. Gamma in fractional coordinates (k-lattice)
     0.000000000  0.000000000  0.000000000

 
 Subroutine IBZKPT returns following result:
 ===========================================
 
 Found      1 irreducible k-points:
 
 Following reciprocal coordinates:
            Coordinates               Weight
  0.000000  0.000000  0.000000      1.000000
 
 Following cartesian coordinates:
            Coordinates               Weight
  0.000000  0.000000  0.000000      1.000000
 


--------------------------------------------------------------------------------------------------------




 Dimension of arrays:
   k-points           NKPTS =      1   k-points in BZ     NKDIM =      1   number of bands    NBANDS=    652
   number of dos      NEDOS =    301   number of ions     NIONS =    216
   non local maximal  LDIM  =      4   non local SUM 2l+1 LMDIM =      8
   total plane-waves  NPLWV = 216000
   max r-space proj   IRMAX =    793   max aug-charges    IRDMAX=   2268
   dimension x,y,z NGX =    60 NGY =   60 NGZ =   60
   dimension x,y,z NGXF=   120 NGYF=  120 NGZF=  120
   support grid    NGXF=   120 NGYF=  120 NGZF=  120
   ions per type =             216
   NGX,Y,Z   is equivalent  to a cutoff of   9.30,  9.30,  9.30 a.u.
   NGXF,Y,Z  is equivalent  to a cutoff of  18.61, 18.61, 18.61 a.u.

 SYSTEM =  unknown system                          
 POSCAR =  C8                                      

 Startparameter for this run:
   NWRITE =      2    write-flag & timer
   PREC   = normal    normal or accurate (medium, high low for compatibility)
   ISTART =      0    job   : 0-new  1-cont  2-samecut
   ICHARG =      2    charge: 1-file 2-atom 10-const
   ISPIN  =      2    spin polarized calculation?
   LNONCOLLINEAR =      F non collinear calculations
   LSORBIT =      F    spin-orbit coupling
   INIWAV =      1    electr: 0-lowe 1-rand  2-diag
   LASPH  =      F    aspherical Exc in radial PAW
 Electronic Relaxation 1
   ENCUT  =  500.0 eV  36.75 Ry    6.06 a.u.  19.55 19.55 19.55*2*pi/ulx,y,z
   ENINI  =  500.0     initial cutoff
   ENAUG  =  644.9 eV  augmentation charge cutoff
   NELM   =    100;   NELMIN=  2; NELMDL= -5     # of ELM steps 
   EDIFF  = 0.1E-05   stopping-criterion for ELM
   LREAL  =      T    real-space projection
   NLSPLINE    = F    spline interpolate recip. space projectors
   LCOMPAT=      F    compatible to vasp.4.4
   GGA_COMPAT  = T    GGA compatible to vasp.4.4-vasp.4.6
   LMAXPAW     = -100 max onsite density
   LMAXMIX     =    2 max onsite mixed and CHGCAR
   VOSKOWN=      0    Vosko Wilk Nusair interpolation
   ROPT   =   -0.00050
 Ionic relaxation
   EDIFFG = -.1E-01   stopping-criterion for IOM
   NSW    =    200    number of steps for IOM
   NBLOCK =      1;   KBLOCK =    200    inner block; outer block 
   IBRION =      2    ionic relax: 0-MD 1-quasi-New 2-CG
   NFREE  =      1    steps in history (QN), initial steepest desc. (CG)
   ISIF   =      2    stress and relaxation
   IWAVPR =     11    prediction:  0-non 1-charg 2-wave 3-comb
   ISYM   =      2    0-nonsym 1-usesym 2-fastsym
   LCORR  =      T    Harris-Foulkes like correction to forces

   POTIM  = 0.5000    time-step for ionic-motion
   TEIN   =    0.0    initial temperature
   TEBEG  =    0.0;   TEEND  =   0.0 temperature during run
   SMASS  =  -3.00    Nose mass-parameter (am)
   estimated Nose-frequenzy (Omega)   =  0.10E-29 period in steps = 0.13E+47 mass=  -0.263E-26a.u.
   SCALEE = 1.0000    scale energy and forces
   NPACO  =    256;   APACO  = 10.0  distance and # of slots for P.C.
   PSTRESS=    0.0 pullay stress

  Mass of Ions in am
   POMASS =  12.01
  Ionic Valenz
   ZVAL   =   4.00
  Atomic Wigner-Seitz radii
   RWIGS  =  -1.00
  virtual crystal weights 
   VCA    =   1.00
   NELECT =     864.0000    total number of electrons
   NUPDOWN=      -1.0000    fix difference up-down

 DOS related values:
   EMIN   =  10.00;   EMAX   =-10.00  energy-range for DOS
   EFERMI =   0.00;   METHOD = LEGACY      
   ISMEAR =     0;   SIGMA  =   0.01  broadening in eV -4-tet -1-fermi 0-gaus
   EFERMI_NEDOS =   21; number of points for ismear=-14 and -15

 Electronic relaxation 2 (details)
   IALGO  =     38    algorithm
   LDIAG  =      T    sub-space diagonalisation (order eigenvalues)
   LSUBROT=      F    optimize rotation matrix (better conditioning)
   LROBUST=      F    robust break criterion during scf (extrapolated energy error)
   ISEARCH=      0    line search for conjugate gradient (0, 1=use gradient)
   TURBO    =      0    0=normal 1=particle mesh
   IRESTART =      0    0=no restart 2=restart with 2 vectors
   NREBOOT  =      0    no. of reboots
   NMIN     =      0    reboot dimension
   EREF     =   0.00    reference energy to select bands
   IMIX   =      4    mixing-type and parameters
     AMIX     =   0.40;   BMIX     =  1.00
     AMIX_MAG =   1.60;   BMIX_MAG =  1.00
     AMIN     =   0.10
     WC   =   100.;   INIMIX=   1;  MIXPRE=   1;  MAXMIX= -45

 Intra band minimization:
   WEIMIN = 0.0010     energy-eigenvalue tresh-hold
   EBREAK =  0.38E-09  absolut break condition
   DEPER  =   0.30     relativ break condition  

   TIME   =   0.40     timestep for ELM

  volume/ion in A,a.u.               =       5.71        38.50
  Fermi-wavevector in a.u.,A,eV,Ry     =   1.454360  2.748342 28.778542  2.115163
  Thomas-Fermi vector in A             =   2.571520
 
 Write flags
   LWAVE        =      F    write WAVECAR
   LDOWNSAMPLE  =      F    k-point downsampling of WAVECAR
   LCHARG       =      F    write CHGCAR
   LVTOT        =      F    write LOCPOT, total local potential
   LVHAR        =      F    write LOCPOT, Hartree potential only
   WRT_POTENTIAL= false  ! write potential to hdf5 file
   LELF         =      F    write electronic localiz. function (ELF)
   LORBIT       =     10    0 simple, 1 ext, 2 COOP (PROOUT), +10 PAW based schemes


 Python interface
   PLUGINS active      =      F    recompile with -DPLUGINS to activate
 
 Dipole corrections
   LMONO      =      F    monopole corrections only (constant potential shift)
   LDIPOL     =      F    correct potential (dipole corrections)
   IDIPOL     =      0    1-x, 2-y, 3-z, 4-all directions 
   EPSILON    =  1.0000000 bulk dielectric constant
   LVACPOTAV  =      F  vacuum potentials using an averaging scheme for the charge density
   VACPOTFLAT =  0.1000000 required flatness to determine vacuum potential
 
Coulomb truncation method
  LTRUNCATE          =      F  Coulomb kernel truncation to be used

 
 Exchange correlation treatment:
   GGA     = PE    functional components
   XC_C    = 1    coefficients multiplying the functional components
   LIBXC   =     F    Libxc                    
   VOSKOWN =     0    Vosko Wilk Nusair interpolation
   LHFCALC =     F    Hartree Fock is set to
   LHFONE  =     F    Hartree Fock one center treatment
   AEXX    =    0.0000 exact exchange contribution

 Parameters of functionals:
   PE:
     No parameter
 
 Van der Waals corrections
   IVDW    =     0    specifies the selected vdW correction

 Linear response parameters
   LEPSILON=     F    determine dielectric tensor
   LRPA    =     F    only Hartree local field effects (RPA)
   LNABLA  =     F    use nabla operator in PAW spheres
   LVEL    =     F    velocity operator in full k-point grid
   CSHIFT  =0.1000    complex shift for real part using Kramers Kronig
   OMEGAMAX=  -1.0    maximum frequency
   DEG_THRESHOLD= 0.2000000E-02 threshold for treating states as degnerate
   RTIME   =   -0.100 relaxation time in fs
  (WPLASMAI=    0.000 imaginary part of plasma frequency in eV, 0.658/RTIME)
   DFIELD  = 0.0000000 0.0000000 0.0000000 field for delta impulse in time
 
  Optional k-point grid parameters
   LKPOINTS_OPT  =     F    use optional k-point grid
   KPOINTS_OPT_MODE=     1    mode for optional k-point grid
 
 Orbital magnetization related:
   ORBITALMAG=     F  switch on orbital magnetization
   LCHIMAG   =     F  perturbation theory with respect to B field
   DQ        =  0.001000  dq finite difference perturbation B field
   LLRAUG    =     F  two centre corrections for induced B field
   LBONE     =     F  B-component reconstruction in AE one-centre
   LVGVCALC  =     T  calculate vGv susceptibility
   LVGVAPPL  =     F  apply vGv susceptibility instead of pGv for G=0

 Random number generation:
   RANDOM_GENERATOR = DEFAULT
   PCG_SEED         = not used


--------------------------------------------------------------------------------------------------------


 conjugate gradient relaxation of ions
 charge density and potential will be updated during run
 spin polarized calculation
 Variant of blocked Davidson
 Davidson routine will perform the subspace rotation
 perform sub-space diagonalisation
    after iterative eigenvector-optimisation
 modified Broyden-mixing scheme, WC =      100.0
 initial mixing is a Kerker type mixing with AMIX =  0.4000 and BMIX =      1.0000
 Hartree-type preconditioning will be used
 using additional bands          220
 real space projection scheme for non local part
 use partial core corrections
 calculate Harris-corrections to forces 
   (improved forces if not selfconsistent)
 use gradient corrections 
 use of overlap-Matrix (Vanderbilt PP)
 Gauss-broadening in eV      SIGMA  =   0.01


--------------------------------------------------------------------------------------------------------


  energy-cutoff  :      500.00
  volume of cell :     1232.32
      direct lattice vectors                 reciprocal lattice vectors
    10.721136093  0.000000000  0.000000000     0.093273697  0.000000000  0.000000000
     0.000000000 10.721136093  0.000000000     0.000000000  0.093273697  0.000000000
     0.000000000  0.000000000 10.721136093     0.000000000  0.000000000  0.093273697

  length of vectors
    10.721136093 10.721136093 10.721136093     0.093273697  0.093273697  0.093273697


 
 k-points in units of 2pi/SCALE and weight: Gamma-point                             
   0.00000000  0.00000000  0.00000000       1.000
 
 k-points in reciprocal lattice and weights: Gamma-point                             
   0.00000000  0.00000000  0.00000000       1.000
 
 position of ions in fractional coordinates (direct lattice) 
   0.08333333  0.08333333  0.08333333
   0.08333333  0.08333333  0.41666667
   0.08333333  0.08333333  0.75000000
   0.08333333  0.41666667  0.08333333
   0.08333333  0.41666667  0.41666667
   0.08333333  0.41666667  0.75000000
   0.08333333  0.75000000  0.08333333
   0.08333333  0.75000000  0.41666667
   0.08333333  0.75000000  0.75000000
   0.41666667  0.08333333  0.08333333
   0.41666667  0.08333333  0.41666667
   0.41666667  0.08333333  0.75000000
   0.41666667  0.41666667  0.08333333
   0.41666667  0.41666667  0.41666667
   0.41666667  0.41666667  0.75000000
   0.41666667  0.75000000  0.08333333
   0.41666667  0.75000000  0.41666667
   0.41666667  0.75000000  0.75000000
   0.75000000  0.08333333  0.08333333
   0.75000000  0.08333333  0.41666667
   0.75000000  0.08333333  0.75000000
   0.75000000  0.41666667  0.08333333
   0.75000000  0.41666667  0.41666667
   0.75000000  0.41666667  0.75000000
   0.75000000  0.75000000  0.08333333
   0.75000000  0.75000000  0.41666667
   0.75000000  0.75000000  0.75000000
   0.25000000  0.25000000  0.08333333
   0.25000000  0.25000000  0.41666667
   0.25000000  0.25000000  0.75000000
   0.25000000  0.58333333  0.08333333
   0.25000000  0.58333333  0.41666667
   0.25000000  0.58333333  0.75000000
   0.25000000  0.91666667  0.08333333
   0.25000000  0.91666667  0.41666667
   0.25000000  0.91666667  0.75000000
   0.58333333  0.25000000  0.08333333
   0.58333333  0.25000000  0.41666667
   0.58333333  0.25000000  0.75000000
   0.58333333  0.58333333  0.08333333
   0.58333333  0.58333333  0.41666667
   0.58333333  0.58333333  0.75000000
   0.58333333  0.91666667  0.08333333
   0.58333333  0.91666667  0.41666667
   0.58333333  0.91666667  0.75000000
   0.91666667  0.25000000  0.08333333
   0.91666667  0.25000000  0.41666667
   0.91666667  0.25000000  0.75000000
   0.91666667  0.58333333  0.08333333
   0.91666667  0.58333333  0.41666667
   0.91666667  0.58333333  0.75000000
   0.91666667  0.91666667  0.08333333
   0.91666667  0.91666667  0.41666667
   0.91666667  0.91666667  0.75000000
   0.25000000  0.08333333  0.25000000
   0.25000000  0.08333333  0.58333333
   0.25000000  0.08333333  0.91666667
   0.25000000  0.41666667  0.25000000
   0.25000000  0.41666667  0.58333333
   0.25000000  0.41666667  0.91666667
   0.25000000  0.75000000  0.25000000
   0.25000000  0.75000000  0.58333333
   0.25000000  0.75000000  0.91666667
   0.58333333  0.08333333  0.25000000
   0.58333333  0.08333333  0.58333333
   0.58333333  0.08333333  0.91666667
   0.58333333  0.41666667  0.25000000
   0.58333333  0.41666667  0.58333333
   0.58333333  0.41666667  0.91666667
   0.58333333  0.75000000  0.25000000
   0.58333333  0.75000000  0.58333333
   0.58333333  0.75000000  0.91666667
   0.91666667  0.08333333  0.25000000
   0.91666667  0.08333333  0.58333333
   0.91666667  0.08333333  0.91666667
   0.91666667  0.41666667  0.25000000
   0.91666667  0.41666667  0.58333333
   0.91666667  0.41666667  0.91666667
   0.91666667  0.75000000  0.25000000
   0.91666667  0.75000000  0.58333333
   0.91666667  0.75000000  0.91666667
   0.08333333  0.25000000  0.25000000
   0.08333333  0.25000000  0.58333333
   0.08333333  0.25000000  0.91666667
   0.08333333  0.58333333  0.25000000
   0.08333333  0.58333333  0.58333333
   0.08333333  0.58333333  0.91666667
   0.08333333  0.91666667  0.25000000
   0.08333333  0.91666667  0.58333333
   0.08333333  0.91666667  0.91666667
   0.41666667  0.25000000  0.25000000
   0.41666667  0.25000000  0.58333333
   0.41666667  0.25000000  0.91666667
   0.41666667  0.58333333  0.25000000
   0.41666667  0.58333333  0.58333333
   0.41666667  0.58333333  0.91666667
   0.41666667  0.91666667  0.25000000
   0.41666667  0.91666667  0.58333333
   0.41666667  0.91666667  0.91666667
   0.75000000  0.25000000  0.25000000
   0.75000000  0.25000000  0.58333333
   0.75000000  0.25000000  0.91666667
   0.75000000  0.58333333  0.25000000
   0.75000000  0.58333333  0.58333333
   0.75000000  0.58333333  0.91666667
   0.75000000  0.91666667  0.25000000
   0.75000000  0.91666667  0.58333333
   0.75000000  0.91666667  0.91666667
   0.00000000  0.00000000  0.00000000
   0.00000000  0.00000000  0.33333333
   0.00000000  0.00000000  0.66666667
   0.00000000  0.33333333  0.00000000
   0.00000000  0.33333333  0.33333333
   0.00000000  0.33333333  0.66666667
   0.00000000  0.66666667  0.00000000
   0.00000000  0.66666667  0.33333333
   0.00000000  0.66666667  0.66666667
   0.33333333  0.00000000  0.00000000
   0.33333333  0.00000000  0.33333333
   0.33333333  0.00000000  0.66666667
   0.33333333  0.33333333  0.00000000
   0.33333333  0.33333333  0.33333333
   0.33333333  0.33333333  0.66666667
   0.33333333  0.66666667  0.00000000
   0.33333333  0.66666667  0.33333333
   0.33333333  0.66666667  0.66666667
   0.66666667  0.00000000  0.00000000
   0.66666667  0.00000000  0.33333333
   0.66666667  0.00000000  0.66666667
   0.66666667  0.33333333  0.00000000
   0.66666667  0.33333333  0.33333333
   0.66666667  0.33333333  0.66666667
   0.66666667  0.66666667  0.00000000
   0.66666667  0.66666667  0.33333333
   0.66666667  0.66666667  0.66666667
   0.16666667  0.16666667  0.00000000
   0.16666667  0.16666667  0.33333333
   0.16666667  0.16666667  0.66666667
   0.16666667  0.50000000  0.00000000
   0.16666667  0.50000000  0.33333333
   0.16666667  0.50000000  0.66666667
   0.16666667  0.83333333  0.00000000
   0.16666667  0.83333333  0.33333333
   0.16666667  0.83333333  0.66666667
   0.50000000  0.16666667  0.00000000
   0.50000000  0.16666667  0.33333333
   0.50000000  0.16666667  0.66666667
   0.50000000  0.50000000  0.00000000
   0.50000000  0.50000000  0.33333333
   0.50000000  0.50000000  0.66666667
   0.50000000  0.83333333  0.00000000
   0.50000000  0.83333333  0.33333333
   0.50000000  0.83333333  0.66666667
   0.83333333  0.16666667  0.00000000
   0.83333333  0.16666667  0.33333333
   0.83333333  0.16666667  0.66666667
   0.83333333  0.50000000  0.00000000
   0.83333333  0.50000000  0.33333333
   0.83333333  0.50000000  0.66666667
   0.83333333  0.83333333  0.00000000
   0.83333333  0.83333333  0.33333333
   0.83333333  0.83333333  0.66666667
   0.16666667  0.00000000  0.16666667
   0.16666667  0.00000000  0.50000000
   0.16666667  0.00000000  0.83333333
   0.16666667  0.33333333  0.16666667
   0.16666667  0.33333333  0.50000000
   0.16666667  0.33333333  0.83333333
   0.16666667  0.66666667  0.16666667
   0.16666667  0.66666667  0.50000000
   0.16666667  0.66666667  0.83333333
   0.50000000  0.00000000  0.16666667
   0.50000000  0.00000000  0.50000000
   0.50000000  0.00000000  0.83333333
   0.50000000  0.33333333  0.16666667
   0.50000000  0.33333333  0.50000000
   0.50000000  0.33333333  0.83333333
   0.50000000  0.66666667  0.16666667
   0.50000000  0.66666667  0.50000000
   0.50000000  0.66666667  0.83333333
   0.83333333  0.00000000  0.16666667
   0.83333333  0.00000000  0.50000000
   0.83333333  0.00000000  0.83333333
   0.83333333  0.33333333  0.16666667
   0.83333333  0.33333333  0.50000000
   0.83333333  0.33333333  0.83333333
   0.83333333  0.66666667  0.16666667
   0.83333333  0.66666667  0.50000000
   0.83333333  0.66666667  0.83333333
   0.00000000  0.16666667  0.16666667
   0.00000000  0.16666667  0.50000000
   0.00000000  0.16666667  0.83333333
   0.00000000  0.50000000  0.16666667
   0.00000000  0.50000000  0.50000000
   0.00000000  0.50000000  0.83333333
   0.00000000  0.83333333  0.16666667
   0.00000000  0.83333333  0.50000000
   0.00000000  0.83333333  0.83333333
   0.33333333  0.16666667  0.16666667
   0.33333333  0.16666667  0.50000000
   0.33333333  0.16666667  0.83333333
   0.33333333  0.50000000  0.16666667
   0.33333333  0.50000000  0.50000000
   0.33333333  0.50000000  0.83333333
   0.33333333  0.83333333  0.16666667
   0.33333333  0.83333333  0.50000000
   0.33333333  0.83333333  0.83333333
   0.66666667  0.16666667  0.16666667
   0.66666667  0.16666667  0.50000000
   0.66666667  0.16666667  0.83333333
   0.66666667  0.50000000  0.16666667
   0.66666667  0.50000000  0.50000000
   0.66666667  0.50000000  0.83333333
   0.66666667  0.83333333  0.16666667
   0.66666667  0.83333333  0.50000000
   0.66666667  0.83333333  0.83333333
 
 position of ions in cartesian coordinates  (Angst):
   0.89342800  0.89342800  0.89342800
   0.89342800  0.89342800  4.46714004
   0.89342800  0.89342800  8.04085207
   0.89342800  4.46714004  0.89342800
   0.89342800  4.46714004  4.46714004
   0.89342800  4.46714004  8.04085207
   0.89342800  8.04085207  0.89342800
   0.89342800  8.04085207  4.46714004
   0.89342800  8.04085207  8.04085207
   4.46714004  0.89342800  0.89342800
   4.46714004  0.89342800  4.46714004
   4.46714004  0.89342800  8.04085207
   4.46714004  4.46714004  0.89342800
   4.46714004  4.46714004  4.46714004
   4.46714004  4.46714004  8.04085207
   4.46714004  8.04085207  0.89342800
   4.46714004  8.04085207  4.46714004
   4.46714004  8.04085207  8.04085207
   8.04085207  0.89342800  0.89342800
   8.04085207  0.89342800  4.46714004
   8.04085207  0.89342800  8.04085207
   8.04085207  4.46714004  0.89342800
   8.04085207  4.46714004  4.46714004
   8.04085207  4.46714004  8.04085207
   8.04085207  8.04085207  0.89342800
   8.04085207  8.04085207  4.46714004
   8.04085207  8.04085207  8.04085207
   2.68028402  2.68028402  0.89342800
   2.68028402  2.68028402  4.46714004
   2.68028402  2.68028402  8.04085207
   2.68028402  6.25399605  0.89342800
   2.68028402  6.25399605  4.46714004
   2.68028402  6.25399605  8.04085207
   2.68028402  9.82770809  0.89342800
   2.68028402  9.82770809  4.46714004
   2.68028402  9.82770809  8.04085207
   6.25399605  2.68028402  0.89342800
   6.25399605  2.68028402  4.46714004
   6.25399605  2.68028402  8.04085207
   6.25399605  6.25399605  0.89342800
   6.25399605  6.25399605  4.46714004
   6.25399605  6.25399605  8.04085207
   6.25399605  9.82770809  0.89342800
   6.25399605  9.82770809  4.46714004
   6.25399605  9.82770809  8.04085207
   9.82770809  2.68028402  0.89342800
   9.82770809  2.68028402  4.46714004
   9.82770809  2.68028402  8.04085207
   9.82770809  6.25399605  0.89342800
   9.82770809  6.25399605  4.46714004
   9.82770809  6.25399605  8.04085207
   9.82770809  9.82770809  0.89342800
   9.82770809  9.82770809  4.46714004
   9.82770809  9.82770809  8.04085207
   2.68028402  0.89342800  2.68028402
   2.68028402  0.89342800  6.25399605
   2.68028402  0.89342800  9.82770809
   2.68028402  4.46714004  2.68028402
   2.68028402  4.46714004  6.25399605
   2.68028402  4.46714004  9.82770809
   2.68028402  8.04085207  2.68028402
   2.68028402  8.04085207  6.25399605
   2.68028402  8.04085207  9.82770809
   6.25399605  0.89342800  2.68028402
   6.25399605  0.89342800  6.25399605
   6.25399605  0.89342800  9.82770809
   6.25399605  4.46714004  2.68028402
   6.25399605  4.46714004  6.25399605
   6.25399605  4.46714004  9.82770809
   6.25399605  8.04085207  2.68028402
   6.25399605  8.04085207  6.25399605
   6.25399605  8.04085207  9.82770809
   9.82770809  0.89342800  2.68028402
   9.82770809  0.89342800  6.25399605
   9.82770809  0.89342800  9.82770809
   9.82770809  4.46714004  2.68028402
   9.82770809  4.46714004  6.25399605
   9.82770809  4.46714004  9.82770809
   9.82770809  8.04085207  2.68028402
   9.82770809  8.04085207  6.25399605
   9.82770809  8.04085207  9.82770809
   0.89342800  2.68028402  2.68028402
   0.89342800  2.68028402  6.25399605
   0.89342800  2.68028402  9.82770809
   0.89342800  6.25399605  2.68028402
   0.89342800  6.25399605  6.25399605
   0.89342800  6.25399605  9.82770809
   0.89342800  9.82770809  2.68028402
   0.89342800  9.82770809  6.25399605
   0.89342800  9.82770809  9.82770809
   4.46714004  2.68028402  2.68028402
   4.46714004  2.68028402  6.25399605
   4.46714004  2.68028402  9.82770809
   4.46714004  6.25399605  2.68028402
   4.46714004  6.25399605  6.25399605
   4.46714004  6.25399605  9.82770809
   4.46714004  9.82770809  2.68028402
   4.46714004  9.82770809  6.25399605
   4.46714004  9.82770809  9.82770809
   8.04085207  2.68028402  2.68028402
   8.04085207  2.68028402  6.25399605
   8.04085207  2.68028402  9.82770809
   8.04085207  6.25399605  2.68028402
   8.04085207  6.25399605  6.25399605
   8.04085207  6.25399605  9.82770809
   8.04085207  9.82770809  2.68028402
   8.04085207  9.82770809  6.25399605
   8.04085207  9.82770809  9.82770809
   0.00000000  0.00000000  0.00000000
   0.00000000  0.00000000  3.57371203
   0.00000000  0.00000000  7.14742407
   0.00000000  3.57371203  0.00000000
   0.00000000  3.57371203  3.57371203
   0.00000000  3.57371203  7.14742407
   0.00000000  7.14742407  0.00000000
   0.00000000  7.14742407  3.57371203
   0.00000000  7.14742407  7.14742407
   3.57371203  0.00000000  0.00000000
   3.57371203  0.00000000  3.57371203
   3.57371203  0.00000000  7.14742407
   3.57371203  3.57371203  0.00000000
   3.57371203  3.57371203  3.57371203
   3.57371203  3.57371203  7.14742407
   3.57371203  7.14742407  0.00000000
   3.57371203  7.14742407  3.57371203
   3.57371203  7.14742407  7.14742407
   7.14742407  0.00000000  0.00000000
   7.14742407  0.00000000  3.57371203
   7.14742407  0.00000000  7.14742407
   7.14742407  3.57371203  0.00000000
   7.14742407  3.57371203  3.57371203
   7.14742407  3.57371203  7.14742407
   7.14742407  7.14742407  0.00000000
   7.14742407  7.14742407  3.57371203
   7.14742407  7.14742407  7.14742407
   1.78685602  1.78685602  0.00000000
   1.78685602  1.78685602  3.57371203
   1.78685602  1.78685602  7.14742407
   1.78685602  5.36056805  0.00000000
   1.78685602  5.36056805  3.57371203
   1.78685602  5.36056805  7.14742407
   1.78685602  8.93428007  0.00000000
   1.78685602  8.93428007  3.57371203
   1.78685602  8.93428007  7.14742407
   5.36056805  1.78685602  0.00000000
   5.36056805  1.78685602  3.57371203
   5.36056805  1.78685602  7.14742407
   5.36056805  5.36056805  0.00000000
   5.36056805  5.36056805  3.57371203
   5.36056805  5.36056805  7.14742407
   5.36056805  8.93428007  0.00000000
   5.36056805  8.93428007  3.57371203
   5.36056805  8.93428007  7.14742407
   8.93428007  1.78685602  0.00000000
   8.93428007  1.78685602  3.57371203
   8.93428007  1.78685602  7.14742407
   8.93428007  5.36056805  0.00000000
   8.93428007  5.36056805  3.57371203
   8.93428007  5.36056805  7.14742407
   8.93428007  8.93428007  0.00000000
   8.93428007  8.93428007  3.57371203
   8.93428007  8.93428007  7.14742407
   1.78685602  0.00000000  1.78685602
   1.78685602  0.00000000  5.36056805
   1.78685602  0.00000000  8.93428007
   1.78685602  3.57371203  1.78685602
   1.78685602  3.57371203  5.36056805
   1.78685602  3.57371203  8.93428007
   1.78685602  7.14742407  1.78685602
   1.78685602  7.14742407  5.36056805
   1.78685602  7.14742407  8.93428007
   5.36056805  0.00000000  1.78685602
   5.36056805  0.00000000  5.36056805
   5.36056805  0.00000000  8.93428007
   5.36056805  3.57371203  1.78685602
   5.36056805  3.57371203  5.36056805
   5.36056805  3.57371203  8.93428007
   5.36056805  7.14742407  1.78685602
   5.36056805  7.14742407  5.36056805
   5.36056805  7.14742407  8.93428007
   8.93428007  0.00000000  1.78685602
   8.93428007  0.00000000  5.36056805
   8.93428007  0.00000000  8.93428007
   8.93428007  3.57371203  1.78685602
   8.93428007  3.57371203  5.36056805
   8.93428007  3.57371203  8.93428007
   8.93428007  7.14742407  1.78685602
   8.93428007  7.14742407  5.36056805
   8.93428007  7.14742407  8.93428007
   0.00000000  1.78685602  1.78685602
   0.00000000  1.78685602  5.36056805
   0.00000000  1.78685602  8.93428007
   0.00000000  5.36056805  1.78685602
   0.00000000  5.36056805  5.36056805
   0.00000000  5.36056805  8.93428007
   0.00000000  8.93428007  1.78685602
   0.00000000  8.93428007  5.36056805
   0.00000000  8.93428007  8.93428007
   3.57371203  1.78685602  1.78685602
   3.57371203  1.78685602  5.36056805
   3.57371203  1.78685602  8.93428007
   3.57371203  5.36056805  1.78685602
   3.57371203  5.36056805  5.36056805
   3.57371203  5.36056805  8.93428007
   3.57371203  8.93428007  1.78685602
   3.57371203  8.93428007  5.36056805
   3.57371203  8.93428007  8.93428007
   7.14742407  1.78685602  1.78685602
   7.14742407  1.78685602  5.36056805
   7.14742407  1.78685602  8.93428007
   7.14742407  5.36056805  1.78685602
   7.14742407  5.36056805  5.36056805
   7.14742407  5.36056805  8.93428007
   7.14742407  8.93428007  1.78685602
   7.14742407  8.93428007  5.36056805
   7.14742407  8.93428007  8.93428007
 


--------------------------------------------------------------------------------------------------------


 k-point     1 :   0.0000 0.0000 0.0000  plane waves:   31439

 maximum and minimum number of plane-waves per node :      4492     4489

 maximum number of plane-waves:     31439
 maximum index in each direction: 
   IXMAX=   19   IYMAX=   19   IZMAX=   19
   IXMIN=  -19   IYMIN=  -19   IZMIN=  -19


 real space projection operators:
  total allocation   :       9976.50 KBytes
  max/ min on nodes  :       1506.38       1325.25


 parallel 3D FFT for wavefunctions:
    minimum data exchange during FFTs selected (reduces bandwidth)
 parallel 3D FFT for charge:
    minimum data exchange during FFTs selected (reduces bandwidth)


 total amount of memory used by VASP MPI-rank0    70778. kBytes
=======================================================================

   base                                    :      30000. kBytes
   nonlr-proj                              :       4630. kBytes
   fftplans                                :       3375. kBytes
   grid                                    :       7860. kBytes
   one-center                              :        190. kBytes
   wavefun                                 :      24723. kBytes
 
     INWAV:  cpu time      0.0000: real time      0.0004
 Broyden mixing: mesh for mixing (old mesh)
   NGX = 39   NGY = 39   NGZ = 39
  (NGX  =120   NGY  =120   NGZ  =120)
  gives a total of  59319 points

 initial charge density was supplied:
 charge density of overlapping atoms calculated
 number of electron     864.0000000 magnetization     216.0000000
 keeping initial charge density in first step


--------------------------------------------------------------------------------------------------------


 Maximum index for non-local projection operator          142
 Maximum index for augmentation-charges          193 (set IRDMAX)


--------------------------------------------------------------------------------------------------------


 First call to EWALD:  gamma=   0.165
 Maximum number of real-space cells   3x   3x   3
 Maximum number of reciprocal cells   3x   3x   3

    FEWALD:  cpu time      0.0476: real time      0.0478


--------------------------------------- Ionic step        1  -------------------------------------------




--------------------------------------- Iteration      1(   1)  ---------------------------------------


    POTLOK:  cpu time      0.0867: real time      0.0876
    SETDIJ:  cpu time      0.0191: real time      0.0192
     EDDAV:  cpu time      8.4821: real time      8.5545
       DOS:  cpu time      0.0019: real time      0.0019
    --------------------------------------------
      LOOP:  cpu time      8.5898: real time      8.6633

 eigenvalue-minimisations  :  2608
 total energy-change (2. order) : 0.2484320E+04  (-0.4476025E+05)
 number of electron     864.0000000 magnetization     216.0000000
 augmentation part      864.0000000 magnetization     216.0000000

 Free energy of the ion-electron system (eV)
  ---------------------------------------------------
  alpha Z        PSCENC =      3110.10664883
  Ewald energy   TEWEN  =    -37506.89523773
  -Hartree energ DENC   =     -1916.15173240
  -exchange      EXHF   =         0.00000000
  -V(xc)+E(xc)   XCENC  =      2993.29915190
  PAW double counting   =     23413.06034368   -23534.13957697
  entropy T*S    EENTRO =        -0.00000000
  eigenvalues    EBANDS =      4140.98171969
  atomic energy  EATOM  =     31784.05908134
  Solvation  Ediel_sol  =         0.00000000
  ---------------------------------------------------
  free energy    TOTEN  =      2484.32039834 eV

  energy without entropy =     2484.32039834  energy(sigma->0) =     2484.32039834


--------------------------------------------------------------------------------------------------------




--------------------------------------- Iteration      1(   2)  ---------------------------------------


     EDDAV:  cpu time      9.7508: real time      9.8358
       DOS:  cpu time      0.0033: real time      0.0033
    --------------------------------------------
      LOOP:  cpu time      9.7541: real time      9.8392

 eigenvalue-minimisations  :  3120
 total energy-change (2. order) :-0.4194347E+04  (-0.3942484E+04)
 number of electron     864.0000000 magnetization     216.0000000
 augmentation part      864.0000000 magnetization     216.0000000

 Free energy of the ion-electron system (eV)
  ---------------------------------------------------
  alpha Z        PSCENC =      3110.10664883
  Ewald energy   TEWEN  =    -37506.89523773
  -Hartree energ DENC   =     -1916.15173240
  -exchange      EXHF   =         0.00000000
  -V(xc)+E(xc)   XCENC  =      2993.29915190
  PAW double counting   =     23413.06034368   -23534.13957697
  entropy T*S    EENTRO =        -0.00000000
  eigenvalues    EBANDS =       -53.36521113
  atomic energy  EATOM  =     31784.05908134
  Solvation  Ediel_sol  =         0.00000000
  ---------------------------------------------------
  free energy    TOTEN  =     -1710.02653248 eV

  energy without entropy =    -1710.02653248  energy(sigma->0) =    -1710.02653248


--------------------------------------------------------------------------------------------------------




--------------------------------------- Iteration      1(   3)  ---------------------------------------


     EDDAV:  cpu time     10.4392: real time     10.5288
       DOS:  cpu time      0.0021: real time      0.0021
    --------------------------------------------
      LOOP:  cpu time     10.4414: real time     10.5310

 eigenvalue-minimisations  :  3384
 total energy-change (2. order) :-0.2243298E+03  (-0.2218647E+03)
 number of electron     864.0000000 magnetization     216.0000000
 augmentation part      864.0000000 magnetization     216.0000000

 Free energy of the ion-electron system (eV)
  ---------------------------------------------------
  alpha Z        PSCENC =      3110.10664883
  Ewald energy   TEWEN  =    -37506.89523773
  -Hartree energ DENC   =     -1916.15173240
  -exchange      EXHF   =         0.00000000
  -V(xc)+E(xc)   XCENC  =      2993.29915190
  PAW double counting   =     23413.06034368   -23534.13957697
  entropy T*S    EENTRO =        -0.00000000
  eigenvalues    EBANDS =      -277.69505307
  atomic energy  EATOM  =     31784.05908134
  Solvation  Ediel_sol  =         0.00000000
  ---------------------------------------------------
  free energy    TOTEN  =     -1934.35637442 eV

  energy without entropy =    -1934.35637442  energy(sigma->0) =    -1934.35637442


--------------------------------------------------------------------------------------------------------




--------------------------------------- Iteration      1(   4)  ---------------------------------------


     EDDAV:  cpu time     10.3051: real time     10.3958
       DOS:  cpu time      0.0046: real time      0.0046
    --------------------------------------------
      LOOP:  cpu time     10.3097: real time     10.4005

 eigenvalue-minimisations  :  3344
 total energy-change (2. order) :-0.3739810E+01  (-0.3721947E+01)
 number of electron     864.0000000 magnetization     216.0000000
 augmentation part      864.0000000 magnetization     216.0000000

 Free energy of the ion-electron system (eV)
  ---------------------------------------------------
  alpha Z        PSCENC =      3110.10664883
  Ewald energy   TEWEN  =    -37506.89523773
  -Hartree energ DENC   =     -1916.15173240
  -exchange      EXHF   =         0.00000000
  -V(xc)+E(xc)   XCENC  =      2993.29915190
  PAW double counting   =     23413.06034368   -23534.13957697
  entropy T*S    EENTRO =        -0.00000000
  eigenvalues    EBANDS =      -281.43486293
  atomic energy  EATOM  =     31784.05908134
  Solvation  Ediel_sol  =         0.00000000
  ---------------------------------------------------
  free energy    TOTEN  =     -1938.09618428 eV

  energy without entropy =    -1938.09618428  energy(sigma->0) =    -1938.09618428


--------------------------------------------------------------------------------------------------------




--------------------------------------- Iteration      1(   5)  ---------------------------------------


     EDDAV:  cpu time     10.3124: real time     10.4024
       DOS:  cpu time      0.0009: real time      0.0009
    CHARGE:  cpu time      0.4086: real time      0.4103
    MIXING:  cpu time      0.0045: real time      0.0046
    --------------------------------------------
      LOOP:  cpu time     10.7264: real time     10.8183

 eigenvalue-minimisations  :  3336
 total energy-change (2. order) :-0.8243287E-01  (-0.8233260E-01)
 number of electron     863.9998677 magnetization     127.6459194
 augmentation part       21.5459929 magnetization     127.5696256

 Broyden mixing:
  rms(total) = 0.91388E+01    rms(broyden)= 0.91382E+01
  rms(prec ) = 0.97959E+01
  weight for this iteration     100.00

 Free energy of the ion-electron system (eV)
  ---------------------------------------------------
  alpha Z        PSCENC =      3110.10664883
  Ewald energy   TEWEN  =    -37506.89523773
  -Hartree energ DENC   =     -1916.15173240
  -exchange      EXHF   =         0.00000000
  -V(xc)+E(xc)   XCENC  =      2993.29915190
  PAW double counting   =     23413.06034368   -23534.13957697
  entropy T*S    EENTRO =        -0.00000000
  eigenvalues    EBANDS =      -281.51729580
  atomic energy  EATOM  =     31784.05908134
  Solvation  Ediel_sol  =         0.00000000
  ---------------------------------------------------
  free energy    TOTEN  =     -1938.17861715 eV

  energy without entropy =    -1938.17861715  energy(sigma->0) =    -1938.17861715


--------------------------------------------------------------------------------------------------------




--------------------------------------- Iteration      1(   6)  ---------------------------------------


    POTLOK:  cpu time      0.0863: real time      0.0874
    SETDIJ:  cpu time      0.0180: real time      0.0181
     EDDAV:  cpu time      9.3481: real time      9.4292
       DOS:  cpu time      0.0017: real time      0.0017
    CHARGE:  cpu time      0.4086: real time      0.4103
    MIXING:  cpu time      0.0037: real time      0.0038
    --------------------------------------------
      LOOP:  cpu time      9.8665: real time      9.9506

 eigenvalue-minimisations  :  2960
 total energy-change (2. order) : 0.1293852E+02  (-0.8761356E+01)
 number of electron     863.9998707 magnetization      53.7791594
 augmentation part       21.0565279 magnetization      53.3585021

 Broyden mixing:
  rms(total) = 0.51468E+01    rms(broyden)= 0.51468E+01
  rms(prec ) = 0.54969E+01
  weight for this iteration     100.00

 eigenvalues of (default mixing * dielectric matrix)
  average eigenvalue GAMMA=   0.9834
  0.9834

 Free energy of the ion-electron system (eV)
  ---------------------------------------------------
  alpha Z        PSCENC =      3110.10664883
  Ewald energy   TEWEN  =    -37506.89523773
  -Hartree energ DENC   =     -2328.29013063
  -exchange      EXHF   =         0.00000000
  -V(xc)+E(xc)   XCENC  =      3019.00318515
  PAW double counting   =     40518.95920918   -40654.32036659
  entropy T*S    EENTRO =        -0.00000000
  eigenvalues    EBANDS =       132.13751062
  atomic energy  EATOM  =     31784.05908134
  Solvation  Ediel_sol  =         0.00000000
  ---------------------------------------------------
  free energy    TOTEN  =     -1925.24009982 eV

  energy without entropy =    -1925.24009982  energy(sigma->0) =    -1925.24009982


--------------------------------------------------------------------------------------------------------




--------------------------------------- Iteration      1(   7)  ---------------------------------------


    POTLOK:  cpu time      0.0838: real time      0.0869
    SETDIJ:  cpu time      0.0190: real time      0.0191
     EDDAV:  cpu time      9.2045: real time      9.2849
       DOS:  cpu time      0.0006: real time      0.0006
    CHARGE:  cpu time      0.4074: real time      0.4091
    MIXING:  cpu time      0.0038: real time      0.0038
    --------------------------------------------
      LOOP:  cpu time      9.7191: real time      9.8044

 eigenvalue-minimisations  :  2896
 total energy-change (2. order) :-0.3165794E+02  (-0.6088662E+01)
 number of electron     863.9998732 magnetization       3.8925148
 augmentation part       20.6569211 magnetization       3.7959565

 Broyden mixing:
  rms(total) = 0.23712E+01    rms(broyden)= 0.23712E+01
  rms(prec ) = 0.24652E+01
  weight for this iteration     100.00

 eigenvalues of (default mixing * dielectric matrix)
  average eigenvalue GAMMA=   1.5183
  0.7872  2.2494

 Free energy of the ion-electron system (eV)
  ---------------------------------------------------
  alpha Z        PSCENC =      3110.10664883
  Ewald energy   TEWEN  =    -37506.89523773
  -Hartree energ DENC   =     -2673.50255794
  -exchange      EXHF   =         0.00000000
  -V(xc)+E(xc)   XCENC  =      3026.46776032
  PAW double counting   =     60581.64016813   -60725.33769260
  entropy T*S    EENTRO =        -0.00000000
  eigenvalues    EBANDS =       446.56379342
  atomic energy  EATOM  =     31784.05908134
  Solvation  Ediel_sol  =         0.00000000
  ---------------------------------------------------
  free energy    TOTEN  =     -1956.89803623 eV

  energy without entropy =    -1956.89803623  energy(sigma->0) =    -1956.89803623


--------------------------------------------------------------------------------------------------------




--------------------------------------- Iteration      1(   8)  ---------------------------------------


    POTLOK:  cpu time      0.0828: real time      0.0838
    SETDIJ:  cpu time      0.0180: real time      0.0181
     EDDAV:  cpu time      9.6717: real time      9.7557
       DOS:  cpu time      0.0006: real time      0.0006
    CHARGE:  cpu time      0.4053: real time      0.4070
    MIXING:  cpu time      0.0038: real time      0.0039
    --------------------------------------------
      LOOP:  cpu time     10.1823: real time     10.2691

 eigenvalue-minimisations  :  3088
 total energy-change (2. order) :-0.5003745E+01  (-0.8975606E+00)
 number of electron     863.9998745 magnetization       1.0658310
 augmentation part       20.4450047 magnetization       1.0771476

 Broyden mixing:
  rms(total) = 0.71784E+00    rms(broyden)= 0.71777E+00
  rms(prec ) = 0.73403E+00
  weight for this iteration     100.00

 eigenvalues of (default mixing * dielectric matrix)
  average eigenvalue GAMMA=   1.2959
  2.4424  0.8353  0.6100

 Free energy of the ion-electron system (eV)
  ---------------------------------------------------
  alpha Z        PSCENC =      3110.10664883
  Ewald energy   TEWEN  =    -37506.89523773
  -Hartree energ DENC   =     -2889.91552755
  -exchange      EXHF   =         0.00000000
  -V(xc)+E(xc)   XCENC  =      3044.37989300
  PAW double counting   =     78175.91669311   -78323.46366691
  entropy T*S    EENTRO =         0.00000000
  eigenvalues    EBANDS =       643.91033449
  atomic energy  EATOM  =     31784.05908134
  Solvation  Ediel_sol  =         0.00000000
  ---------------------------------------------------
  free energy    TOTEN  =     -1961.90178141 eV

  energy without entropy =    -1961.90178141  energy(sigma->0) =    -1961.90178141


--------------------------------------------------------------------------------------------------------




--------------------------------------- Iteration      1(   9)  ---------------------------------------


    POTLOK:  cpu time      0.0826: real time      0.0837
    SETDIJ:  cpu time      0.0180: real time      0.0181
     EDDAV:  cpu time      9.8894: real time      9.9746
       DOS:  cpu time      0.0042: real time      0.0043
    CHARGE:  cpu time      0.4052: real time      0.4068
    MIXING:  cpu time      0.0041: real time      0.0041
    --------------------------------------------
      LOOP:  cpu time     10.4036: real time     10.4916

 eigenvalue-minimisations  :  3168
 total energy-change (2. order) :-0.2910669E-01  (-0.2418273E-01)
 number of electron     863.9998744 magnetization      -0.2340128
 augmentation part       20.4539400 magnetization      -0.2467453

 Broyden mixing:
  rms(total) = 0.35074E+00    rms(broyden)= 0.35073E+00
  rms(prec ) = 0.36610E+00
  weight for this iteration     100.00

 eigenvalues of (default mixing * dielectric matrix)
  average eigenvalue GAMMA=   1.3656
  2.4813  1.5960  0.8059  0.5791

 Free energy of the ion-electron system (eV)
  ---------------------------------------------------
  alpha Z        PSCENC =      3110.10664883
  Ewald energy   TEWEN  =    -37506.89523773
  -Hartree energ DENC   =     -2884.32980430
  -exchange      EXHF   =         0.00000000
  -V(xc)+E(xc)   XCENC  =      3043.99954065
  PAW double counting   =     80358.20746772   -80504.80145986
  entropy T*S    EENTRO =        -0.00000000
  eigenvalues    EBANDS =       637.72287524
  atomic energy  EATOM  =     31784.05908134
  Solvation  Ediel_sol  =         0.00000000
  ---------------------------------------------------
  free energy    TOTEN  =     -1961.93088810 eV

  energy without entropy =    -1961.93088810  energy(sigma->0) =    -1961.93088810


--------------------------------------------------------------------------------------------------------




--------------------------------------- Iteration      1(  10)  ---------------------------------------


    POTLOK:  cpu time      0.0826: real time      0.0842
    SETDIJ:  cpu time      0.0187: real time      0.0188
     EDDAV:  cpu time      9.4549: real time      9.5376
       DOS:  cpu time      0.0084: real time      0.0084
    CHARGE:  cpu time      0.4108: real time      0.4126
    MIXING:  cpu time      0.0047: real time      0.0048
    --------------------------------------------
      LOOP:  cpu time      9.9802: real time     10.0663

 eigenvalue-minimisations  :  3008
 total energy-change (2. order) : 0.2498526E-01  (-0.2039808E-01)
 number of electron     863.9998743 magnetization      -0.1195053
 augmentation part       20.4826358 magnetization      -0.1218534

 Broyden mixing:
  rms(total) = 0.56593E-01    rms(broyden)= 0.56587E-01
  rms(prec ) = 0.57987E-01
  weight for this iteration     100.00

 eigenvalues of (default mixing * dielectric matrix)
  average eigenvalue GAMMA=   1.3552
  2.4707  2.0933  0.8635  0.7454  0.6032

 Free energy of the ion-electron system (eV)
  ---------------------------------------------------
  alpha Z        PSCENC =      3110.10664883
  Ewald energy   TEWEN  =    -37506.89523773
  -Hartree energ DENC   =     -2864.21877813
  -exchange      EXHF   =         0.00000000
  -V(xc)+E(xc)   XCENC  =      3042.37831373
  PAW double counting   =     82623.82454801   -82768.54402570
  entropy T*S    EENTRO =        -0.00000000
  eigenvalues    EBANDS =       617.38354681
  atomic energy  EATOM  =     31784.05908134
  Solvation  Ediel_sol  =         0.00000000
  ---------------------------------------------------
  free energy    TOTEN  =     -1961.90590284 eV

  energy without entropy =    -1961.90590284  energy(sigma->0) =    -1961.90590284


--------------------------------------------------------------------------------------------------------




--------------------------------------- Iteration      1(  11)  ---------------------------------------


    POTLOK:  cpu time      0.0826: real time      0.0836
    SETDIJ:  cpu time      0.0180: real time      0.0181
     EDDAV:  cpu time      9.5810: real time      9.6648
       DOS:  cpu time      0.0013: real time      0.0013
    CHARGE:  cpu time      0.4060: real time      0.4076
    MIXING:  cpu time      0.0044: real time      0.0045
    --------------------------------------------
      LOOP:  cpu time     10.0932: real time     10.1798

 eigenvalue-minimisations  :  3048
 total energy-change (2. order) :-0.1245391E-01  (-0.1993069E-02)
 number of electron     863.9998742 magnetization       0.0234997
 augmentation part       20.4848723 magnetization       0.0242773

 Broyden mixing:
  rms(total) = 0.17828E-01    rms(broyden)= 0.17823E-01
  rms(prec ) = 0.19206E-01
  weight for this iteration     100.00

 eigenvalues of (default mixing * dielectric matrix)
  average eigenvalue GAMMA=   1.2895
  2.4430  2.0640  1.0772  0.6141  0.8064  0.7321

 Free energy of the ion-electron system (eV)
  ---------------------------------------------------
  alpha Z        PSCENC =      3110.10664883
  Ewald energy   TEWEN  =    -37506.89523773
  -Hartree energ DENC   =     -2862.74400711
  -exchange      EXHF   =         0.00000000
  -V(xc)+E(xc)   XCENC  =      3042.26061195
  PAW double counting   =     82712.62649704   -82857.19562172
  entropy T*S    EENTRO =        -0.00000000
  eigenvalues    EBANDS =       615.86367064
  atomic energy  EATOM  =     31784.05908134
  Solvation  Ediel_sol  =         0.00000000
  ---------------------------------------------------
  free energy    TOTEN  =     -1961.91835675 eV

  energy without entropy =    -1961.91835675  energy(sigma->0) =    -1961.91835675


--------------------------------------------------------------------------------------------------------




--------------------------------------- Iteration      1(  12)  ---------------------------------------


    POTLOK:  cpu time      0.0830: real time      0.0840
    SETDIJ:  cpu time      0.0183: real time      0.0184
     EDDAV:  cpu time      9.7887: real time      9.8735
       DOS:  cpu time      0.0011: real time      0.0011
    CHARGE:  cpu time      0.4059: real time      0.4075
    MIXING:  cpu time      0.0045: real time      0.0046
    --------------------------------------------
      LOOP:  cpu time     10.3015: real time     10.3891

 eigenvalue-minimisations  :  3136
 total energy-change (2. order) :-0.1155622E-02  (-0.1332458E-03)
 number of electron     863.9998742 magnetization       0.0344379
 augmentation part       20.4843850 magnetization       0.0333952

 Broyden mixing:
  rms(total) = 0.86784E-02    rms(broyden)= 0.86783E-02
  rms(prec ) = 0.95760E-02
  weight for this iteration     100.00

 eigenvalues of (default mixing * dielectric matrix)
  average eigenvalue GAMMA=   1.4653
  2.5832  2.5832  2.1174  0.9056  0.6248  0.6808  0.7623

 Free energy of the ion-electron system (eV)
  ---------------------------------------------------
  alpha Z        PSCENC =      3110.10664883
  Ewald energy   TEWEN  =    -37506.89523773
  -Hartree energ DENC   =     -2863.80954893
  -exchange      EXHF   =         0.00000000
  -V(xc)+E(xc)   XCENC  =      3042.35665747
  PAW double counting   =     82587.02539143   -82731.62886631
  entropy T*S    EENTRO =        -0.00000000
  eigenvalues    EBANDS =       616.86636151
  atomic energy  EATOM  =     31784.05908134
  Solvation  Ediel_sol  =         0.00000000
  ---------------------------------------------------
  free energy    TOTEN  =     -1961.91951238 eV

  energy without entropy =    -1961.91951238  energy(sigma->0) =    -1961.91951238


--------------------------------------------------------------------------------------------------------




--------------------------------------- Iteration      1(  13)  ---------------------------------------


    POTLOK:  cpu time      0.0828: real time      0.0856
    SETDIJ:  cpu time      0.0180: real time      0.0181
     EDDAV:  cpu time      9.2073: real time      9.2881
       DOS:  cpu time      0.0022: real time      0.0022
    CHARGE:  cpu time      0.4048: real time      0.4065
    MIXING:  cpu time      0.0047: real time      0.0047
    --------------------------------------------
      LOOP:  cpu time      9.7198: real time      9.8051

 eigenvalue-minimisations  :  2896
 total energy-change (2. order) :-0.5348902E-03  (-0.4764493E-04)
 number of electron     863.9998742 magnetization       0.0056803
 augmentation part       20.4845266 magnetization       0.0053586

 Broyden mixing:
  rms(total) = 0.33740E-02    rms(broyden)= 0.33739E-02
  rms(prec ) = 0.34167E-02
  weight for this iteration     100.00

 eigenvalues of (default mixing * dielectric matrix)
  average eigenvalue GAMMA=   1.3956
  2.8362  2.4796  2.0586  0.9980  0.7761  0.7462  0.6189  0.6516

 Free energy of the ion-electron system (eV)
  ---------------------------------------------------
  alpha Z        PSCENC =      3110.10664883
  Ewald energy   TEWEN  =    -37506.89523773
  -Hartree energ DENC   =     -2864.50505941
  -exchange      EXHF   =         0.00000000
  -V(xc)+E(xc)   XCENC  =      3042.42601492
  PAW double counting   =     82567.79974384   -82712.38540127
  entropy T*S    EENTRO =         0.00000000
  eigenvalues    EBANDS =       617.47416220
  atomic energy  EATOM  =     31784.05908134
  Solvation  Ediel_sol  =         0.00000000
  ---------------------------------------------------
  free energy    TOTEN  =     -1961.92004727 eV

  energy without entropy =    -1961.92004727  energy(sigma->0) =    -1961.92004727


--------------------------------------------------------------------------------------------------------




--------------------------------------- Iteration      1(  14)  ---------------------------------------


    POTLOK:  cpu time      0.0826: real time      0.0836
    SETDIJ:  cpu time      0.0182: real time      0.0183
     EDDAV:  cpu time     10.1067: real time     10.1942
       DOS:  cpu time      0.0002: real time      0.0002
    CHARGE:  cpu time      0.4049: real time      0.4066
    MIXING:  cpu time      0.0049: real time      0.0050
    --------------------------------------------
      LOOP:  cpu time     10.6176: real time     10.7078

 eigenvalue-minimisations  :  3264
 total energy-change (2. order) :-0.2374352E-04  (-0.4011494E-05)
 number of electron     863.9998742 magnetization       0.0013697
 augmentation part       20.4846312 magnetization       0.0013179

 Broyden mixing:
  rms(total) = 0.44930E-03    rms(broyden)= 0.44918E-03
  rms(prec ) = 0.46212E-03
  weight for this iteration     100.00

 eigenvalues of (default mixing * dielectric matrix)
  average eigenvalue GAMMA=   1.3461
  2.8471  2.4548  2.0437  1.0925  0.8966  0.7992  0.7202  0.6305  0.6305

 Free energy of the ion-electron system (eV)
  ---------------------------------------------------
  alpha Z        PSCENC =      3110.10664883
  Ewald energy   TEWEN  =    -37506.89523773
  -Hartree energ DENC   =     -2864.47982812
  -exchange      EXHF   =         0.00000000
  -V(xc)+E(xc)   XCENC  =      3042.42538445
  PAW double counting   =     82589.90755059   -82734.48192936
  entropy T*S    EENTRO =        -0.00000000
  eigenvalues    EBANDS =       617.43825899
  atomic energy  EATOM  =     31784.05908134
  Solvation  Ediel_sol  =         0.00000000
  ---------------------------------------------------
  free energy    TOTEN  =     -1961.92007101 eV

  energy without entropy =    -1961.92007101  energy(sigma->0) =    -1961.92007101


--------------------------------------------------------------------------------------------------------




--------------------------------------- Iteration      1(  15)  ---------------------------------------


    POTLOK:  cpu time      0.0825: real time      0.0835
    SETDIJ:  cpu time      0.0179: real time      0.0181
     EDDAV:  cpu time      7.7186: real time      7.7858
       DOS:  cpu time      0.0010: real time      0.0010
    --------------------------------------------
      LOOP:  cpu time      7.8201: real time      7.8883

 eigenvalue-minimisations  :  2296
 total energy-change (2. order) :-0.6607879E-06  (-0.1164163E-06)
 number of electron     863.9998742 magnetization       0.0013697
 augmentation part       20.4846312 magnetization       0.0013179

 Free energy of the ion-electron system (eV)
  ---------------------------------------------------
  alpha Z        PSCENC =      3110.10664883
  Ewald energy   TEWEN  =    -37506.89523773
  -Hartree energ DENC   =     -2864.48227606
  -exchange      EXHF   =         0.00000000
  -V(xc)+E(xc)   XCENC  =      3042.42555032
  PAW double counting   =     82591.99588915   -82736.56987872
  entropy T*S    EENTRO =        -0.00000000
  eigenvalues    EBANDS =       617.44015120
  atomic energy  EATOM  =     31784.05908134
  Solvation  Ediel_sol  =         0.00000000
  ---------------------------------------------------
  free energy    TOTEN  =     -1961.92007167 eV

  energy without entropy =    -1961.92007167  energy(sigma->0) =    -1961.92007167


--------------------------------------------------------------------------------------------------------




 average (electrostatic) potential at core
  the test charge radii are     0.6991
  (the norm of the test charge is              1.0000)
       1 -45.4568       2 -45.4568       3 -45.4568       4 -45.4568       5 -45.4568
       6 -45.4568       7 -45.4568       8 -45.4568       9 -45.4568      10 -45.4568
      11 -45.4568      12 -45.4568      13 -45.4568      14 -45.4568      15 -45.4568
      16 -45.4568      17 -45.4568      18 -45.4568      19 -45.4568      20 -45.4568
      21 -45.4568      22 -45.4568      23 -45.4568      24 -45.4568      25 -45.4568
      26 -45.4568      27 -45.4568      28 -45.4568      29 -45.4568      30 -45.4568
      31 -45.4568      32 -45.4568      33 -45.4568      34 -45.4568      35 -45.4568
      36 -45.4568      37 -45.4568      38 -45.4568      39 -45.4568      40 -45.4568
      41 -45.4568      42 -45.4568      43 -45.4568      44 -45.4568      45 -45.4568
      46 -45.4568      47 -45.4568      48 -45.4568      49 -45.4568      50 -45.4568
      51 -45.4568      52 -45.4568      53 -45.4568      54 -45.4568      55 -45.4568
      56 -45.4568      57 -45.4568      58 -45.4568      59 -45.4568      60 -45.4568
      61 -45.4568      62 -45.4568      63 -45.4568      64 -45.4568      65 -45.4568
      66 -45.4568      67 -45.4568      68 -45.4568      69 -45.4568      70 -45.4568
      71 -45.4568      72 -45.4568      73 -45.4568      74 -45.4568      75 -45.4568
      76 -45.4568      77 -45.4568      78 -45.4568      79 -45.4568      80 -45.4568
      81 -45.4568      82 -45.4568      83 -45.4568      84 -45.4568      85 -45.4568
      86 -45.4568      87 -45.4568      88 -45.4568      89 -45.4568      90 -45.4568
      91 -45.4568      92 -45.4568      93 -45.4568      94 -45.4568      95 -45.4568
      96 -45.4568      97 -45.4568      98 -45.4568      99 -45.4568     100 -45.4568
     101 -45.4568     102 -45.4568     103 -45.4568     104 -45.4568     105 -45.4568
     106 -45.4568     107 -45.4568     108 -45.4568     109 -45.4568     110 -45.4568
     111 -45.4568     112 -45.4568     113 -45.4568     114 -45.4568     115 -45.4568
     116 -45.4568     117 -45.4568     118 -45.4568     119 -45.4568     120 -45.4568
     121 -45.4568     122 -45.4568     123 -45.4568     124 -45.4568     125 -45.4568
     126 -45.4568     127 -45.4568     128 -45.4568     129 -45.4568     130 -45.4568
     131 -45.4568     132 -45.4568     133 -45.4568     134 -45.4568     135 -45.4568
     136 -45.4568     137 -45.4568     138 -45.4568     139 -45.4568     140 -45.4568
     141 -45.4568     142 -45.4568     143 -45.4568     144 -45.4568     145 -45.4568
     146 -45.4568     147 -45.4568     148 -45.4568     149 -45.4568     150 -45.4568
     151 -45.4568     152 -45.4568     153 -45.4568     154 -45.4568     155 -45.4568
     156 -45.4568     157 -45.4568     158 -45.4568     159 -45.4568     160 -45.4568
     161 -45.4568     162 -45.4568     163 -45.4568     164 -45.4568     165 -45.4568
     166 -45.4568     167 -45.4568     168 -45.4568     169 -45.4568     170 -45.4568
     171 -45.4568     172 -45.4568     173 -45.4568     174 -45.4568     175 -45.4568
     176 -45.4568     177 -45.4568     178 -45.4568     179 -45.4568     180 -45.4568
     181 -45.4568     182 -45.4568     183 -45.4568     184 -45.4568     185 -45.4568
     186 -45.4568     187 -45.4568     188 -45.4568     189 -45.4568     190 -45.4568
     191 -45.4568     192 -45.4568     193 -45.4568     194 -45.4568     195 -45.4568
     196 -45.4568     197 -45.4568     198 -45.4568     199 -45.4568     200 -45.4568
     201 -45.4568     202 -45.4568     203 -45.4568     204 -45.4568     205 -45.4568
     206 -45.4568     207 -45.4568     208 -45.4568     209 -45.4568     210 -45.4568
     211 -45.4568     212 -45.4568     213 -45.4568     214 -45.4568     215 -45.4568
     216 -45.4568
 
 
 
 E-fermi :   9.7407     XC(G=0): -13.2195     alpha+bet :-17.5671

 val. band max:        9.6515685643   @ k =   0.0000   0.0000   0.0000
 cond. band min:      13.7890646277   @ k =   0.0000   0.0000   0.0000
 fundamental gap:      4.1374960634
 Fermi energy:         9.7407084805

 spin component 1

 k-point     1 :       0.0000    0.0000    0.0000
  band No.  band energies     occupation 
      1     -11.7488      1.00000
      2     -10.7309      1.00000
      3     -10.7309      1.00000
      4     -10.7309      1.00000
      5     -10.7309      1.00000
      6     -10.7309      1.00000
      7     -10.7309      1.00000
      8      -9.7271      1.00000
      9      -9.7271      1.00000
     10      -9.7271      1.00000
     11      -9.7271      1.00000
     12      -9.7271      1.00000
     13      -9.7271      1.00000
     14      -9.7271      1.00000
     15      -9.7271      1.00000
     16      -9.7271      1.00000
     17      -9.7271      1.00000
     18      -9.7271      1.00000
     19      -9.7271      1.00000
     20      -8.7451      1.00000
     21      -8.7451      1.00000
     22      -8.7451      1.00000
     23      -8.7451      1.00000
     24      -8.7451      1.00000
     25      -8.7451      1.00000
     26      -8.7451      1.00000
     27      -8.7451      1.00000
     28      -7.7438      1.00000
     29      -7.7438      1.00000
     30      -7.7438      1.00000
     31      -7.7438      1.00000
     32      -7.7438      1.00000
     33      -7.7438      1.00000
     34      -6.8126      1.00000
     35      -6.8126      1.00000
     36      -6.8126      1.00000
     37      -6.8126      1.00000
     38      -6.8126      1.00000
     39      -6.8126      1.00000
     40      -6.8126      1.00000
     41      -6.8126      1.00000
     42      -6.8126      1.00000
     43      -6.8126      1.00000
     44      -6.8126      1.00000
     45      -6.8126      1.00000
     46      -6.8126      1.00000
     47      -6.8126      1.00000
     48      -6.8126      1.00000
     49      -6.8126      1.00000
     50      -6.8126      1.00000
     51      -6.8126      1.00000
     52      -6.8126      1.00000
     53      -6.8126      1.00000
     54      -6.8126      1.00000
     55      -6.8126      1.00000
     56      -6.8126      1.00000
     57      -6.8126      1.00000
     58      -6.0227      1.00000
     59      -6.0227      1.00000
     60      -6.0227      1.00000
     61      -6.0227      1.00000
     62      -6.0227      1.00000
     63      -6.0227      1.00000
     64      -6.0227      1.00000
     65      -6.0227      1.00000
     66      -6.0227      1.00000
     67      -6.0227      1.00000
     68      -6.0227      1.00000
     69      -6.0227      1.00000
     70      -6.0227      1.00000
     71      -6.0227      1.00000
     72      -6.0227      1.00000
     73      -6.0227      1.00000
     74      -6.0227      1.00000
     75      -6.0227      1.00000
     76      -6.0227      1.00000
     77      -6.0227      1.00000
     78      -6.0227      1.00000
     79      -6.0227      1.00000
     80      -6.0227      1.00000
     81      -6.0227      1.00000
     82      -4.3609      1.00000
     83      -4.3609      1.00000
     84      -4.3609      1.00000
     85      -4.3609      1.00000
     86      -4.3609      1.00000
     87      -4.3609      1.00000
     88      -4.3609      1.00000
     89      -4.3609      1.00000
     90      -4.3609      1.00000
     91      -4.3609      1.00000
     92      -4.3609      1.00000
     93      -4.3609      1.00000
     94      -3.0716      1.00000
     95      -3.0716      1.00000
     96      -3.0716      1.00000
     97      -3.0716      1.00000
     98      -3.0716      1.00000
     99      -3.0716      1.00000
    100      -2.5332      1.00000
    101      -2.5332      1.00000
    102      -2.5332      1.00000
    103      -2.5332      1.00000
    104      -2.5332      1.00000
    105      -2.5332      1.00000
    106      -2.5332      1.00000
    107      -2.5332      1.00000
    108      -2.5332      1.00000
    109      -2.5332      1.00000
    110      -2.5332      1.00000
    111      -2.5332      1.00000
    112      -2.5332      1.00000
    113      -2.5332      1.00000
    114      -2.5332      1.00000
    115      -2.5332      1.00000
    116      -2.5332      1.00000
    117      -2.5332      1.00000
    118      -2.5332      1.00000
    119      -2.5332      1.00000
    120      -2.5332      1.00000
    121      -2.5332      1.00000
    122      -2.5332      1.00000
    123      -2.5332      1.00000
    124      -2.3094      1.00000
    125      -2.3094      1.00000
    126      -2.3094      1.00000
    127      -2.3094      1.00000
    128      -2.3094      1.00000
    129      -2.3094      1.00000
    130      -2.3094      1.00000
    131      -2.3094      1.00000
    132      -2.3094      1.00000
    133      -2.3094      1.00000
    134      -2.3094      1.00000
    135      -2.3094      1.00000
    136      -2.3094      1.00000
    137      -2.3094      1.00000
    138      -2.3094      1.00000
    139      -2.3094      1.00000
    140      -2.3094      1.00000
    141      -2.3094      1.00000
    142      -2.3094      1.00000
    143      -2.3094      1.00000
    144      -2.3094      1.00000
    145      -2.3094      1.00000
    146      -2.3094      1.00000
    147      -2.3094      1.00000
    148      -1.2493      1.00000
    149      -1.2493      1.00000
    150      -1.2493      1.00000
    151      -1.2493      1.00000
    152      -1.2493      1.00000
    153      -1.2493      1.00000
    154      -1.2493      1.00000
    155      -1.2493      1.00000
    156      -1.2493      1.00000
    157      -1.2493      1.00000
    158      -1.2493      1.00000
    159      -1.2493      1.00000
    160       0.3198      1.00000
    161       0.3198      1.00000
    162       0.3198      1.00000
    163       0.3198      1.00000
    164       0.3198      1.00000
    165       0.3198      1.00000
    166       0.3198      1.00000
    167       0.3198      1.00000
    168       0.3274      1.00000
    169       0.3274      1.00000
    170       0.3274      1.00000
    171       0.3274      1.00000
    172       0.3274      1.00000
    173       0.3274      1.00000
    174       0.3274      1.00000
    175       0.3274      1.00000
    176       0.3274      1.00000
    177       0.3274      1.00000
    178       0.3274      1.00000
    179       0.3274      1.00000
    180       0.9863      1.00000
    181       0.9863      1.00000
    182       0.9863      1.00000
    183       0.9863      1.00000
    184       0.9863      1.00000
    185       0.9863      1.00000
    186       0.9863      1.00000
    187       0.9863      1.00000
    188       0.9863      1.00000
    189       0.9863      1.00000
    190       0.9863      1.00000
    191       0.9863      1.00000
    192       0.9863      1.00000
    193       0.9863      1.00000
    194       0.9863      1.00000
    195       0.9863      1.00000
    196       0.9863      1.00000
    197       0.9863      1.00000
    198       0.9863      1.00000
    199       0.9863      1.00000
    200       0.9863      1.00000
    201       0.9863      1.00000
    202       0.9863      1.00000
    203       0.9863      1.00000
    204       1.8857      1.00000
    205       1.8857      1.00000
    206       1.8857      1.00000
    207       1.8857      1.00000
    208       1.8857      1.00000
    209       1.8857      1.00000
    210       1.8857      1.00000
    211       1.8857      1.00000
    212       1.8857      1.00000
    213       1.8857      1.00000
    214       1.8857      1.00000
    215       1.8857      1.00000
    216       1.8857      1.00000
    217       1.8857      1.00000
    218       1.8857      1.00000
    219       1.8857      1.00000
    220       1.8857      1.00000
    221       1.8857      1.00000
    222       1.8857      1.00000
    223       1.8857      1.00000
    224       1.8857      1.00000
    225       1.8857      1.00000
    226       1.8857      1.00000
    227       1.8857      1.00000
    228       2.3779      1.00000
    229       2.3779      1.00000
    230       2.3779      1.00000
    231       2.3779      1.00000
    232       2.3779      1.00000
    233       2.3779      1.00000
    234       2.3779      1.00000
    235       2.3779      1.00000
    236       2.3779      1.00000
    237       2.3779      1.00000
    238       2.3779      1.00000
    239       2.3779      1.00000
    240       2.3779      1.00000
    241       2.3779      1.00000
    242       2.3779      1.00000
    243       2.3779      1.00000
    244       2.3779      1.00000
    245       2.3779      1.00000
    246       2.3779      1.00000
    247       2.3779      1.00000
    248       2.3779      1.00000
    249       2.3779      1.00000
    250       2.3779      1.00000
    251       2.3779      1.00000
    252       2.4898      1.00000
    253       2.4898      1.00000
    254       2.4898      1.00000
    255       2.4898      1.00000
    256       2.4898      1.00000
    257       2.4898      1.00000
    258       3.3875      1.00000
    259       3.3875      1.00000
    260       3.3875      1.00000
    261       3.3875      1.00000
    262       3.3875      1.00000
    263       3.3875      1.00000
    264       3.9750      1.00000
    265       3.9750      1.00000
    266       3.9750      1.00000
    267       3.9750      1.00000
    268       3.9750      1.00000
    269       3.9750      1.00000
    270       3.9750      1.00000
    271       3.9750      1.00000
    272       3.9750      1.00000
    273       3.9750      1.00000
    274       3.9750      1.00000
    275       3.9750      1.00000
    276       4.3702      1.00000
    277       4.3702      1.00000
    278       4.3702      1.00000
    279       4.3702      1.00000
    280       4.3702      1.00000
    281       4.3702      1.00000
    282       4.3702      1.00000
    283       4.3702      1.00000
    284       4.3702      1.00000
    285       4.3702      1.00000
    286       4.3702      1.00000
    287       4.3702      1.00000
    288       4.6846      1.00000
    289       4.6846      1.00000
    290       4.6846      1.00000
    291       4.6846      1.00000
    292       4.6846      1.00000
    293       4.6846      1.00000
    294       4.6846      1.00000
    295       4.6846      1.00000
    296       4.6846      1.00000
    297       4.6846      1.00000
    298       4.6846      1.00000
    299       4.6846      1.00000
    300       4.6846      1.00000
    301       4.6846      1.00000
    302       4.6846      1.00000
    303       4.6846      1.00000
    304       4.6846      1.00000
    305       4.6846      1.00000
    306       4.6846      1.00000
    307       4.6846      1.00000
    308       4.6846      1.00000
    309       4.6846      1.00000
    310       4.6846      1.00000
    311       4.6846      1.00000
    312       4.8682      1.00000
    313       4.8682      1.00000
    314       4.8682      1.00000
    315       4.8682      1.00000
    316       4.8682      1.00000
    317       4.8682      1.00000
    318       4.8682      1.00000
    319       4.8682      1.00000
    320       4.8682      1.00000
    321       4.8682      1.00000
    322       4.8682      1.00000
    323       4.8682      1.00000
    324       4.8726      1.00000
    325       4.8726      1.00000
    326       4.8726      1.00000
    327       4.8726      1.00000
    328       4.8726      1.00000
    329       4.8726      1.00000
    330       4.8726      1.00000
    331       4.8726      1.00000
    332       4.8726      1.00000
    333       4.8726      1.00000
    334       4.8726      1.00000
    335       4.8726      1.00000
    336       4.8726      1.00000
    337       4.8726      1.00000
    338       4.8726      1.00000
    339       4.8726      1.00000
    340       4.8726      1.00000
    341       4.8726      1.00000
    342       4.8726      1.00000
    343       4.8726      1.00000
    344       4.8726      1.00000
    345       4.8726      1.00000
    346       4.8726      1.00000
    347       4.8726      1.00000
    348       4.9917      1.00000
    349       4.9917      1.00000
    350       4.9917      1.00000
    351       4.9917      1.00000
    352       4.9917      1.00000
    353       4.9917      1.00000
    354       4.9917      1.00000
    355       4.9917      1.00000
    356       4.9917      1.00000
    357       4.9917      1.00000
    358       4.9917      1.00000
    359       4.9917      1.00000
    360       5.7072      1.00000
    361       5.7072      1.00000
    362       5.7072      1.00000
    363       5.7072      1.00000
    364       5.7072      1.00000
    365       5.7072      1.00000
    366       5.7072      1.00000
    367       5.7072      1.00000
    368       5.7072      1.00000
    369       5.7072      1.00000
    370       5.7072      1.00000
    371       5.7072      1.00000
    372       5.7072      1.00000
    373       5.7072      1.00000
    374       5.7072      1.00000
    375       5.7072      1.00000
    376       5.7072      1.00000
    377       5.7072      1.00000
    378       5.7072      1.00000
    379       5.7072      1.00000
    380       5.7072      1.00000
    381       5.7072      1.00000
    382       5.7072      1.00000
    383       5.7072      1.00000
    384       7.0947      1.00000
    385       7.0947      1.00000
    386       7.0947      1.00000
    387       7.0947      1.00000
    388       7.0947      1.00000
    389       7.0947      1.00000
    390       7.0947      1.00000
    391       7.0947      1.00000
    392       7.0947      1.00000
    393       7.0947      1.00000
    394       7.0947      1.00000
    395       7.0947      1.00000
    396       7.3445      1.00000
    397       7.3445      1.00000
    398       7.3445      1.00000
    399       7.3445      1.00000
    400       7.3445      1.00000
    401       7.3445      1.00000
    402       7.3445      1.00000
    403       7.3445      1.00000
    404       7.3445      1.00000
    405       7.3445      1.00000
    406       7.3445      1.00000
    407       7.3445      1.00000
    408       7.3445      1.00000
    409       7.3445      1.00000
    410       7.3445      1.00000
    411       7.3445      1.00000
    412       7.4130      1.00000
    413       7.4130      1.00000
    414       7.4130      1.00000
    415       7.4130      1.00000
    416       7.4130      1.00000
    417       7.4130      1.00000
    418       8.2825      1.00000
    419       8.2825      1.00000
    420       8.2825      1.00000
    421       8.2825      1.00000
    422       8.2825      1.00000
    423       8.2825      1.00000
    424       8.2825      1.00000
    425       8.2825      1.00000
    426       8.2825      1.00000
    427       8.2825      1.00000
    428       8.2825      1.00000
    429       8.2825      1.00000
    430       9.6516      1.00000
    431       9.6516      1.00000
    432       9.6516      1.00000
    433      13.7891      0.00000
    434      13.7891      0.00000
    435      13.7891      0.00000
    436      13.7891      0.00000
    437      13.7891      0.00000
    438      13.7891      0.00000
    439      14.3950      0.00000
    440      14.3950      0.00000
    441      14.3950      0.00000
    442      14.3950      0.00000
    443      14.3950      0.00000
    444      14.3950      0.00000
    445      14.5632      0.00000
    446      14.5632      0.00000
    447      14.5632      0.00000
    448      14.5632      0.00000
    449      14.5632      0.00000
    450      14.5632      0.00000
    451      15.2247      0.00000
    452      15.2247      0.00000
    453      15.2247      0.00000
    454      15.9804      0.00000
    455      15.9804      0.00000
    456      15.9804      0.00000
    457      15.9804      0.00000
    458      15.9804      0.00000
    459      15.9804      0.00000
    460      15.9804      0.00000
    461      15.9804      0.00000
    462      15.9804      0.00000
    463      15.9804      0.00000
    464      15.9804      0.00000
    465      15.9804      0.00000
    466      16.7250      0.00000
    467      16.7250      0.00000
    468      16.7250      0.00000
    469      16.7250      0.00000
    470      16.7250      0.00000
    471      16.7250      0.00000
    472      16.7250      0.00000
    473      16.7250      0.00000
    474      16.7250      0.00000
    475      16.7250      0.00000
    476      16.7250      0.00000
    477      16.7250      0.00000
    478      16.7250      0.00000
    479      16.7250      0.00000
    480      16.7250      0.00000
    481      16.7250      0.00000
    482      16.7250      0.00000
    483      16.7250      0.00000
    484      16.7250      0.00000
    485      16.7250      0.00000
    486      16.7250      0.00000
    487      16.7250      0.00000
    488      16.7250      0.00000
    489      16.7250      0.00000
    490      17.2507      0.00000
    491      17.2507      0.00000
    492      17.2507      0.00000
    493      17.2507      0.00000
    494      17.2507      0.00000
    495      17.2507      0.00000
    496      17.2507      0.00000
    497      17.2507      0.00000
    498      17.2507      0.00000
    499      17.2507      0.00000
    500      17.2507      0.00000
    501      17.2507      0.00000
    502      17.3210      0.00000
    503      17.3210      0.00000
    504      17.3210      0.00000
    505      17.3210      0.00000
    506      17.3210      0.00000
    507      17.3210      0.00000
    508      17.3210      0.00000
    509      17.3210      0.00000
    510      17.3210      0.00000
    511      17.3210      0.00000
    512      17.3210      0.00000
    513      17.3210      0.00000
    514      17.3210      0.00000
    515      17.3210      0.00000
    516      17.3210      0.00000
    517      17.3210      0.00000
    518      17.3210      0.00000
    519      17.3210      0.00000
    520      17.3210      0.00000
    521      17.3210      0.00000
    522      17.3210      0.00000
    523      17.3210      0.00000
    524      17.3210      0.00000
    525      17.3210      0.00000
    526      17.3690      0.00000
    527      17.3690      0.00000
    528      17.3690      0.00000
    529      17.3690      0.00000
    530      17.3690      0.00000
    531      17.3690      0.00000
    532      17.8432      0.00000
    533      17.8432      0.00000
    534      17.8432      0.00000
    535      17.8432      0.00000
    536      17.8432      0.00000
    537      17.8432      0.00000
    538      17.8432      0.00000
    539      17.8432      0.00000
    540      17.8432      0.00000
    541      17.8432      0.00000
    542      17.8432      0.00000
    543      17.8432      0.00000
    544      17.8432      0.00000
    545      17.8432      0.00000
    546      17.8432      0.00000
    547      17.8432      0.00000
    548      17.8432      0.00000
    549      17.8432      0.00000
    550      17.8432      0.00000
    551      17.8432      0.00000
    552      17.8432      0.00000
    553      17.8432      0.00000
    554      17.8432      0.00000
    555      17.8432      0.00000
    556      17.9002      0.00000
    557      17.9002      0.00000
    558      17.9002      0.00000
    559      17.9002      0.00000
    560      17.9002      0.00000
    561      17.9002      0.00000
    562      17.9002      0.00000
    563      17.9002      0.00000
    564      17.9002      0.00000
    565      17.9002      0.00000
    566      17.9002      0.00000
    567      17.9002      0.00000
    568      17.9002      0.00000
    569      17.9002      0.00000
    570      17.9002      0.00000
    571      17.9002      0.00000
    572      18.1531      0.00000
    573      18.1531      0.00000
    574      18.1531      0.00000
    575      18.1531      0.00000
    576      18.1531      0.00000
    577      18.1531      0.00000
    578      18.1531      0.00000
    579      18.1531      0.00000
    580      18.2359      0.00000
    581      18.2359      0.00000
    582      18.2359      0.00000
    583      18.2359      0.00000
    584      18.2359      0.00000
    585      18.2359      0.00000
    586      18.2359      0.00000
    587      18.2359      0.00000
    588      18.2359      0.00000
    589      18.2359      0.00000
    590      18.2359      0.00000
    591      18.2359      0.00000
    592      18.6382      0.00000
    593      18.6382      0.00000
    594      18.6382      0.00000
    595      18.6382      0.00000
    596      18.6382      0.00000
    597      18.6382      0.00000
    598      18.6382      0.00000
    599      18.6382      0.00000
    600      18.6382      0.00000
    601      18.6382      0.00000
    602      18.6382      0.00000
    603      18.6382      0.00000
    604      18.9628      0.00000
    605      18.9628      0.00000
    606      18.9628      0.00000
    607      18.9628      0.00000
    608      18.9628      0.00000
    609      18.9628      0.00000
    610      18.9628      0.00000
    611      18.9628      0.00000
    612      18.9628      0.00000
    613      18.9628      0.00000
    614      18.9628      0.00000
    615      18.9628      0.00000
    616      19.6261      0.00000
    617      19.6261      0.00000
    618      19.6261      0.00000
    619      19.6261      0.00000
    620      19.6261      0.00000
    621      19.6261      0.00000
    622      19.6261      0.00000
    623      19.6261      0.00000
    624      19.6261      0.00000
    625      19.6261      0.00000
    626      19.6261      0.00000
    627      19.6261      0.00000
    628      19.6261      0.00000
    629      19.6261      0.00000
    630      19.6261      0.00000
    631      19.6261      0.00000
    632      19.6261      0.00000
    633      19.6261      0.00000
    634      19.6261      0.00000
    635      19.6261      0.00000
    636      19.6261      0.00000
    637      19.6261      0.00000
    638      19.6262      0.00000
    639      19.6264      0.00000
    640      20.3317      0.00000
    641      20.3317      0.00000
    642      20.3320      0.00000
    643      20.3321      0.00000
    644      20.3324      0.00000
    645      20.3326      0.00000
    646      20.3331      0.00000
    647      20.3340      0.00000
    648      20.3341      0.00000
    649      20.3348      0.00000
    650      20.3365      0.00000
    651      20.3390      0.00000
    652      20.3451      0.00000
 Fermi energy:         9.7407084805

 spin component 2

 k-point     1 :       0.0000    0.0000    0.0000
  band No.  band energies     occupation 
      1     -11.7488      1.00000
      2     -10.7309      1.00000
      3     -10.7309      1.00000
      4     -10.7309      1.00000
      5     -10.7309      1.00000
      6     -10.7309      1.00000
      7     -10.7309      1.00000
      8      -9.7271      1.00000
      9      -9.7271      1.00000
     10      -9.7271      1.00000
     11      -9.7271      1.00000
     12      -9.7271      1.00000
     13      -9.7271      1.00000
     14      -9.7271      1.00000
     15      -9.7271      1.00000
     16      -9.7271      1.00000
     17      -9.7271      1.00000
     18      -9.7271      1.00000
     19      -9.7271      1.00000
     20      -8.7450      1.00000
     21      -8.7450      1.00000
     22      -8.7450      1.00000
     23      -8.7450      1.00000
     24      -8.7450      1.00000
     25      -8.7450      1.00000
     26      -8.7450      1.00000
     27      -8.7450      1.00000
     28      -7.7438      1.00000
     29      -7.7438      1.00000
     30      -7.7438      1.00000
     31      -7.7438      1.00000
     32      -7.7438      1.00000
     33      -7.7438      1.00000
     34      -6.8126      1.00000
     35      -6.8126      1.00000
     36      -6.8126      1.00000
     37      -6.8126      1.00000
     38      -6.8126      1.00000
     39      -6.8126      1.00000
     40      -6.8126      1.00000
     41      -6.8126      1.00000
     42      -6.8126      1.00000
     43      -6.8126      1.00000
     44      -6.8126      1.00000
     45      -6.8126      1.00000
     46      -6.8126      1.00000
     47      -6.8126      1.00000
     48      -6.8126      1.00000
     49      -6.8126      1.00000
     50      -6.8126      1.00000
     51      -6.8126      1.00000
     52      -6.8126      1.00000
     53      -6.8126      1.00000
     54      -6.8126      1.00000
     55      -6.8126      1.00000
     56      -6.8126      1.00000
     57      -6.8126      1.00000
     58      -6.0226      1.00000
     59      -6.0226      1.00000
     60      -6.0226      1.00000
     61      -6.0226      1.00000
     62      -6.0226      1.00000
     63      -6.0226      1.00000
     64      -6.0226      1.00000
     65      -6.0226      1.00000
     66      -6.0226      1.00000
     67      -6.0226      1.00000
     68      -6.0226      1.00000
     69      -6.0226      1.00000
     70      -6.0226      1.00000
     71      -6.0226      1.00000
     72      -6.0226      1.00000
     73      -6.0226      1.00000
     74      -6.0226      1.00000
     75      -6.0226      1.00000
     76      -6.0226      1.00000
     77      -6.0226      1.00000
     78      -6.0226      1.00000
     79      -6.0226      1.00000
     80      -6.0226      1.00000
     81      -6.0226      1.00000
     82      -4.3609      1.00000
     83      -4.3609      1.00000
     84      -4.3609      1.00000
     85      -4.3609      1.00000
     86      -4.3609      1.00000
     87      -4.3609      1.00000
     88      -4.3609      1.00000
     89      -4.3609      1.00000
     90      -4.3609      1.00000
     91      -4.3609      1.00000
     92      -4.3609      1.00000
     93      -4.3609      1.00000
     94      -3.0716      1.00000
     95      -3.0716      1.00000
     96      -3.0716      1.00000
     97      -3.0716      1.00000
     98      -3.0716      1.00000
     99      -3.0716      1.00000
    100      -2.5332      1.00000
    101      -2.5332      1.00000
    102      -2.5332      1.00000
    103      -2.5332      1.00000
    104      -2.5332      1.00000
    105      -2.5332      1.00000
    106      -2.5332      1.00000
    107      -2.5332      1.00000
    108      -2.5332      1.00000
    109      -2.5332      1.00000
    110      -2.5332      1.00000
    111      -2.5332      1.00000
    112      -2.5332      1.00000
    113      -2.5332      1.00000
    114      -2.5332      1.00000
    115      -2.5332      1.00000
    116      -2.5332      1.00000
    117      -2.5332      1.00000
    118      -2.5332      1.00000
    119      -2.5332      1.00000
    120      -2.5332      1.00000
    121      -2.5332      1.00000
    122      -2.5332      1.00000
    123      -2.5332      1.00000
    124      -2.3094      1.00000
    125      -2.3094      1.00000
    126      -2.3094      1.00000
    127      -2.3094      1.00000
    128      -2.3094      1.00000
    129      -2.3094      1.00000
    130      -2.3094      1.00000
    131      -2.3094      1.00000
    132      -2.3094      1.00000
    133      -2.3094      1.00000
    134      -2.3094      1.00000
    135      -2.3094      1.00000
    136      -2.3094      1.00000
    137      -2.3094      1.00000
    138      -2.3094      1.00000
    139      -2.3094      1.00000
    140      -2.3094      1.00000
    141      -2.3094      1.00000
    142      -2.3094      1.00000
    143      -2.3094      1.00000
    144      -2.3094      1.00000
    145      -2.3094      1.00000
    146      -2.3094      1.00000
    147      -2.3094      1.00000
    148      -1.2493      1.00000
    149      -1.2493      1.00000
    150      -1.2493      1.00000
    151      -1.2493      1.00000
    152      -1.2493      1.00000
    153      -1.2493      1.00000
    154      -1.2493      1.00000
    155      -1.2493      1.00000
    156      -1.2493      1.00000
    157      -1.2493      1.00000
    158      -1.2493      1.00000
    159      -1.2493      1.00000
    160       0.3198      1.00000
    161       0.3198      1.00000
    162       0.3198      1.00000
    163       0.3198      1.00000
    164       0.3198      1.00000
    165       0.3198      1.00000
    166       0.3198      1.00000
    167       0.3198      1.00000
    168       0.3274      1.00000
    169       0.3274      1.00000
    170       0.3274      1.00000
    171       0.3274      1.00000
    172       0.3274      1.00000
    173       0.3274      1.00000
    174       0.3274      1.00000
    175       0.3274      1.00000
    176       0.3274      1.00000
    177       0.3274      1.00000
    178       0.3274      1.00000
    179       0.3274      1.00000
    180       0.9863      1.00000
    181       0.9863      1.00000
    182       0.9863      1.00000
    183       0.9863      1.00000
    184       0.9863      1.00000
    185       0.9863      1.00000
    186       0.9863      1.00000
    187       0.9863      1.00000
    188       0.9863      1.00000
    189       0.9863      1.00000
    190       0.9863      1.00000
    191       0.9863      1.00000
    192       0.9863      1.00000
    193       0.9863      1.00000
    194       0.9863      1.00000
    195       0.9863      1.00000
    196       0.9863      1.00000
    197       0.9863      1.00000
    198       0.9863      1.00000
    199       0.9863      1.00000
    200       0.9863      1.00000
    201       0.9863      1.00000
    202       0.9863      1.00000
    203       0.9863      1.00000
    204       1.8857      1.00000
    205       1.8857      1.00000
    206       1.8857      1.00000
    207       1.8857      1.00000
    208       1.8857      1.00000
    209       1.8857      1.00000
    210       1.8857      1.00000
    211       1.8857      1.00000
    212       1.8857      1.00000
    213       1.8857      1.00000
    214       1.8857      1.00000
    215       1.8857      1.00000
    216       1.8857      1.00000
    217       1.8857      1.00000
    218       1.8857      1.00000
    219       1.8857      1.00000
    220       1.8857      1.00000
    221       1.8857      1.00000
    222       1.8857      1.00000
    223       1.8857      1.00000
    224       1.8857      1.00000
    225       1.8857      1.00000
    226       1.8857      1.00000
    227       1.8857      1.00000
    228       2.3779      1.00000
    229       2.3779      1.00000
    230       2.3779      1.00000
    231       2.3779      1.00000
    232       2.3779      1.00000
    233       2.3779      1.00000
    234       2.3779      1.00000
    235       2.3779      1.00000
    236       2.3779      1.00000
    237       2.3779      1.00000
    238       2.3779      1.00000
    239       2.3779      1.00000
    240       2.3779      1.00000
    241       2.3779      1.00000
    242       2.3779      1.00000
    243       2.3779      1.00000
    244       2.3779      1.00000
    245       2.3779      1.00000
    246       2.3779      1.00000
    247       2.3779      1.00000
    248       2.3779      1.00000
    249       2.3779      1.00000
    250       2.3779      1.00000
    251       2.3779      1.00000
    252       2.4898      1.00000
    253       2.4898      1.00000
    254       2.4898      1.00000
    255       2.4898      1.00000
    256       2.4898      1.00000
    257       2.4898      1.00000
    258       3.3875      1.00000
    259       3.3875      1.00000
    260       3.3875      1.00000
    261       3.3875      1.00000
    262       3.3875      1.00000
    263       3.3875      1.00000
    264       3.9750      1.00000
    265       3.9750      1.00000
    266       3.9750      1.00000
    267       3.9750      1.00000
    268       3.9750      1.00000
    269       3.9750      1.00000
    270       3.9750      1.00000
    271       3.9750      1.00000
    272       3.9750      1.00000
    273       3.9750      1.00000
    274       3.9750      1.00000
    275       3.9750      1.00000
    276       4.3702      1.00000
    277       4.3702      1.00000
    278       4.3702      1.00000
    279       4.3702      1.00000
    280       4.3702      1.00000
    281       4.3702      1.00000
    282       4.3702      1.00000
    283       4.3702      1.00000
    284       4.3702      1.00000
    285       4.3702      1.00000
    286       4.3702      1.00000
    287       4.3702      1.00000
    288       4.6846      1.00000
    289       4.6846      1.00000
    290       4.6846      1.00000
    291       4.6846      1.00000
    292       4.6846      1.00000
    293       4.6846      1.00000
    294       4.6846      1.00000
    295       4.6846      1.00000
    296       4.6846      1.00000
    297       4.6846      1.00000
    298       4.6846      1.00000
    299       4.6846      1.00000
    300       4.6846      1.00000
    301       4.6846      1.00000
    302       4.6846      1.00000
    303       4.6846      1.00000
    304       4.6846      1.00000
    305       4.6846      1.00000
    306       4.6846      1.00000
    307       4.6846      1.00000
    308       4.6846      1.00000
    309       4.6846      1.00000
    310       4.6846      1.00000
    311       4.6846      1.00000
    312       4.8682      1.00000
    313       4.8682      1.00000
    314       4.8682      1.00000
    315       4.8682      1.00000
    316       4.8682      1.00000
    317       4.8682      1.00000
    318       4.8682      1.00000
    319       4.8682      1.00000
    320       4.8682      1.00000
    321       4.8682      1.00000
    322       4.8682      1.00000
    323       4.8682      1.00000
    324       4.8726      1.00000
    325       4.8726      1.00000
    326       4.8726      1.00000
    327       4.8726      1.00000
    328       4.8726      1.00000
    329       4.8726      1.00000
    330       4.8726      1.00000
    331       4.8726      1.00000
    332       4.8726      1.00000
    333       4.8726      1.00000
    334       4.8726      1.00000
    335       4.8726      1.00000
    336       4.8726      1.00000
    337       4.8726      1.00000
    338       4.8726      1.00000
    339       4.8726      1.00000
    340       4.8726      1.00000
    341       4.8726      1.00000
    342       4.8726      1.00000
    343       4.8726      1.00000
    344       4.8726      1.00000
    345       4.8726      1.00000
    346       4.8726      1.00000
    347       4.8726      1.00000
    348       4.9917      1.00000
    349       4.9917      1.00000
    350       4.9917      1.00000
    351       4.9917      1.00000
    352       4.9917      1.00000
    353       4.9917      1.00000
    354       4.9917      1.00000
    355       4.9917      1.00000
    356       4.9917      1.00000
    357       4.9917      1.00000
    358       4.9917      1.00000
    359       4.9917      1.00000
    360       5.7072      1.00000
    361       5.7072      1.00000
    362       5.7072      1.00000
    363       5.7072      1.00000
    364       5.7072      1.00000
    365       5.7072      1.00000
    366       5.7072      1.00000
    367       5.7072      1.00000
    368       5.7072      1.00000
    369       5.7072      1.00000
    370       5.7072      1.00000
    371       5.7072      1.00000
    372       5.7072      1.00000
    373       5.7072      1.00000
    374       5.7072      1.00000
    375       5.7072      1.00000
    376       5.7072      1.00000
    377       5.7072      1.00000
    378       5.7072      1.00000
    379       5.7072      1.00000
    380       5.7072      1.00000
    381       5.7072      1.00000
    382       5.7072      1.00000
    383       5.7072      1.00000
    384       7.0947      1.00000
    385       7.0947      1.00000
    386       7.0947      1.00000
    387       7.0947      1.00000
    388       7.0947      1.00000
    389       7.0947      1.00000
    390       7.0947      1.00000
    391       7.0947      1.00000
    392       7.0947      1.00000
    393       7.0947      1.00000
    394       7.0947      1.00000
    395       7.0947      1.00000
    396       7.3445      1.00000
    397       7.3445      1.00000
    398       7.3445      1.00000
    399       7.3445      1.00000
    400       7.3445      1.00000
    401       7.3445      1.00000
    402       7.3445      1.00000
    403       7.3445      1.00000
    404       7.3445      1.00000
    405       7.3445      1.00000
    406       7.3445      1.00000
    407       7.3445      1.00000
    408       7.3445      1.00000
    409       7.3445      1.00000
    410       7.3445      1.00000
    411       7.3445      1.00000
    412       7.4130      1.00000
    413       7.4130      1.00000
    414       7.4130      1.00000
    415       7.4130      1.00000
    416       7.4130      1.00000
    417       7.4130      1.00000
    418       8.2825      1.00000
    419       8.2825      1.00000
    420       8.2825      1.00000
    421       8.2825      1.00000
    422       8.2825      1.00000
    423       8.2825      1.00000
    424       8.2825      1.00000
    425       8.2825      1.00000
    426       8.2825      1.00000
    427       8.2825      1.00000
    428       8.2825      1.00000
    429       8.2825      1.00000
    430       9.6516      1.00000
    431       9.6516      1.00000
    432       9.6516      1.00000
    433      13.7891      0.00000
    434      13.7891      0.00000
    435      13.7891      0.00000
    436      13.7891      0.00000
    437      13.7891      0.00000
    438      13.7891      0.00000
    439      14.3950      0.00000
    440      14.3950      0.00000
    441      14.3950      0.00000
    442      14.3950      0.00000
    443      14.3950      0.00000
    444      14.3950      0.00000
    445      14.5632      0.00000
    446      14.5632      0.00000
    447      14.5632      0.00000
    448      14.5632      0.00000
    449      14.5632      0.00000
    450      14.5632      0.00000
    451      15.2247      0.00000
    452      15.2247      0.00000
    453      15.2247      0.00000
    454      15.9805      0.00000
    455      15.9805      0.00000
    456      15.9805      0.00000
    457      15.9805      0.00000
    458      15.9805      0.00000
    459      15.9805      0.00000
    460      15.9805      0.00000
    461      15.9805      0.00000
    462      15.9805      0.00000
    463      15.9805      0.00000
    464      15.9805      0.00000
    465      15.9805      0.00000
    466      16.7250      0.00000
    467      16.7250      0.00000
    468      16.7250      0.00000
    469      16.7250      0.00000
    470      16.7250      0.00000
    471      16.7250      0.00000
    472      16.7250      0.00000
    473      16.7250      0.00000
    474      16.7250      0.00000
    475      16.7250      0.00000
    476      16.7250      0.00000
    477      16.7250      0.00000
    478      16.7250      0.00000
    479      16.7250      0.00000
    480      16.7250      0.00000
    481      16.7250      0.00000
    482      16.7250      0.00000
    483      16.7250      0.00000
    484      16.7250      0.00000
    485      16.7250      0.00000
    486      16.7250      0.00000
    487      16.7250      0.00000
    488      16.7250      0.00000
    489      16.7250      0.00000
    490      17.2507      0.00000
    491      17.2507      0.00000
    492      17.2507      0.00000
    493      17.2507      0.00000
    494      17.2507      0.00000
    495      17.2507      0.00000
    496      17.2507      0.00000
    497      17.2507      0.00000
    498      17.2507      0.00000
    499      17.2507      0.00000
    500      17.2507      0.00000
    501      17.2507      0.00000
    502      17.3210      0.00000
    503      17.3210      0.00000
    504      17.3210      0.00000
    505      17.3210      0.00000
    506      17.3210      0.00000
    507      17.3210      0.00000
    508      17.3210      0.00000
    509      17.3210      0.00000
    510      17.3210      0.00000
    511      17.3210      0.00000
    512      17.3210      0.00000
    513      17.3210      0.00000
    514      17.3210      0.00000
    515      17.3210      0.00000
    516      17.3210      0.00000
    517      17.3210      0.00000
    518      17.3210      0.00000
    519      17.3210      0.00000
    520      17.3210      0.00000
    521      17.3210      0.00000
    522      17.3210      0.00000
    523      17.3210      0.00000
    524      17.3210      0.00000
    525      17.3210      0.00000
    526      17.3690      0.00000
    527      17.3690      0.00000
    528      17.3690      0.00000
    529      17.3690      0.00000
    530      17.3690      0.00000
    531      17.3690      0.00000
    532      17.8432      0.00000
    533      17.8432      0.00000
    534      17.8432      0.00000
    535      17.8432      0.00000
    536      17.8432      0.00000
    537      17.8432      0.00000
    538      17.8432      0.00000
    539      17.8432      0.00000
    540      17.8432      0.00000
    541      17.8432      0.00000
    542      17.8432      0.00000
    543      17.8432      0.00000
    544      17.8432      0.00000
    545      17.8432      0.00000
    546      17.8432      0.00000
    547      17.8432      0.00000
    548      17.8432      0.00000
    549      17.8432      0.00000
    550      17.8432      0.00000
    551      17.8432      0.00000
    552      17.8432      0.00000
    553      17.8432      0.00000
    554      17.8432      0.00000
    555      17.8432      0.00000
    556      17.9002      0.00000
    557      17.9002      0.00000
    558      17.9002      0.00000
    559      17.9002      0.00000
    560      17.9002      0.00000
    561      17.9002      0.00000
    562      17.9002      0.00000
    563      17.9002      0.00000
    564      17.9002      0.00000
    565      17.9002      0.00000
    566      17.9002      0.00000
    567      17.9002      0.00000
    568      17.9002      0.00000
    569      17.9002      0.00000
    570      17.9002      0.00000
    571      17.9002      0.00000
    572      18.1531      0.00000
    573      18.1531      0.00000
    574      18.1531      0.00000
    575      18.1531      0.00000
    576      18.1531      0.00000
    577      18.1531      0.00000
    578      18.1531      0.00000
    579      18.1531      0.00000
    580      18.2359      0.00000
    581      18.2359      0.00000
    582      18.2359      0.00000
    583      18.2359      0.00000
    584      18.2359      0.00000
    585      18.2359      0.00000
    586      18.2359      0.00000
    587      18.2359      0.00000
    588      18.2359      0.00000
    589      18.2359      0.00000
    590      18.2359      0.00000
    591      18.2359      0.00000
    592      18.6382      0.00000
    593      18.6382      0.00000
    594      18.6382      0.00000
    595      18.6382      0.00000
    596      18.6382      0.00000
    597      18.6382      0.00000
    598      18.6382      0.00000
    599      18.6382      0.00000
    600      18.6382      0.00000
    601      18.6382      0.00000
    602      18.6382      0.00000
    603      18.6382      0.00000
    604      18.9628      0.00000
    605      18.9628      0.00000
    606      18.9628      0.00000
    607      18.9628      0.00000
    608      18.9628      0.00000
    609      18.9628      0.00000
    610      18.9628      0.00000
    611      18.9628      0.00000
    612      18.9628      0.00000
    613      18.9628      0.00000
    614      18.9628      0.00000
    615      18.9628      0.00000
    616      19.6261      0.00000
    617      19.6261      0.00000
    618      19.6261      0.00000
    619      19.6261      0.00000
    620      19.6261      0.00000
    621      19.6261      0.00000
    622      19.6261      0.00000
    623      19.6261      0.00000
    624      19.6261      0.00000
    625      19.6261      0.00000
    626      19.6261      0.00000
    627      19.6261      0.00000
    628      19.6261      0.00000
    629      19.6261      0.00000
    630      19.6261      0.00000
    631      19.6261      0.00000
    632      19.6261      0.00000
    633      19.6262      0.00000
    634      19.6262      0.00000
    635      19.6262      0.00000
    636      19.6262      0.00000
    637      19.6262      0.00000
    638      19.6263      0.00000
    639      19.6264      0.00000
    640      20.3316      0.00000
    641      20.3317      0.00000
    642      20.3318      0.00000
    643      20.3320      0.00000
    644      20.3323      0.00000
    645      20.3326      0.00000
    646      20.3330      0.00000
    647      20.3334      0.00000
    648      20.3339      0.00000
    649      20.3344      0.00000
    650      20.3361      0.00000
    651      20.3374      0.00000
    652      20.3389      0.00000


--------------------------------------------------------------------------------------------------------


 soft charge-density along one line, spin component           1
         0         1         2         3         4         5         6         7         8         9
 total charge-density along one line
 
 soft charge-density along one line, spin component           2
         0         1         2         3         4         5         6         7         8         9
 total charge-density along one line
 
 pseudopotential strength for first ion, spin component:           1
  9.438  12.533  -0.000  -0.000  -0.000   0.000   0.000   0.000
 12.533  16.641  -0.000  -0.000  -0.000   0.000   0.000   0.000
 -0.000  -0.000  -3.665  -0.000  -0.000   7.179   0.000   0.000
 -0.000  -0.000  -0.000  -3.665  -0.000   0.000   7.179   0.000
 -0.000  -0.000  -0.000  -0.000  -3.665   0.000   0.000   7.179
  0.000   0.000   7.179   0.000   0.000 -16.158  -0.000  -0.000
  0.000   0.000   0.000   7.179   0.000  -0.000 -16.158  -0.000
  0.000   0.000   0.000   0.000   7.179  -0.000  -0.000 -16.158
 pseudopotential strength for first ion, spin component:           2
  9.438  12.533  -0.000  -0.000  -0.000   0.000   0.000   0.000
 12.533  16.641  -0.000  -0.000  -0.000   0.000   0.000   0.000
 -0.000  -0.000  -3.665  -0.000  -0.000   7.179   0.000   0.000
 -0.000  -0.000  -0.000  -3.665  -0.000   0.000   7.179   0.000
 -0.000  -0.000  -0.000  -0.000  -3.665   0.000   0.000   7.179
  0.000   0.000   7.179   0.000   0.000 -16.158  -0.000  -0.000
  0.000   0.000   0.000   7.179   0.000  -0.000 -16.158  -0.000
  0.000   0.000   0.000   0.000   7.179  -0.000  -0.000 -16.158
 total augmentation occupancy for first ion, spin component:           1
  7.480  -3.307  -0.000  -0.000  -0.000  -0.000   0.000  -0.000
 -3.307   1.544   0.000   0.000  -0.000  -0.000   0.000   0.000
 -0.000   0.000   1.560  -0.000   0.000   0.128  -0.000   0.000
 -0.000   0.000  -0.000   1.560   0.000   0.000   0.128  -0.000
 -0.000  -0.000   0.000   0.000   1.560  -0.000   0.000   0.128
 -0.000  -0.000   0.128   0.000  -0.000   0.012  -0.000  -0.000
  0.000   0.000  -0.000   0.128   0.000  -0.000   0.012  -0.000
 -0.000   0.000   0.000  -0.000   0.128  -0.000  -0.000   0.012
 total augmentation occupancy for first ion, spin component:           2
  0.000  -0.000  -0.000   0.000  -0.000  -0.000  -0.000  -0.000
 -0.000   0.000  -0.000  -0.000   0.000  -0.000   0.000   0.000
 -0.000  -0.000   0.000   0.000  -0.000   0.000   0.000  -0.000
  0.000  -0.000   0.000   0.000   0.000  -0.000   0.000   0.000
 -0.000   0.000  -0.000   0.000   0.000   0.000   0.000   0.000
 -0.000  -0.000   0.000  -0.000   0.000   0.000  -0.000  -0.000
 -0.000   0.000   0.000   0.000   0.000  -0.000   0.000   0.000
 -0.000   0.000  -0.000   0.000   0.000  -0.000   0.000   0.000


------------------------ aborting loop because EDIFF is reached ----------------------------------------





 total charge

# of ion       s       p       d       tot
------------------------------------------
    1        0.829   1.743   0.000   2.572
    2        0.829   1.743   0.000   2.572
    3        0.829   1.743   0.000   2.572
    4        0.829   1.743   0.000   2.572
    5        0.829   1.743   0.000   2.572
    6        0.829   1.743   0.000   2.572
    7        0.829   1.743   0.000   2.572
    8        0.829   1.743   0.000   2.572
    9        0.829   1.743   0.000   2.572
   10        0.829   1.743   0.000   2.572
   11        0.829   1.743   0.000   2.572
   12        0.829   1.743   0.000   2.572
   13        0.829   1.743   0.000   2.572
   14        0.829   1.743   0.000   2.572
   15        0.829   1.743   0.000   2.572
   16        0.829   1.743   0.000   2.572
   17        0.829   1.743   0.000   2.572
   18        0.829   1.743   0.000   2.572
   19        0.829   1.743   0.000   2.572
   20        0.829   1.743   0.000   2.572
   21        0.829   1.743   0.000   2.572
   22        0.829   1.743   0.000   2.572
   23        0.829   1.743   0.000   2.572
   24        0.829   1.743   0.000   2.572
   25        0.829   1.743   0.000   2.572
   26        0.829   1.743   0.000   2.572
   27        0.829   1.743   0.000   2.572
   28        0.829   1.743   0.000   2.572
   29        0.829   1.743   0.000   2.572
   30        0.829   1.743   0.000   2.572
   31        0.829   1.743   0.000   2.572
   32        0.829   1.743   0.000   2.572
   33        0.829   1.743   0.000   2.572
   34        0.829   1.743   0.000   2.572
   35        0.829   1.743   0.000   2.572
   36        0.829   1.743   0.000   2.572
   37        0.829   1.743   0.000   2.572
   38        0.829   1.743   0.000   2.572
   39        0.829   1.743   0.000   2.572
   40        0.829   1.743   0.000   2.572
   41        0.829   1.743   0.000   2.572
   42        0.829   1.743   0.000   2.572
   43        0.829   1.743   0.000   2.572
   44        0.829   1.743   0.000   2.572
   45        0.829   1.743   0.000   2.572
   46        0.829   1.743   0.000   2.572
   47        0.829   1.743   0.000   2.572
   48        0.829   1.743   0.000   2.572
   49        0.829   1.743   0.000   2.572
   50        0.829   1.743   0.000   2.572
   51        0.829   1.743   0.000   2.572
   52        0.829   1.743   0.000   2.572
   53        0.829   1.743   0.000   2.572
   54        0.829   1.743   0.000   2.572
   55        0.829   1.743   0.000   2.572
   56        0.829   1.743   0.000   2.572
   57        0.829   1.743   0.000   2.572
   58        0.829   1.743   0.000   2.572
   59        0.829   1.743   0.000   2.572
   60        0.829   1.743   0.000   2.572
   61        0.829   1.743   0.000   2.572
   62        0.829   1.743   0.000   2.572
   63        0.829   1.743   0.000   2.572
   64        0.829   1.743   0.000   2.572
   65        0.829   1.743   0.000   2.572
   66        0.829   1.743   0.000   2.572
   67        0.829   1.743   0.000   2.572
   68        0.829   1.743   0.000   2.572
   69        0.829   1.743   0.000   2.572
   70        0.829   1.743   0.000   2.572
   71        0.829   1.743   0.000   2.572
   72        0.829   1.743   0.000   2.572
   73        0.829   1.743   0.000   2.572
   74        0.829   1.743   0.000   2.572
   75        0.829   1.743   0.000   2.572
   76        0.829   1.743   0.000   2.572
   77        0.829   1.743   0.000   2.572
   78        0.829   1.743   0.000   2.572
   79        0.829   1.743   0.000   2.572
   80        0.829   1.743   0.000   2.572
   81        0.829   1.743   0.000   2.572
   82        0.829   1.743   0.000   2.572
   83        0.829   1.743   0.000   2.572
   84        0.829   1.743   0.000   2.572
   85        0.829   1.743   0.000   2.572
   86        0.829   1.743   0.000   2.572
   87        0.829   1.743   0.000   2.572
   88        0.829   1.743   0.000   2.572
   89        0.829   1.743   0.000   2.572
   90        0.829   1.743   0.000   2.572
   91        0.829   1.743   0.000   2.572
   92        0.829   1.743   0.000   2.572
   93        0.829   1.743   0.000   2.572
   94        0.829   1.743   0.000   2.572
   95        0.829   1.743   0.000   2.572
   96        0.829   1.743   0.000   2.572
   97        0.829   1.743   0.000   2.572
   98        0.829   1.743   0.000   2.572
   99        0.829   1.743   0.000   2.572
  100        0.829   1.743   0.000   2.572
  101        0.829   1.743   0.000   2.572
  102        0.829   1.743   0.000   2.572
  103        0.829   1.743   0.000   2.572
  104        0.829   1.743   0.000   2.572
  105        0.829   1.743   0.000   2.572
  106        0.829   1.743   0.000   2.572
  107        0.829   1.743   0.000   2.572
  108        0.829   1.743   0.000   2.572
  109        0.829   1.743   0.000   2.572
  110        0.829   1.743   0.000   2.572
  111        0.829   1.743   0.000   2.572
  112        0.829   1.743   0.000   2.572
  113        0.829   1.743   0.000   2.572
  114        0.829   1.743   0.000   2.572
  115        0.829   1.743   0.000   2.572
  116        0.829   1.743   0.000   2.572
  117        0.829   1.743   0.000   2.572
  118        0.829   1.743   0.000   2.572
  119        0.829   1.743   0.000   2.572
  120        0.829   1.743   0.000   2.572
  121        0.829   1.743   0.000   2.572
  122        0.829   1.743   0.000   2.572
  123        0.829   1.743   0.000   2.572
  124        0.829   1.743   0.000   2.572
  125        0.829   1.743   0.000   2.572
  126        0.829   1.743   0.000   2.572
  127        0.829   1.743   0.000   2.572
  128        0.829   1.743   0.000   2.572
  129        0.829   1.743   0.000   2.572
  130        0.829   1.743   0.000   2.572
  131        0.829   1.743   0.000   2.572
  132        0.829   1.743   0.000   2.572
  133        0.829   1.743   0.000   2.572
  134        0.829   1.743   0.000   2.572
  135        0.829   1.743   0.000   2.572
  136        0.829   1.743   0.000   2.572
  137        0.829   1.743   0.000   2.572
  138        0.829   1.743   0.000   2.572
  139        0.829   1.743   0.000   2.572
  140        0.829   1.743   0.000   2.572
  141        0.829   1.743   0.000   2.572
  142        0.829   1.743   0.000   2.572
  143        0.829   1.743   0.000   2.572
  144        0.829   1.743   0.000   2.572
  145        0.829   1.743   0.000   2.572
  146        0.829   1.743   0.000   2.572
  147        0.829   1.743   0.000   2.572
  148        0.829   1.743   0.000   2.572
  149        0.829   1.743   0.000   2.572
  150        0.829   1.743   0.000   2.572
  151        0.829   1.743   0.000   2.572
  152        0.829   1.743   0.000   2.572
  153        0.829   1.743   0.000   2.572
  154        0.829   1.743   0.000   2.572
  155        0.829   1.743   0.000   2.572
  156        0.829   1.743   0.000   2.572
  157        0.829   1.743   0.000   2.572
  158        0.829   1.743   0.000   2.572
  159        0.829   1.743   0.000   2.572
  160        0.829   1.743   0.000   2.572
  161        0.829   1.743   0.000   2.572
  162        0.829   1.743   0.000   2.572
  163        0.829   1.743   0.000   2.572
  164        0.829   1.743   0.000   2.572
  165        0.829   1.743   0.000   2.572
  166        0.829   1.743   0.000   2.572
  167        0.829   1.743   0.000   2.572
  168        0.829   1.743   0.000   2.572
  169        0.829   1.743   0.000   2.572
  170        0.829   1.743   0.000   2.572
  171        0.829   1.743   0.000   2.572
  172        0.829   1.743   0.000   2.572
  173        0.829   1.743   0.000   2.572
  174        0.829   1.743   0.000   2.572
  175        0.829   1.743   0.000   2.572
  176        0.829   1.743   0.000   2.572
  177        0.829   1.743   0.000   2.572
  178        0.829   1.743   0.000   2.572
  179        0.829   1.743   0.000   2.572
  180        0.829   1.743   0.000   2.572
  181        0.829   1.743   0.000   2.572
  182        0.829   1.743   0.000   2.572
  183        0.829   1.743   0.000   2.572
  184        0.829   1.743   0.000   2.572
  185        0.829   1.743   0.000   2.572
  186        0.829   1.743   0.000   2.572
  187        0.829   1.743   0.000   2.572
  188        0.829   1.743   0.000   2.572
  189        0.829   1.743   0.000   2.572
  190        0.829   1.743   0.000   2.572
  191        0.829   1.743   0.000   2.572
  192        0.829   1.743   0.000   2.572
  193        0.829   1.743   0.000   2.572
  194        0.829   1.743   0.000   2.572
  195        0.829   1.743   0.000   2.572
  196        0.829   1.743   0.000   2.572
  197        0.829   1.743   0.000   2.572
  198        0.829   1.743   0.000   2.572
  199        0.829   1.743   0.000   2.572
  200        0.829   1.743   0.000   2.572
  201        0.829   1.743   0.000   2.572
  202        0.829   1.743   0.000   2.572
  203        0.829   1.743   0.000   2.572
  204        0.829   1.743   0.000   2.572
  205        0.829   1.743   0.000   2.572
  206        0.829   1.743   0.000   2.572
  207        0.829   1.743   0.000   2.572
  208        0.829   1.743   0.000   2.572
  209        0.829   1.743   0.000   2.572
  210        0.829   1.743   0.000   2.572
  211        0.829   1.743   0.000   2.572
  212        0.829   1.743   0.000   2.572
  213        0.829   1.743   0.000   2.572
  214        0.829   1.743   0.000   2.572
  215        0.829   1.743   0.000   2.572
  216        0.829   1.743   0.000   2.572
--------------------------------------------------
tot        178.969 376.495   0.000 555.463



 magnetization (x)

# of ion       s       p       d       tot
------------------------------------------
    1        0.000  -0.000   0.000  -0.000
    2        0.000  -0.000   0.000  -0.000
    3        0.000  -0.000   0.000  -0.000
    4        0.000  -0.000   0.000  -0.000
    5        0.000  -0.000   0.000  -0.000
    6        0.000  -0.000   0.000  -0.000
    7        0.000  -0.000   0.000  -0.000
    8        0.000  -0.000   0.000  -0.000
    9        0.000  -0.000   0.000  -0.000
   10        0.000  -0.000   0.000  -0.000
   11        0.000  -0.000   0.000  -0.000
   12        0.000  -0.000   0.000  -0.000
   13        0.000  -0.000   0.000  -0.000
   14        0.000  -0.000   0.000  -0.000
   15        0.000  -0.000   0.000  -0.000
   16        0.000  -0.000   0.000  -0.000
   17        0.000  -0.000   0.000  -0.000
   18        0.000  -0.000   0.000  -0.000
   19        0.000  -0.000   0.000  -0.000
   20        0.000  -0.000   0.000  -0.000
   21        0.000  -0.000   0.000  -0.000
   22        0.000  -0.000   0.000  -0.000
   23        0.000  -0.000   0.000  -0.000
   24        0.000  -0.000   0.000  -0.000
   25        0.000  -0.000   0.000  -0.000
   26        0.000  -0.000   0.000  -0.000
   27        0.000  -0.000   0.000  -0.000
   28        0.000  -0.000   0.000  -0.000
   29        0.000  -0.000   0.000  -0.000
   30        0.000  -0.000   0.000  -0.000
   31        0.000  -0.000   0.000  -0.000
   32        0.000  -0.000   0.000  -0.000
   33        0.000  -0.000   0.000  -0.000
   34        0.000  -0.000   0.000  -0.000
   35        0.000  -0.000   0.000  -0.000
   36        0.000  -0.000   0.000  -0.000
   37        0.000  -0.000   0.000  -0.000
   38        0.000  -0.000   0.000  -0.000
   39        0.000  -0.000   0.000  -0.000
   40        0.000  -0.000   0.000  -0.000
   41        0.000  -0.000   0.000  -0.000
   42        0.000  -0.000   0.000  -0.000
   43        0.000  -0.000   0.000  -0.000
   44        0.000  -0.000   0.000  -0.000
   45        0.000  -0.000   0.000  -0.000
   46        0.000  -0.000   0.000  -0.000
   47        0.000  -0.000   0.000  -0.000
   48        0.000  -0.000   0.000  -0.000
   49        0.000  -0.000   0.000  -0.000
   50        0.000  -0.000   0.000  -0.000
   51        0.000  -0.000   0.000  -0.000
   52        0.000  -0.000   0.000  -0.000
   53        0.000  -0.000   0.000  -0.000
   54        0.000  -0.000   0.000  -0.000
   55        0.000  -0.000   0.000  -0.000
   56        0.000  -0.000   0.000  -0.000
   57        0.000  -0.000   0.000  -0.000
   58        0.000  -0.000   0.000  -0.000
   59        0.000  -0.000   0.000  -0.000
   60        0.000  -0.000   0.000  -0.000
   61        0.000  -0.000   0.000  -0.000
   62        0.000  -0.000   0.000  -0.000
   63        0.000  -0.000   0.000  -0.000
   64        0.000  -0.000   0.000  -0.000
   65        0.000  -0.000   0.000  -0.000
   66        0.000  -0.000   0.000  -0.000
   67        0.000  -0.000   0.000  -0.000
   68        0.000  -0.000   0.000  -0.000
   69        0.000  -0.000   0.000  -0.000
   70        0.000  -0.000   0.000  -0.000
   71        0.000  -0.000   0.000  -0.000
   72        0.000  -0.000   0.000  -0.000
   73        0.000  -0.000   0.000  -0.000
   74        0.000  -0.000   0.000  -0.000
   75        0.000  -0.000   0.000  -0.000
   76        0.000  -0.000   0.000  -0.000
   77        0.000  -0.000   0.000  -0.000
   78        0.000  -0.000   0.000  -0.000
   79        0.000  -0.000   0.000  -0.000
   80        0.000  -0.000   0.000  -0.000
   81        0.000  -0.000   0.000  -0.000
   82        0.000  -0.000   0.000  -0.000
   83        0.000  -0.000   0.000  -0.000
   84        0.000  -0.000   0.000  -0.000
   85        0.000  -0.000   0.000  -0.000
   86        0.000  -0.000   0.000  -0.000
   87        0.000  -0.000   0.000  -0.000
   88        0.000  -0.000   0.000  -0.000
   89        0.000  -0.000   0.000  -0.000
   90        0.000  -0.000   0.000  -0.000
   91        0.000  -0.000   0.000  -0.000
   92        0.000  -0.000   0.000  -0.000
   93        0.000  -0.000   0.000  -0.000
   94        0.000  -0.000   0.000  -0.000
   95        0.000  -0.000   0.000  -0.000
   96        0.000  -0.000   0.000  -0.000
   97        0.000  -0.000   0.000  -0.000
   98        0.000  -0.000   0.000  -0.000
   99        0.000  -0.000   0.000  -0.000
  100        0.000  -0.000   0.000  -0.000
  101        0.000  -0.000   0.000  -0.000
  102        0.000  -0.000   0.000  -0.000
  103        0.000  -0.000   0.000  -0.000
  104        0.000  -0.000   0.000  -0.000
  105        0.000  -0.000   0.000  -0.000
  106        0.000  -0.000   0.000  -0.000
  107        0.000  -0.000   0.000  -0.000
  108        0.000  -0.000   0.000  -0.000
  109        0.000  -0.000   0.000  -0.000
  110        0.000  -0.000   0.000  -0.000
  111        0.000  -0.000   0.000  -0.000
  112        0.000  -0.000   0.000  -0.000
  113        0.000  -0.000   0.000  -0.000
  114        0.000  -0.000   0.000  -0.000
  115        0.000  -0.000   0.000  -0.000
  116        0.000  -0.000   0.000  -0.000
  117        0.000  -0.000   0.000  -0.000
  118        0.000  -0.000   0.000  -0.000
  119        0.000  -0.000   0.000  -0.000
  120        0.000  -0.000   0.000  -0.000
  121        0.000  -0.000   0.000  -0.000
  122        0.000  -0.000   0.000  -0.000
  123        0.000  -0.000   0.000  -0.000
  124        0.000  -0.000   0.000  -0.000
  125        0.000  -0.000   0.000  -0.000
  126        0.000  -0.000   0.000  -0.000
  127        0.000  -0.000   0.000  -0.000
  128        0.000  -0.000   0.000  -0.000
  129        0.000  -0.000   0.000  -0.000
  130        0.000  -0.000   0.000  -0.000
  131        0.000  -0.000   0.000  -0.000
  132        0.000  -0.000   0.000  -0.000
  133        0.000  -0.000   0.000  -0.000
  134        0.000  -0.000   0.000  -0.000
  135        0.000  -0.000   0.000  -0.000
  136        0.000  -0.000   0.000  -0.000
  137        0.000  -0.000   0.000  -0.000
  138        0.000  -0.000   0.000  -0.000
  139        0.000  -0.000   0.000  -0.000
  140        0.000  -0.000   0.000  -0.000
  141        0.000  -0.000   0.000  -0.000
  142        0.000  -0.000   0.000  -0.000
  143        0.000  -0.000   0.000  -0.000
  144        0.000  -0.000   0.000  -0.000
  145        0.000  -0.000   0.000  -0.000
  146        0.000  -0.000   0.000  -0.000
  147        0.000  -0.000   0.000  -0.000
  148        0.000  -0.000   0.000  -0.000
  149        0.000  -0.000   0.000  -0.000
  150        0.000  -0.000   0.000  -0.000
  151        0.000  -0.000   0.000  -0.000
  152        0.000  -0.000   0.000  -0.000
  153        0.000  -0.000   0.000  -0.000
  154        0.000  -0.000   0.000  -0.000
  155        0.000  -0.000   0.000  -0.000
  156        0.000  -0.000   0.000  -0.000
  157        0.000  -0.000   0.000  -0.000
  158        0.000  -0.000   0.000  -0.000
  159        0.000  -0.000   0.000  -0.000
  160        0.000  -0.000   0.000  -0.000
  161        0.000  -0.000   0.000  -0.000
  162        0.000  -0.000   0.000  -0.000
  163        0.000  -0.000   0.000  -0.000
  164        0.000  -0.000   0.000  -0.000
  165        0.000  -0.000   0.000  -0.000
  166        0.000  -0.000   0.000  -0.000
  167        0.000  -0.000   0.000  -0.000
  168        0.000  -0.000   0.000  -0.000
  169        0.000  -0.000   0.000  -0.000
  170        0.000  -0.000   0.000  -0.000
  171        0.000  -0.000   0.000  -0.000
  172        0.000  -0.000   0.000  -0.000
  173        0.000  -0.000   0.000  -0.000
  174        0.000  -0.000   0.000  -0.000
  175        0.000  -0.000   0.000  -0.000
  176        0.000  -0.000   0.000  -0.000
  177        0.000  -0.000   0.000  -0.000
  178        0.000  -0.000   0.000  -0.000
  179        0.000  -0.000   0.000  -0.000
  180        0.000  -0.000   0.000  -0.000
  181        0.000  -0.000   0.000  -0.000
  182        0.000  -0.000   0.000  -0.000
  183        0.000  -0.000   0.000  -0.000
  184        0.000  -0.000   0.000  -0.000
  185        0.000  -0.000   0.000  -0.000
  186        0.000  -0.000   0.000  -0.000
  187        0.000  -0.000   0.000  -0.000
  188        0.000  -0.000   0.000  -0.000
  189        0.000  -0.000   0.000  -0.000
  190        0.000  -0.000   0.000  -0.000
  191        0.000  -0.000   0.000  -0.000
  192        0.000  -0.000   0.000  -0.000
  193        0.000  -0.000   0.000  -0.000
  194        0.000  -0.000   0.000  -0.000
  195        0.000  -0.000   0.000  -0.000
  196        0.000  -0.000   0.000  -0.000
  197        0.000  -0.000   0.000  -0.000
  198        0.000  -0.000   0.000  -0.000
  199        0.000  -0.000   0.000  -0.000
  200        0.000  -0.000   0.000  -0.000
  201        0.000  -0.000   0.000  -0.000
  202        0.000  -0.000   0.000  -0.000
  203        0.000  -0.000   0.000  -0.000
  204        0.000  -0.000   0.000  -0.000
  205        0.000  -0.000   0.000  -0.000
  206        0.000  -0.000   0.000  -0.000
  207        0.000  -0.000   0.000  -0.000
  208        0.000  -0.000   0.000  -0.000
  209        0.000  -0.000   0.000  -0.000
  210        0.000  -0.000   0.000  -0.000
  211        0.000  -0.000   0.000  -0.000
  212        0.000  -0.000   0.000  -0.000
  213        0.000  -0.000   0.000  -0.000
  214        0.000  -0.000   0.000  -0.000
  215        0.000  -0.000   0.000  -0.000
  216        0.000  -0.000   0.000  -0.000
--------------------------------------------------
tot          0.000  -0.000   0.000  -0.000
 
    CHARGE:  cpu time      0.4063: real time      0.4080
    FORLOC:  cpu time      0.0364: real time      0.0365
    FORNL :  cpu time      1.0272: real time      1.0381
    STRESS:  cpu time      3.0656: real time      3.0963
    FORCOR:  cpu time      0.1137: real time      0.1146
    FORHAR:  cpu time      0.0451: real time      0.0453
    MIXING:  cpu time      0.0056: real time      0.0057
    OFIELD:  cpu time      0.0001: real time      0.0001

  FORCE on cell =-STRESS in cart. coord.  units (eV):
  Direction    XX          YY          ZZ          XY          YZ          ZX
  --------------------------------------------------------------------------------------
  Alpha Z  3110.10665  3110.10665  3110.10665
  Ewald  -12502.46504-12502.46504-12502.46504     0.00000    -0.00000    -0.00000
  Hartree   954.82923   954.82923   954.82923    -0.00000    -0.00000    -0.00000
  E(xc)   -3283.47642 -3283.47642 -3283.47642    -0.00000    -0.00000    -0.00000
  Local   -1199.23416 -1199.23416 -1199.23416    -0.00000     0.00000     0.00000
  n-local  -773.23089  -773.23089  -773.23089     0.00000    -0.00000     0.00000
  augment   -78.00776   -78.00776   -78.00776     0.00000     0.00000    -0.00000
  Kinetic 13778.14901 13778.14900 13778.14900     0.00000     0.00000     0.00001
  Fock        0.00000     0.00000     0.00000     0.00000     0.00000     0.00000
  -------------------------------------------------------------------------------------
  Total       6.67061     6.67061     6.67061     0.00000    -0.00000    -0.00000
  in kB       8.67269     8.67269     8.67269     0.00000    -0.00000    -0.00000
  external pressure =        8.67 kB  Pullay stress =        0.00 kB


 VOLUME and BASIS-vectors are now :
 -----------------------------------------------------------------------------
  energy-cutoff  :      500.00
  volume of cell :     1232.32
      direct lattice vectors                 reciprocal lattice vectors
    10.721136093  0.000000000  0.000000000     0.093273697  0.000000000  0.000000000
     0.000000000 10.721136093  0.000000000     0.000000000  0.093273697  0.000000000
     0.000000000  0.000000000 10.721136093     0.000000000  0.000000000  0.093273697

  length of vectors
    10.721136093 10.721136093 10.721136093     0.093273697  0.093273697  0.093273697


 FORCES acting on ions
    electron-ion (+dipol)            ewald-force                    non-local-force                 convergence-correction
 -----------------------------------------------------------------------------------------------
   0.868E-06 0.868E-06 0.868E-06   0.694E-06 0.694E-06 0.694E-06   -.924E-25 -.921E-23 -.458E-24   -.458E-10 -.460E-10 -.461E-10
   0.868E-06 0.868E-06 -.868E-06   0.694E-06 0.694E-06 -.694E-06   0.399E-23 -.728E-23 -.605E-23   -.458E-10 -.460E-10 0.462E-10
   0.868E-06 0.868E-06 -.379E-12   0.694E-06 0.694E-06 0.895E-15   0.186E-23 -.469E-23 -.102E-24   -.460E-10 -.461E-10 -.143E-12
   0.868E-06 -.868E-06 0.868E-06   0.694E-06 -.694E-06 0.694E-06   -.145E-23 -.487E-23 -.708E-24   -.459E-10 0.461E-10 -.459E-10
   0.868E-06 -.868E-06 -.868E-06   0.694E-06 -.694E-06 -.694E-06   -.792E-24 -.325E-23 0.223E-23   -.459E-10 0.460E-10 0.460E-10
   0.868E-06 -.868E-06 -.711E-13   0.694E-06 -.694E-06 -.926E-14   0.198E-23 -.108E-22 -.568E-23   -.460E-10 0.460E-10 -.782E-13
   0.868E-06 0.330E-14 0.868E-06   0.694E-06 0.873E-14 0.694E-06   -.404E-23 -.502E-23 -.247E-23   -.459E-10 -.819E-13 -.461E-10
   0.868E-06 0.234E-13 -.868E-06   0.694E-06 -.552E-14 -.694E-06   0.241E-23 -.323E-23 -.400E-23   -.459E-10 -.521E-14 0.460E-10
   0.868E-06 0.217E-12 -.333E-12   0.694E-06 0.143E-13 -.120E-14   0.115E-23 -.427E-23 -.111E-23   -.460E-10 0.133E-12 -.176E-13
   -.868E-06 0.868E-06 0.868E-06   -.694E-06 0.694E-06 0.694E-06   -.216E-23 -.290E-23 -.331E-23   0.460E-10 -.460E-10 -.458E-10
   -.868E-06 0.868E-06 -.868E-06   -.694E-06 0.694E-06 -.694E-06   -.113E-24 -.734E-23 0.247E-24   0.461E-10 -.460E-10 0.460E-10
   -.868E-06 0.868E-06 0.884E-12   -.694E-06 0.694E-06 -.208E-14   0.482E-23 -.104E-23 0.212E-23   0.460E-10 -.461E-10 -.187E-12
   -.868E-06 -.868E-06 0.868E-06   -.694E-06 -.694E-06 0.694E-06   -.646E-26 -.133E-22 -.579E-24   0.460E-10 0.459E-10 -.458E-10
   -.868E-06 -.868E-06 -.868E-06   -.694E-06 -.694E-06 -.694E-06   -.264E-24 -.673E-24 0.572E-24   0.461E-10 0.459E-10 0.459E-10
   -.868E-06 -.868E-06 0.130E-11   -.694E-06 -.694E-06 -.157E-13   0.104E-23 -.741E-23 0.194E-23   0.459E-10 0.459E-10 -.127E-12
   -.868E-06 0.612E-12 0.868E-06   -.694E-06 -.698E-14 0.694E-06   0.672E-24 -.109E-22 -.610E-24   0.460E-10 0.109E-12 -.459E-10
   -.868E-06 0.611E-12 -.868E-06   -.694E-06 0.250E-13 -.694E-06   -.466E-23 -.113E-22 -.176E-23   0.461E-10 0.148E-12 0.459E-10
   -.868E-06 0.643E-12 0.108E-11   -.694E-06 -.344E-14 -.260E-13   -.116E-23 -.347E-23 -.235E-23   0.459E-10 0.188E-12 -.120E-12
   0.106E-12 0.868E-06 0.868E-06   -.530E-13 0.694E-06 0.694E-06   0.350E-23 -.405E-24 0.176E-23   -.228E-12 -.460E-10 -.460E-10
   0.265E-12 0.868E-06 -.868E-06   -.423E-13 0.694E-06 -.694E-06   -.197E-24 -.505E-23 -.705E-23   -.270E-12 -.460E-10 0.462E-10
   0.370E-12 0.868E-06 -.148E-11   -.830E-14 0.694E-06 0.216E-13   -.163E-23 -.714E-23 -.784E-24   -.137E-13 -.461E-10 -.209E-12
   0.233E-12 -.868E-06 0.868E-06   -.763E-14 -.694E-06 0.694E-06   0.214E-23 -.408E-23 0.411E-23   -.455E-13 0.461E-10 -.458E-10
   0.953E-13 -.868E-06 -.868E-06   0.255E-13 -.694E-06 -.694E-06   -.103E-23 -.114E-22 -.282E-23   -.888E-13 0.460E-10 0.459E-10
   0.349E-12 -.868E-06 0.185E-11   0.333E-14 -.694E-06 -.381E-13   -.192E-23 -.441E-23 0.209E-23   0.417E-13 0.459E-10 -.132E-12
   0.169E-12 -.789E-12 0.868E-06   0.257E-13 0.477E-13 0.694E-06   0.807E-24 -.514E-23 0.134E-23   -.232E-13 -.760E-13 -.460E-10
   0.190E-12 -.836E-12 -.868E-06   0.289E-14 -.125E-13 -.694E-06   -.198E-23 -.119E-22 0.522E-24   -.127E-12 -.419E-14 0.460E-10
   0.180E-12 -.855E-12 0.163E-11   0.702E-13 0.257E-13 -.755E-14   -.603E-23 -.990E-23 0.252E-23   0.751E-13 0.185E-12 -.820E-13
   0.169E-12 0.182E-12 0.868E-06   0.519E-13 0.970E-14 0.694E-06   0.163E-23 -.135E-22 -.228E-23   0.148E-12 -.515E-13 -.459E-10
   0.137E-12 0.200E-12 -.868E-06   0.313E-13 -.186E-13 -.694E-06   -.816E-24 0.511E-25 -.919E-24   0.178E-12 -.111E-12 0.460E-10
   0.148E-12 0.197E-12 0.485E-12   0.924E-13 0.791E-14 -.253E-14   0.434E-23 -.717E-23 -.475E-23   0.929E-15 -.148E-12 -.149E-12
   0.951E-13 0.868E-06 0.868E-06   0.216E-13 0.694E-06 0.694E-06   -.630E-23 -.670E-23 -.259E-23   -.491E-13 -.459E-10 -.459E-10
   0.211E-12 0.868E-06 -.868E-06   -.238E-13 0.694E-06 -.694E-06   0.374E-24 -.629E-23 0.156E-23   0.454E-13 -.459E-10 0.459E-10
   0.338E-12 0.868E-06 0.232E-12   0.235E-13 0.694E-06 0.166E-14   -.105E-24 -.121E-22 -.238E-24   -.804E-13 -.459E-10 -.577E-13
   0.201E-12 -.868E-06 0.868E-06   0.484E-14 -.694E-06 0.694E-06   -.561E-24 -.934E-23 -.308E-24   0.132E-12 0.459E-10 -.460E-10
   0.738E-13 -.868E-06 -.868E-06   0.237E-13 -.694E-06 -.694E-06   0.994E-24 -.172E-23 -.380E-24   0.196E-12 0.460E-10 0.460E-10
   0.317E-12 -.868E-06 0.269E-13   0.296E-13 -.694E-06 -.201E-13   0.588E-24 -.322E-23 -.532E-23   -.247E-13 0.460E-10 -.118E-12
   0.868E-06 0.283E-12 0.868E-06   0.694E-06 -.119E-13 0.694E-06   0.179E-23 -.610E-23 0.194E-23   -.461E-10 -.539E-13 -.458E-10
   0.868E-06 0.275E-12 -.868E-06   0.694E-06 -.144E-13 -.694E-06   -.821E-24 -.688E-23 0.712E-24   -.461E-10 -.109E-12 0.459E-10
   0.868E-06 0.264E-12 -.631E-12   0.694E-06 -.358E-14 0.102E-13   0.586E-24 0.536E-24 0.837E-24   -.460E-10 -.214E-12 -.192E-12
   0.868E-06 0.868E-06 0.868E-06   0.694E-06 0.694E-06 0.694E-06   0.233E-23 -.518E-23 0.169E-23   -.459E-10 -.459E-10 -.458E-10
   0.868E-06 0.868E-06 -.868E-06   0.694E-06 0.694E-06 -.694E-06   -.375E-23 -.466E-23 -.856E-24   -.459E-10 -.459E-10 0.458E-10
   0.868E-06 0.868E-06 -.871E-12   0.694E-06 0.694E-06 -.132E-13   -.141E-23 -.879E-23 0.472E-23   -.459E-10 -.459E-10 -.114E-12
   0.868E-06 -.868E-06 0.868E-06   0.694E-06 -.694E-06 0.694E-06   -.338E-23 -.261E-23 -.176E-23   -.461E-10 0.460E-10 -.459E-10
   0.868E-06 -.868E-06 -.868E-06   0.694E-06 -.694E-06 -.694E-06   -.162E-23 -.517E-23 -.657E-24   -.461E-10 0.460E-10 0.460E-10
   0.868E-06 -.868E-06 -.479E-12   0.694E-06 -.694E-06 -.749E-14   0.337E-23 -.280E-23 -.149E-23   -.459E-10 0.461E-10 -.177E-12
   -.868E-06 -.115E-11 0.868E-06   -.694E-06 -.328E-13 0.694E-06   -.327E-23 -.282E-23 0.115E-23   0.459E-10 0.128E-12 -.460E-10
   -.868E-06 -.119E-11 -.868E-06   -.694E-06 -.103E-14 -.694E-06   0.321E-23 -.675E-23 -.310E-23   0.459E-10 0.727E-13 0.461E-10
   -.868E-06 -.121E-11 0.216E-11   -.694E-06 -.428E-14 -.291E-13   -.151E-23 -.880E-23 0.862E-24   0.460E-10 -.156E-12 -.166E-12
   -.868E-06 0.868E-06 0.868E-06   -.694E-06 0.694E-06 0.694E-06   0.262E-23 -.703E-23 0.397E-23   0.459E-10 -.459E-10 -.459E-10
   -.868E-06 0.868E-06 -.868E-06   -.694E-06 0.694E-06 -.694E-06   0.107E-23 -.691E-23 -.476E-23   0.459E-10 -.460E-10 0.459E-10
   -.868E-06 0.868E-06 0.194E-11   -.694E-06 0.694E-06 0.283E-14   -.275E-23 -.397E-23 0.244E-23   0.460E-10 -.458E-10 -.133E-13
   -.868E-06 -.868E-06 0.868E-06   -.694E-06 -.694E-06 0.694E-06   0.169E-23 0.269E-24 -.297E-23   0.460E-10 0.458E-10 -.461E-10
   -.868E-06 -.868E-06 -.868E-06   -.694E-06 -.694E-06 -.694E-06   0.335E-23 -.355E-23 -.554E-23   0.459E-10 0.459E-10 0.462E-10
   -.868E-06 -.868E-06 0.240E-11   -.694E-06 -.694E-06 0.106E-13   -.374E-23 -.220E-23 0.123E-23   0.459E-10 0.460E-10 -.101E-12
   0.306E-12 0.868E-06 -.157E-12   0.304E-13 0.694E-06 0.972E-14   -.199E-24 -.736E-23 -.191E-23   0.289E-12 -.460E-10 0.129E-12
   0.632E-13 0.868E-06 0.868E-06   0.202E-13 0.694E-06 0.694E-06   0.463E-23 -.409E-23 -.272E-23   0.102E-12 -.460E-10 -.460E-10
   0.190E-12 0.868E-06 -.868E-06   -.804E-14 0.694E-06 -.694E-06   -.190E-23 -.804E-23 -.247E-23   0.584E-13 -.461E-10 0.459E-10
   0.328E-12 -.868E-06 0.328E-12   0.558E-13 -.694E-06 -.203E-13   -.338E-23 -.320E-23 -.459E-24   0.831E-13 0.460E-10 0.796E-13
   0.201E-12 -.868E-06 0.868E-06   -.870E-14 -.694E-06 0.694E-06   -.628E-24 -.963E-23 0.182E-23   0.191E-13 0.459E-10 -.461E-10
   0.844E-13 -.868E-06 -.868E-06   0.141E-13 -.694E-06 -.694E-06   0.394E-23 -.135E-22 -.195E-23   -.406E-13 0.460E-10 0.460E-10
   0.148E-12 0.594E-12 0.115E-12   0.102E-12 0.311E-13 -.225E-13   -.492E-23 -.624E-23 -.223E-23   0.100E-12 0.359E-13 0.397E-13
   0.169E-12 0.587E-12 0.868E-06   0.137E-13 0.960E-14 0.694E-06   0.165E-23 -.129E-23 -.383E-23   0.147E-13 0.147E-12 -.460E-10
   0.148E-12 -.964E-13 -.868E-06   0.296E-13 -.706E-14 -.694E-06   0.240E-23 -.702E-23 0.152E-23   -.819E-13 0.928E-13 0.459E-10
   0.868E-06 0.868E-06 -.132E-11   0.694E-06 0.694E-06 -.228E-13   -.227E-23 -.393E-23 -.675E-23   -.462E-10 -.460E-10 0.175E-12
   0.868E-06 0.868E-06 0.868E-06   0.694E-06 0.694E-06 0.694E-06   -.430E-23 -.470E-23 0.219E-23   -.460E-10 -.460E-10 -.461E-10
   0.868E-06 0.868E-06 -.868E-06   0.694E-06 0.694E-06 -.694E-06   0.328E-23 -.514E-23 0.194E-23   -.460E-10 -.461E-10 0.459E-10
   0.868E-06 -.868E-06 -.866E-12   0.694E-06 -.694E-06 0.462E-14   0.659E-24 -.775E-23 -.192E-23   -.460E-10 0.459E-10 0.122E-12
   0.868E-06 -.868E-06 0.868E-06   0.694E-06 -.694E-06 0.694E-06   -.322E-23 -.331E-23 0.649E-25   -.460E-10 0.458E-10 -.462E-10
   0.868E-06 -.868E-06 -.868E-06   0.694E-06 -.694E-06 -.694E-06   0.398E-24 -.452E-23 0.154E-23   -.460E-10 0.459E-10 0.460E-10
   0.868E-06 0.742E-12 -.113E-11   0.694E-06 0.315E-13 -.230E-13   -.197E-24 -.877E-23 -.431E-23   -.460E-10 0.285E-13 0.115E-12
   0.868E-06 0.731E-12 0.868E-06   0.694E-06 0.260E-13 0.694E-06   -.607E-23 -.114E-22 -.216E-23   -.460E-10 0.191E-12 -.461E-10
   0.868E-06 0.661E-12 -.868E-06   0.694E-06 0.206E-13 -.694E-06   -.310E-25 -.519E-23 -.211E-23   -.459E-10 0.131E-12 0.460E-10
   -.868E-06 0.868E-06 0.174E-11   -.694E-06 0.694E-06 0.222E-13   0.393E-23 -.716E-23 -.602E-24   0.459E-10 -.459E-10 0.133E-12
   -.868E-06 0.868E-06 0.868E-06   -.694E-06 0.694E-06 0.694E-06   0.323E-24 -.538E-23 -.332E-23   0.459E-10 -.460E-10 -.458E-10
   -.868E-06 0.868E-06 -.868E-06   -.694E-06 0.694E-06 -.694E-06   -.386E-24 -.434E-23 0.380E-25   0.460E-10 -.461E-10 0.457E-10
   -.868E-06 -.868E-06 0.220E-11   -.694E-06 -.694E-06 0.231E-13   0.802E-24 -.779E-23 0.181E-23   0.459E-10 0.461E-10 0.749E-13
   -.868E-06 -.868E-06 0.868E-06   -.694E-06 -.694E-06 0.694E-06   0.270E-23 -.806E-23 -.131E-23   0.459E-10 0.459E-10 -.461E-10
   -.868E-06 -.868E-06 -.868E-06   -.694E-06 -.694E-06 -.694E-06   -.252E-23 -.393E-24 0.809E-24   0.460E-10 0.461E-10 0.459E-10
   -.868E-06 -.860E-12 0.197E-11   -.694E-06 0.375E-13 -.744E-14   0.218E-23 -.197E-24 -.310E-23   0.459E-10 -.170E-12 0.127E-13
   -.868E-06 -.823E-12 0.868E-06   -.694E-06 0.534E-14 0.694E-06   0.571E-24 -.812E-23 -.309E-23   0.459E-10 0.121E-12 -.459E-10
   -.868E-06 -.829E-12 -.868E-06   -.694E-06 0.822E-14 -.694E-06   -.692E-23 -.136E-22 0.112E-23   0.460E-10 0.241E-13 0.459E-10
   0.868E-06 0.559E-13 -.466E-12   0.694E-06 0.157E-13 -.180E-14   -.356E-23 -.577E-23 -.528E-25   -.458E-10 0.854E-13 0.110E-12
   0.868E-06 0.871E-13 0.868E-06   0.694E-06 0.925E-14 0.694E-06   0.723E-23 -.384E-23 -.322E-23   -.459E-10 -.118E-12 -.460E-10
   0.868E-06 -.740E-13 -.868E-06   0.694E-06 0.186E-13 -.694E-06   -.134E-23 -.130E-22 -.641E-25   -.459E-10 -.520E-13 0.458E-10
   0.868E-06 0.868E-06 -.451E-12   0.694E-06 0.694E-06 0.975E-15   -.467E-25 -.149E-23 -.557E-24   -.460E-10 -.460E-10 -.764E-14
   0.868E-06 0.868E-06 0.868E-06   0.694E-06 0.694E-06 0.694E-06   -.226E-23 -.110E-22 -.322E-23   -.460E-10 -.459E-10 -.460E-10
   0.868E-06 0.868E-06 -.868E-06   0.694E-06 0.694E-06 -.694E-06   -.234E-23 -.563E-23 -.317E-24   -.460E-10 -.458E-10 0.460E-10
   0.868E-06 -.868E-06 0.485E-13   0.694E-06 -.694E-06 0.140E-13   0.940E-24 -.330E-24 -.402E-23   -.458E-10 0.459E-10 0.559E-13
   0.868E-06 -.868E-06 0.868E-06   0.694E-06 -.694E-06 0.694E-06   0.413E-23 -.961E-25 -.818E-23   -.459E-10 0.460E-10 -.459E-10
   0.868E-06 -.868E-06 -.868E-06   0.694E-06 -.694E-06 -.694E-06   -.819E-24 -.213E-23 0.388E-23   -.459E-10 0.459E-10 0.458E-10
   -.868E-06 0.261E-12 0.579E-12   -.694E-06 0.230E-13 0.139E-13   -.322E-23 -.100E-22 -.306E-23   0.461E-10 -.124E-12 0.144E-12
   -.868E-06 0.272E-12 0.868E-06   -.694E-06 -.226E-13 0.694E-06   0.950E-24 -.385E-23 0.188E-23   0.460E-10 -.202E-12 -.461E-10
   -.868E-06 0.201E-12 -.868E-06   -.694E-06 0.400E-13 -.694E-06   0.339E-24 -.457E-23 0.273E-23   0.460E-10 -.144E-12 0.460E-10
   -.868E-06 0.868E-06 0.382E-12   -.694E-06 0.694E-06 0.196E-13   -.805E-23 -.181E-23 -.368E-23   0.461E-10 -.459E-10 0.874E-13
   -.868E-06 0.868E-06 0.868E-06   -.694E-06 0.694E-06 0.694E-06   0.276E-24 -.101E-22 0.416E-23   0.460E-10 -.459E-10 -.461E-10
   -.868E-06 0.868E-06 -.868E-06   -.694E-06 0.694E-06 -.694E-06   -.306E-24 -.811E-23 0.791E-24   0.459E-10 -.459E-10 0.460E-10
   -.868E-06 -.868E-06 0.870E-12   -.694E-06 -.694E-06 0.198E-13   -.125E-23 -.500E-23 0.122E-23   0.461E-10 0.461E-10 0.131E-12
   -.868E-06 -.868E-06 0.868E-06   -.694E-06 -.694E-06 0.694E-06   -.252E-24 -.273E-23 0.205E-24   0.460E-10 0.461E-10 -.461E-10
   -.868E-06 -.868E-06 -.868E-06   -.694E-06 -.694E-06 -.694E-06   -.186E-24 -.802E-24 -.279E-23   0.460E-10 0.460E-10 0.459E-10
   0.180E-12 -.134E-11 0.114E-11   0.132E-12 0.159E-13 -.195E-13   0.599E-23 -.413E-23 -.169E-23   -.247E-12 0.146E-12 0.170E-12
   0.191E-12 -.126E-11 0.868E-06   0.104E-12 0.242E-13 0.694E-06   -.171E-23 -.575E-23 0.152E-23   -.761E-13 -.147E-12 -.461E-10
   0.180E-12 0.157E-11 -.868E-06   0.827E-13 -.934E-14 -.694E-06   0.835E-24 -.132E-24 0.828E-24   -.480E-13 -.820E-13 0.458E-10
   0.370E-12 0.868E-06 0.938E-12   0.369E-13 0.694E-06 0.405E-14   -.824E-24 -.691E-23 -.956E-25   -.559E-13 -.460E-10 0.653E-13
   0.116E-12 0.868E-06 0.868E-06   0.253E-13 0.694E-06 0.694E-06   -.449E-23 -.710E-23 -.787E-24   0.162E-14 -.459E-10 -.461E-10
   0.243E-12 0.868E-06 -.868E-06   -.193E-13 0.694E-06 -.694E-06   0.166E-23 -.323E-23 0.229E-23   0.984E-13 -.458E-10 0.460E-10
   0.349E-12 -.868E-06 0.136E-11   0.702E-13 -.694E-06 -.281E-13   -.138E-23 -.114E-23 -.417E-23   -.268E-12 0.459E-10 0.123E-12
   0.233E-12 -.868E-06 0.868E-06   0.333E-14 -.694E-06 0.694E-06   -.366E-23 -.519E-23 0.536E-25   -.814E-13 0.460E-10 -.459E-10
   0.845E-13 -.868E-06 -.868E-06   0.483E-13 -.694E-06 -.694E-06   0.254E-23 -.273E-23 0.133E-24   -.597E-14 0.459E-10 0.458E-10
   -.835E-13 -.751E-14 0.345E-13   -.157E-12 -.405E-13 0.254E-13   0.717E-23 0.344E-23 -.345E-23   0.783E-13 -.142E-12 -.259E-12
   -.127E-12 -.366E-14 0.868E-06   -.615E-13 -.562E-14 0.694E-06   0.376E-23 0.940E-24 0.135E-23   0.113E-12 -.686E-13 -.457E-10
   -.127E-12 0.236E-14 -.868E-06   -.964E-13 -.444E-15 -.694E-06   -.110E-24 0.154E-23 0.140E-23   -.178E-13 -.598E-13 0.460E-10
   -.264E-12 0.868E-06 -.210E-12   -.787E-13 0.694E-06 0.766E-13   0.242E-23 -.881E-24 0.195E-23   0.458E-13 -.459E-10 -.354E-13
   -.522E-13 0.868E-06 0.868E-06   -.629E-13 0.694E-06 0.694E-06   0.358E-24 -.134E-23 0.332E-23   0.144E-15 -.458E-10 -.459E-10
   -.180E-12 0.868E-06 -.868E-06   -.340E-13 0.694E-06 -.694E-06   -.122E-23 0.666E-23 0.141E-23   0.101E-13 -.461E-10 0.459E-10
   -.296E-12 -.868E-06 0.277E-12   -.452E-13 -.694E-06 -.275E-13   0.463E-23 0.124E-22 0.235E-23   -.658E-14 0.460E-10 -.414E-13
   -.180E-12 -.868E-06 0.868E-06   0.112E-13 -.694E-06 0.694E-06   -.217E-23 0.852E-23 -.203E-23   -.265E-13 0.459E-10 -.460E-10
   -.309E-13 -.868E-06 -.868E-06   0.163E-13 -.694E-06 -.694E-06   -.398E-24 0.353E-23 -.715E-24   0.120E-13 0.461E-10 0.460E-10
   0.868E-06 0.297E-14 -.145E-11   0.694E-06 -.337E-13 0.269E-13   -.707E-24 0.239E-23 0.958E-24   -.459E-10 -.354E-13 0.144E-13
   0.868E-06 -.751E-14 0.868E-06   0.694E-06 -.314E-13 0.694E-06   0.385E-23 0.578E-23 -.426E-23   -.457E-10 0.308E-13 -.459E-10
   0.868E-06 -.217E-13 -.868E-06   0.694E-06 0.311E-15 -.694E-06   -.174E-23 0.294E-23 -.694E-24   -.459E-10 -.609E-14 0.458E-10
   0.868E-06 0.868E-06 -.170E-11   0.694E-06 0.694E-06 0.495E-13   0.264E-24 0.356E-23 0.453E-23   -.459E-10 -.460E-10 0.812E-13
   0.868E-06 0.868E-06 0.868E-06   0.694E-06 0.694E-06 0.694E-06   0.418E-23 0.164E-23 -.426E-25   -.458E-10 -.461E-10 -.459E-10
   0.868E-06 0.868E-06 -.868E-06   0.694E-06 0.694E-06 -.694E-06   0.157E-23 0.142E-23 0.177E-23   -.460E-10 -.461E-10 0.458E-10
   0.868E-06 -.868E-06 -.127E-11   0.694E-06 -.694E-06 -.204E-13   0.635E-24 0.940E-23 0.123E-23   -.460E-10 0.461E-10 0.462E-13
   0.868E-06 -.868E-06 0.868E-06   0.694E-06 -.694E-06 0.694E-06   0.264E-23 0.657E-23 0.144E-23   -.459E-10 0.460E-10 -.459E-10
   0.868E-06 -.868E-06 -.868E-06   0.694E-06 -.694E-06 -.694E-06   -.601E-23 0.940E-23 0.179E-23   -.460E-10 0.461E-10 0.459E-10
   -.868E-06 0.402E-14 0.433E-12   -.694E-06 -.593E-13 -.120E-13   0.207E-23 0.216E-23 -.226E-23   0.458E-10 -.718E-13 -.805E-13
   -.868E-06 -.502E-14 0.868E-06   -.694E-06 -.117E-13 0.694E-06   -.507E-27 0.194E-23 -.171E-23   0.456E-10 -.774E-14 -.458E-10
   -.868E-06 0.507E-14 -.868E-06   -.694E-06 -.210E-13 -.694E-06   0.423E-23 0.631E-23 -.297E-23   0.459E-10 -.339E-15 0.458E-10
   -.868E-06 0.868E-06 0.298E-12   -.694E-06 0.694E-06 -.169E-13   0.111E-23 -.214E-23 0.562E-23   0.459E-10 -.460E-10 0.103E-12
   -.868E-06 0.868E-06 0.868E-06   -.694E-06 0.694E-06 0.694E-06   0.851E-24 0.654E-23 0.588E-23   0.458E-10 -.459E-10 -.459E-10
   -.868E-06 0.868E-06 -.868E-06   -.694E-06 0.694E-06 -.694E-06   0.186E-23 -.154E-23 -.251E-23   0.459E-10 -.462E-10 0.458E-10
   -.868E-06 -.868E-06 0.218E-11   -.694E-06 -.694E-06 0.103E-13   -.409E-23 0.118E-22 0.435E-23   0.460E-10 0.460E-10 0.866E-13
   -.868E-06 -.868E-06 0.868E-06   -.694E-06 -.694E-06 0.694E-06   0.123E-24 0.354E-23 0.324E-23   0.459E-10 0.459E-10 -.460E-10
   -.868E-06 -.868E-06 -.868E-06   -.694E-06 -.694E-06 -.694E-06   0.240E-23 0.651E-23 0.181E-23   0.460E-10 0.461E-10 0.458E-10
   -.868E-06 -.868E-06 -.406E-12   -.694E-06 -.694E-06 0.331E-13   0.440E-23 0.585E-23 -.581E-24   0.461E-10 0.459E-10 -.786E-13
   -.868E-06 -.868E-06 0.868E-06   -.694E-06 -.694E-06 0.694E-06   0.224E-23 -.228E-24 -.630E-23   0.462E-10 0.460E-10 -.458E-10
   -.868E-06 -.868E-06 -.868E-06   -.694E-06 -.694E-06 -.694E-06   -.106E-23 -.164E-23 0.184E-23   0.460E-10 0.458E-10 0.459E-10
   -.868E-06 -.309E-12 0.658E-13   -.694E-06 -.283E-13 -.261E-15   0.138E-24 0.496E-23 0.400E-23   0.459E-10 0.882E-13 0.230E-13
   -.868E-06 0.406E-12 0.868E-06   -.694E-06 -.193E-13 0.694E-06   0.637E-24 0.104E-22 0.344E-23   0.460E-10 0.135E-13 -.460E-10
   -.868E-06 0.535E-13 -.868E-06   -.694E-06 -.233E-13 -.694E-06   -.741E-23 0.131E-23 0.248E-23   0.459E-10 0.209E-13 0.459E-10
   -.868E-06 0.868E-06 -.204E-12   -.694E-06 0.694E-06 0.137E-13   0.316E-23 0.468E-23 -.398E-24   0.460E-10 -.460E-10 -.106E-12
   -.868E-06 0.868E-06 0.868E-06   -.694E-06 0.694E-06 0.694E-06   0.772E-23 0.584E-23 -.322E-23   0.461E-10 -.460E-10 -.459E-10
   -.868E-06 0.868E-06 -.868E-06   -.694E-06 0.694E-06 -.694E-06   -.252E-23 0.156E-23 0.622E-24   0.459E-10 -.459E-10 0.460E-10
   -.211E-12 -.868E-06 -.121E-12   -.494E-13 -.694E-06 -.126E-13   -.213E-23 -.367E-23 0.254E-23   -.476E-13 0.459E-10 0.939E-13
   -.116E-12 -.868E-06 0.868E-06   0.168E-13 -.694E-06 0.694E-06   0.311E-23 0.221E-23 -.433E-23   -.403E-13 0.459E-10 -.459E-10
   0.434E-13 -.868E-06 -.868E-06   -.103E-13 -.694E-06 -.694E-06   -.553E-24 0.293E-23 -.525E-23   0.205E-13 0.458E-10 0.458E-10
   -.197E-13 0.477E-12 -.346E-12   -.122E-12 -.361E-13 0.628E-13   -.352E-23 0.183E-23 0.232E-23   0.224E-13 0.556E-14 0.150E-12
   -.634E-13 0.474E-12 0.868E-06   -.888E-15 0.677E-14 0.694E-06   0.283E-23 0.484E-23 0.362E-23   0.896E-13 -.382E-13 -.460E-10
   -.633E-13 0.413E-12 -.868E-06   -.662E-13 -.581E-13 -.694E-06   -.329E-23 0.859E-23 -.558E-24   -.999E-14 -.155E-13 0.458E-10
   -.222E-12 0.868E-06 -.586E-12   -.779E-13 0.694E-06 0.809E-13   0.454E-24 0.769E-23 -.402E-24   -.938E-14 -.459E-10 0.610E-13
   0.116E-13 0.868E-06 0.868E-06   -.327E-13 0.694E-06 0.694E-06   0.200E-24 0.534E-23 -.328E-23   -.735E-14 -.459E-10 -.459E-10
   -.116E-12 0.868E-06 -.868E-06   -.103E-13 0.694E-06 -.694E-06   0.615E-23 0.636E-23 -.196E-23   0.231E-13 -.458E-10 0.458E-10
   0.868E-06 -.868E-06 -.128E-11   0.694E-06 -.694E-06 0.196E-13   -.164E-23 -.154E-23 -.196E-24   -.460E-10 0.459E-10 -.171E-12
   0.868E-06 -.868E-06 0.868E-06   0.694E-06 -.694E-06 0.694E-06   0.345E-23 0.118E-23 0.191E-23   -.462E-10 0.461E-10 -.457E-10
   0.868E-06 -.868E-06 -.868E-06   0.694E-06 -.694E-06 -.694E-06   -.517E-24 0.106E-23 -.470E-23   -.460E-10 0.458E-10 0.459E-10
   0.868E-06 0.178E-12 -.152E-11   0.694E-06 -.290E-13 0.303E-13   0.421E-24 0.614E-23 0.162E-23   -.459E-10 0.139E-12 0.100E-12
   0.868E-06 0.182E-12 0.868E-06   0.694E-06 -.344E-13 0.694E-06   -.234E-23 0.369E-23 -.506E-24   -.461E-10 0.274E-13 -.460E-10
   0.868E-06 0.308E-12 -.868E-06   0.694E-06 0.103E-13 -.694E-06   0.395E-24 0.340E-23 0.284E-23   -.459E-10 0.230E-13 0.459E-10
   0.868E-06 0.868E-06 -.173E-11   0.694E-06 0.694E-06 -.289E-13   0.318E-23 0.685E-23 0.532E-24   -.460E-10 -.461E-10 -.155E-12
   0.868E-06 0.868E-06 0.868E-06   0.694E-06 0.694E-06 0.694E-06   -.371E-23 0.301E-23 0.909E-24   -.461E-10 -.461E-10 -.458E-10
   0.868E-06 0.868E-06 -.868E-06   0.694E-06 0.694E-06 -.694E-06   -.331E-24 0.820E-23 -.137E-23   -.460E-10 -.458E-10 0.460E-10
   -.868E-06 -.715E-14 -.868E-06   -.694E-06 0.229E-13 -.694E-06   0.505E-23 0.258E-24 -.301E-23   0.462E-10 -.652E-13 0.460E-10
   -.868E-06 -.185E-13 -.259E-12   -.694E-06 -.106E-13 -.305E-13   0.259E-23 0.295E-23 0.209E-23   0.461E-10 -.194E-14 0.116E-12
   -.868E-06 -.120E-13 0.868E-06   -.694E-06 0.388E-13 0.694E-06   0.197E-23 0.240E-23 0.295E-23   0.460E-10 -.936E-13 -.461E-10
   -.868E-06 0.868E-06 -.868E-06   -.694E-06 0.694E-06 -.694E-06   0.320E-23 -.180E-24 0.453E-24   0.461E-10 -.459E-10 0.460E-10
   -.868E-06 0.868E-06 -.490E-12   -.694E-06 0.694E-06 -.227E-13   -.173E-23 -.207E-23 -.527E-24   0.460E-10 -.461E-10 -.201E-13
   -.868E-06 0.868E-06 0.868E-06   -.694E-06 0.694E-06 0.694E-06   -.575E-24 0.193E-23 0.551E-24   0.460E-10 -.460E-10 -.461E-10
   -.868E-06 -.868E-06 -.868E-06   -.694E-06 -.694E-06 -.694E-06   0.457E-23 0.559E-23 0.390E-23   0.460E-10 0.460E-10 0.460E-10
   -.868E-06 -.868E-06 -.377E-12   -.694E-06 -.694E-06 -.178E-14   -.510E-23 0.107E-22 -.510E-24   0.460E-10 0.460E-10 -.813E-14
   -.868E-06 -.868E-06 0.868E-06   -.694E-06 -.694E-06 0.694E-06   -.714E-24 0.602E-23 0.200E-23   0.459E-10 0.461E-10 -.460E-10
   -.845E-13 -.170E-13 -.868E-06   -.568E-13 0.872E-14 -.694E-06   0.557E-24 0.435E-23 0.270E-23   -.787E-13 0.146E-13 0.461E-10
   -.409E-13 -.218E-13 0.112E-12   -.123E-12 0.200E-15 -.150E-13   0.649E-23 0.610E-23 -.346E-23   -.264E-14 0.445E-13 -.643E-13
   -.634E-13 -.138E-13 0.868E-06   -.671E-13 0.355E-13 0.694E-06   0.711E-24 0.668E-24 -.347E-23   0.445E-14 -.144E-13 -.461E-10
   -.106E-12 0.868E-06 -.868E-06   0.112E-13 0.694E-06 -.694E-06   -.809E-24 0.369E-23 0.279E-23   0.141E-13 -.461E-10 0.462E-10
   -.179E-12 0.868E-06 -.104E-12   -.550E-13 0.694E-06 0.436E-13   0.209E-23 -.107E-23 -.134E-23   0.245E-13 -.462E-10 -.157E-12
   0.328E-13 0.868E-06 0.868E-06   -.224E-13 0.694E-06 0.694E-06   0.401E-25 -.274E-23 0.171E-23   -.146E-13 -.461E-10 -.460E-10
   0.327E-13 -.868E-06 -.868E-06   0.133E-14 -.694E-06 -.694E-06   0.979E-25 0.840E-23 0.204E-23   0.546E-13 0.460E-10 0.461E-10
   -.201E-12 -.868E-06 0.283E-12   -.233E-13 -.694E-06 -.660E-14   0.123E-23 0.460E-23 -.379E-23   0.360E-13 0.461E-10 -.134E-12
   -.127E-12 -.868E-06 0.868E-06   0.349E-13 -.694E-06 0.694E-06   -.641E-23 0.985E-23 0.484E-23   0.414E-14 0.461E-10 -.460E-10
   0.868E-06 -.251E-14 -.868E-06   0.694E-06 0.585E-13 -.694E-06   0.490E-23 0.309E-23 -.349E-23   -.461E-10 -.127E-12 0.460E-10
   0.868E-06 -.697E-15 -.152E-11   0.694E-06 0.342E-13 -.132E-13   0.188E-23 0.128E-23 -.177E-25   -.461E-10 -.227E-13 0.231E-12
   0.868E-06 -.369E-14 0.868E-06   0.694E-06 -.337E-14 0.694E-06   0.401E-23 0.521E-23 -.439E-24   -.460E-10 -.934E-13 -.462E-10
   0.868E-06 0.868E-06 -.868E-06   0.694E-06 0.694E-06 -.694E-06   0.110E-23 0.220E-23 0.488E-23   -.461E-10 -.458E-10 0.461E-10
   0.868E-06 0.868E-06 -.175E-11   0.694E-06 0.694E-06 0.226E-13   -.127E-23 0.781E-23 -.200E-24   -.461E-10 -.460E-10 -.341E-13
   0.868E-06 0.868E-06 0.868E-06   0.694E-06 0.694E-06 0.694E-06   0.479E-25 0.870E-25 0.707E-25   -.459E-10 -.460E-10 -.461E-10
   0.868E-06 -.868E-06 -.868E-06   0.694E-06 -.694E-06 -.694E-06   -.452E-23 0.734E-23 0.968E-24   -.460E-10 0.459E-10 0.460E-10
   0.868E-06 -.868E-06 -.111E-11   0.694E-06 -.694E-06 0.950E-14   -.313E-24 0.225E-23 0.103E-23   -.460E-10 0.460E-10 -.461E-13
   0.868E-06 -.868E-06 0.868E-06   0.694E-06 -.694E-06 0.694E-06   0.181E-23 0.338E-23 0.296E-24   -.459E-10 0.461E-10 -.460E-10
   -.416E-13 -.868E-06 -.868E-06   -.200E-13 -.694E-06 -.694E-06   0.124E-23 -.421E-24 -.328E-23   0.118E-12 0.461E-10 0.460E-10
   -.286E-12 -.868E-06 0.262E-12   0.112E-13 -.694E-06 -.166E-13   0.349E-23 -.209E-23 0.245E-23   0.299E-13 0.459E-10 0.172E-12
   -.170E-12 -.868E-06 0.868E-06   0.210E-13 -.694E-06 0.694E-06   0.610E-23 0.302E-23 0.876E-24   0.151E-13 0.458E-10 -.462E-10
   -.148E-12 0.943E-14 -.868E-06   -.783E-13 -.113E-13 -.694E-06   0.199E-23 0.102E-22 0.298E-23   -.399E-13 0.108E-12 0.460E-10
   -.105E-12 0.610E-13 0.828E-13   -.503E-13 -.104E-13 -.763E-14   -.443E-23 0.768E-24 -.107E-23   -.173E-13 0.101E-13 -.613E-13
   -.148E-12 0.933E-13 0.868E-06   -.116E-13 0.256E-13 0.694E-06   0.166E-23 0.350E-23 0.191E-23   0.316E-13 0.108E-12 -.460E-10
   -.180E-12 0.868E-06 -.868E-06   0.168E-13 0.694E-06 -.694E-06   0.645E-23 0.272E-23 -.582E-24   0.599E-13 -.462E-10 0.459E-10
   -.254E-12 0.868E-06 -.115E-12   -.461E-13 0.694E-06 0.258E-13   -.384E-23 0.454E-23 -.207E-23   0.133E-13 -.459E-10 0.156E-12
   -.308E-13 0.868E-06 0.868E-06   -.224E-13 0.694E-06 0.694E-06   0.186E-23 0.626E-23 0.132E-23   0.316E-15 -.459E-10 -.461E-10
   0.868E-06 -.868E-06 -.868E-06   0.694E-06 -.694E-06 -.694E-06   0.275E-23 0.760E-23 0.997E-25   -.458E-10 0.459E-10 0.461E-10
   0.868E-06 -.868E-06 -.846E-12   0.694E-06 -.694E-06 -.329E-13   0.163E-23 -.902E-24 -.125E-23   -.458E-10 0.458E-10 -.623E-13
   0.868E-06 -.868E-06 0.868E-06   0.694E-06 -.694E-06 0.694E-06   -.299E-23 -.279E-23 0.122E-23   -.459E-10 0.458E-10 -.461E-10
   0.868E-06 0.448E-12 -.868E-06   0.694E-06 0.322E-13 -.694E-06   0.572E-23 0.559E-23 0.506E-23   -.459E-10 -.599E-14 0.461E-10
   0.868E-06 -.269E-12 -.183E-11   0.694E-06 -.143E-14 -.176E-13   -.145E-23 0.989E-23 0.214E-23   -.459E-10 -.295E-13 -.102E-12
   0.868E-06 -.265E-12 0.868E-06   0.694E-06 -.138E-13 0.694E-06   -.374E-23 0.227E-23 0.481E-23   -.460E-10 0.205E-13 -.460E-10
   0.868E-06 0.868E-06 -.868E-06   0.694E-06 0.694E-06 -.694E-06   0.311E-23 0.830E-23 -.494E-23   -.459E-10 -.459E-10 0.461E-10
   0.868E-06 0.868E-06 -.204E-11   0.694E-06 0.694E-06 -.462E-14   0.707E-23 0.837E-23 -.785E-24   -.459E-10 -.458E-10 -.309E-13
   0.868E-06 0.868E-06 0.868E-06   0.694E-06 0.694E-06 0.694E-06   -.786E-24 0.488E-23 0.805E-24   -.460E-10 -.459E-10 -.461E-10
   -.868E-06 -.868E-06 -.868E-06   -.694E-06 -.694E-06 -.694E-06   0.688E-24 0.933E-24 0.435E-23   0.456E-10 0.460E-10 0.461E-10
   -.868E-06 -.868E-06 0.116E-11   -.694E-06 -.694E-06 0.221E-14   0.247E-23 0.224E-23 -.390E-23   0.458E-10 0.459E-10 0.478E-14
   -.868E-06 -.868E-06 0.868E-06   -.694E-06 -.694E-06 0.694E-06   -.871E-24 -.183E-23 -.121E-23   0.459E-10 0.458E-10 -.462E-10
   -.868E-06 0.340E-12 -.868E-06   -.694E-06 0.609E-14 -.694E-06   -.217E-23 0.403E-23 0.232E-23   0.460E-10 0.326E-13 0.461E-10
   -.868E-06 0.416E-12 0.968E-12   -.694E-06 0.366E-14 -.327E-13   0.360E-23 0.191E-23 0.156E-23   0.459E-10 -.282E-13 -.201E-12
   -.868E-06 0.382E-12 0.868E-06   -.694E-06 0.143E-13 0.694E-06   0.231E-23 0.961E-23 0.295E-23   0.460E-10 0.504E-13 -.460E-10
   -.868E-06 0.868E-06 -.868E-06   -.694E-06 0.694E-06 -.694E-06   0.314E-24 0.658E-23 0.252E-23   0.458E-10 -.460E-10 0.461E-10
   -.868E-06 0.868E-06 0.722E-12   -.694E-06 0.694E-06 0.205E-13   0.122E-23 0.431E-23 -.160E-23   0.458E-10 -.459E-10 0.667E-14
   -.868E-06 0.868E-06 0.868E-06   -.694E-06 0.694E-06 0.694E-06   0.397E-23 0.515E-23 -.679E-25   0.460E-10 -.459E-10 -.461E-10
 -----------------------------------------------------------------------------------------------
   0.946E-11 0.121E-10 0.693E-11   -.396E-12 0.134E-12 0.363E-12   0.699E-22 -.198E-21 -.358E-22   -.259E-12 -.499E-12 -.248E-11
 
 
 POSITION                                       TOTAL-FORCE (eV/Angst)
 -----------------------------------------------------------------------------------
      0.89343      0.89343      0.89343         0.000000     -0.000000     -0.000000
      0.89343      0.89343      4.46714        -0.000000      0.000000      0.000000
      0.89343      0.89343      8.04085         0.000000     -0.000000     -0.000000
      0.89343      4.46714      0.89343        -0.000000      0.000000      0.000000
      0.89343      4.46714      4.46714         0.000000     -0.000000     -0.000000
      0.89343      4.46714      8.04085         0.000000      0.000000     -0.000000
      0.89343      8.04085      0.89343         0.000000     -0.000000     -0.000000
      0.89343      8.04085      4.46714         0.000000      0.000000     -0.000000
      0.89343      8.04085      8.04085        -0.000000      0.000000      0.000000
      4.46714      0.89343      0.89343        -0.000000     -0.000000      0.000000
      4.46714      0.89343      4.46714         0.000000      0.000000     -0.000000
      4.46714      0.89343      8.04085         0.000000      0.000000      0.000000
      4.46714      4.46714      0.89343         0.000000      0.000000     -0.000000
      4.46714      4.46714      4.46714         0.000000      0.000000      0.000000
      4.46714      4.46714      8.04085        -0.000000     -0.000000      0.000000
      4.46714      8.04085      0.89343         0.000000      0.000000      0.000000
      4.46714      8.04085      4.46714        -0.000000     -0.000000      0.000000
      4.46714      8.04085      8.04085         0.000000      0.000000     -0.000000
      8.04085      0.89343      0.89343        -0.000000      0.000000      0.000000
      8.04085      0.89343      4.46714         0.000000     -0.000000      0.000000
      8.04085      0.89343      8.04085         0.000000     -0.000000     -0.000000
      8.04085      4.46714      0.89343         0.000000     -0.000000      0.000000
      8.04085      4.46714      4.46714         0.000000      0.000000     -0.000000
      8.04085      4.46714      8.04085        -0.000000      0.000000      0.000000
      8.04085      8.04085      0.89343         0.000000      0.000000     -0.000000
      8.04085      8.04085      4.46714        -0.000000      0.000000      0.000000
      8.04085      8.04085      8.04085         0.000000     -0.000000      0.000000
      2.68028      2.68028      0.89343         0.000000     -0.000000     -0.000000
      2.68028      2.68028      4.46714        -0.000000      0.000000      0.000000
      2.68028      2.68028      8.04085         0.000000     -0.000000      0.000000
      2.68028      6.25400      0.89343        -0.000000      0.000000      0.000000
      2.68028      6.25400      4.46714         0.000000     -0.000000      0.000000
      2.68028      6.25400      8.04085         0.000000     -0.000000     -0.000000
      2.68028      9.82771      0.89343         0.000000     -0.000000      0.000000
      2.68028      9.82771      4.46714         0.000000     -0.000000     -0.000000
      2.68028      9.82771      8.04085        -0.000000      0.000000      0.000000
      6.25400      2.68028      0.89343        -0.000000     -0.000000     -0.000000
      6.25400      2.68028      4.46714         0.000000      0.000000     -0.000000
      6.25400      2.68028      8.04085        -0.000000      0.000000     -0.000000
      6.25400      6.25400      0.89343         0.000000     -0.000000     -0.000000
      6.25400      6.25400      4.46714        -0.000000      0.000000      0.000000
      6.25400      6.25400      8.04085         0.000000     -0.000000     -0.000000
      6.25400      9.82771      0.89343        -0.000000      0.000000      0.000000
      6.25400      9.82771      4.46714         0.000000     -0.000000     -0.000000
      6.25400      9.82771      8.04085         0.000000      0.000000     -0.000000
      9.82771      2.68028      0.89343        -0.000000      0.000000      0.000000
      9.82771      2.68028      4.46714         0.000000     -0.000000      0.000000
      9.82771      2.68028      8.04085         0.000000      0.000000     -0.000000
      9.82771      6.25400      0.89343         0.000000     -0.000000      0.000000
      9.82771      6.25400      4.46714         0.000000      0.000000     -0.000000
      9.82771      6.25400      8.04085        -0.000000      0.000000      0.000000
      9.82771      9.82771      0.89343         0.000000      0.000000     -0.000000
      9.82771      9.82771      4.46714        -0.000000      0.000000      0.000000
      9.82771      9.82771      8.04085         0.000000     -0.000000      0.000000
      2.68028      0.89343      2.68028         0.000000     -0.000000     -0.000000
      2.68028      0.89343      6.25400        -0.000000      0.000000      0.000000
      2.68028      0.89343      9.82771         0.000000     -0.000000      0.000000
      2.68028      4.46714      2.68028        -0.000000      0.000000      0.000000
      2.68028      4.46714      6.25400         0.000000     -0.000000      0.000000
      2.68028      4.46714      9.82771         0.000000     -0.000000     -0.000000
      2.68028      8.04085      2.68028         0.000000     -0.000000      0.000000
      2.68028      8.04085      6.25400         0.000000     -0.000000     -0.000000
      2.68028      8.04085      9.82771        -0.000000      0.000000      0.000000
      6.25400      0.89343      2.68028        -0.000000     -0.000000     -0.000000
      6.25400      0.89343      6.25400         0.000000     -0.000000     -0.000000
      6.25400      0.89343      9.82771        -0.000000      0.000000     -0.000000
      6.25400      4.46714      2.68028         0.000000      0.000000     -0.000000
      6.25400      4.46714      6.25400        -0.000000      0.000000     -0.000000
      6.25400      4.46714      9.82771        -0.000000     -0.000000     -0.000000
      6.25400      8.04085      2.68028        -0.000000      0.000000     -0.000000
      6.25400      8.04085      6.25400         0.000000      0.000000     -0.000000
      6.25400      8.04085      9.82771         0.000000     -0.000000     -0.000000
      9.82771      0.89343      2.68028        -0.000000      0.000000      0.000000
      9.82771      0.89343      6.25400         0.000000     -0.000000      0.000000
      9.82771      0.89343      9.82771         0.000000      0.000000     -0.000000
      9.82771      4.46714      2.68028         0.000000     -0.000000      0.000000
      9.82771      4.46714      6.25400         0.000000      0.000000     -0.000000
      9.82771      4.46714      9.82771        -0.000000      0.000000      0.000000
      9.82771      8.04085      2.68028         0.000000      0.000000     -0.000000
      9.82771      8.04085      6.25400        -0.000000      0.000000      0.000000
      9.82771      8.04085      9.82771         0.000000     -0.000000      0.000000
      0.89343      2.68028      2.68028        -0.000000      0.000000      0.000000
      0.89343      2.68028      6.25400         0.000000     -0.000000     -0.000000
      0.89343      2.68028      9.82771         0.000000     -0.000000     -0.000000
      0.89343      6.25400      2.68028         0.000000     -0.000000     -0.000000
      0.89343      6.25400      6.25400         0.000000      0.000000     -0.000000
      0.89343      6.25400      9.82771        -0.000000      0.000000      0.000000
      0.89343      9.82771      2.68028         0.000000     -0.000000     -0.000000
      0.89343      9.82771      6.25400        -0.000000      0.000000      0.000000
      0.89343      9.82771      9.82771         0.000000     -0.000000     -0.000000
      4.46714      2.68028      2.68028         0.000000      0.000000     -0.000000
      4.46714      2.68028      6.25400        -0.000000      0.000000      0.000000
      4.46714      2.68028      9.82771        -0.000000     -0.000000      0.000000
      4.46714      6.25400      2.68028         0.000000      0.000000      0.000000
      4.46714      6.25400      6.25400        -0.000000     -0.000000      0.000000
      4.46714      6.25400      9.82771         0.000000     -0.000000     -0.000000
      4.46714      9.82771      2.68028         0.000000     -0.000000      0.000000
      4.46714      9.82771      6.25400         0.000000      0.000000     -0.000000
      4.46714      9.82771      9.82771         0.000000      0.000000      0.000000
      8.04085      2.68028      2.68028         0.000000     -0.000000      0.000000
      8.04085      2.68028      6.25400         0.000000      0.000000     -0.000000
      8.04085      2.68028      9.82771        -0.000000      0.000000      0.000000
      8.04085      6.25400      2.68028         0.000000      0.000000     -0.000000
      8.04085      6.25400      6.25400        -0.000000      0.000000      0.000000
      8.04085      6.25400      9.82771         0.000000     -0.000000      0.000000
      8.04085      9.82771      2.68028        -0.000000      0.000000      0.000000
      8.04085      9.82771      6.25400         0.000000     -0.000000      0.000000
      8.04085      9.82771      9.82771         0.000000      0.000000     -0.000000
      0.00000      0.00000      0.00000         0.000000     -0.000000     -0.000000
      0.00000      0.00000      3.57371        -0.000000     -0.000000      0.000000
      0.00000      0.00000      7.14742        -0.000000      0.000000      0.000000
      0.00000      3.57371      0.00000        -0.000000     -0.000000      0.000000
      0.00000      3.57371      3.57371        -0.000000      0.000000      0.000000
      0.00000      3.57371      7.14742         0.000000     -0.000000     -0.000000
      0.00000      7.14742      0.00000        -0.000000      0.000000      0.000000
      0.00000      7.14742      3.57371         0.000000     -0.000000     -0.000000
      0.00000      7.14742      7.14742        -0.000000      0.000000      0.000000
      3.57371      0.00000      0.00000        -0.000000      0.000000      0.000000
      3.57371      0.00000      3.57371         0.000000     -0.000000     -0.000000
      3.57371      0.00000      7.14742        -0.000000     -0.000000      0.000000
      3.57371      3.57371      0.00000         0.000000     -0.000000     -0.000000
      3.57371      3.57371      3.57371        -0.000000     -0.000000      0.000000
      3.57371      3.57371      7.14742        -0.000000      0.000000      0.000000
      3.57371      7.14742      0.00000        -0.000000     -0.000000      0.000000
      3.57371      7.14742      3.57371        -0.000000      0.000000     -0.000000
      3.57371      7.14742      7.14742         0.000000     -0.000000     -0.000000
      7.14742      0.00000      0.00000        -0.000000     -0.000000      0.000000
      7.14742      0.00000      3.57371         0.000000      0.000000     -0.000000
      7.14742      0.00000      7.14742        -0.000000     -0.000000      0.000000
      7.14742      3.57371      0.00000         0.000000      0.000000     -0.000000
      7.14742      3.57371      3.57371        -0.000000     -0.000000      0.000000
      7.14742      3.57371      7.14742        -0.000000     -0.000000      0.000000
      7.14742      7.14742      0.00000        -0.000000     -0.000000      0.000000
      7.14742      7.14742      3.57371        -0.000000     -0.000000      0.000000
      7.14742      7.14742      7.14742         0.000000      0.000000     -0.000000
      1.78686      1.78686      0.00000         0.000000     -0.000000      0.000000
      1.78686      1.78686      3.57371        -0.000000     -0.000000      0.000000
      1.78686      1.78686      7.14742        -0.000000      0.000000     -0.000000
      1.78686      5.36057      0.00000        -0.000000     -0.000000      0.000000
      1.78686      5.36057      3.57371        -0.000000      0.000000     -0.000000
      1.78686      5.36057      7.14742         0.000000     -0.000000      0.000000
      1.78686      8.93428      0.00000        -0.000000      0.000000     -0.000000
      1.78686      8.93428      3.57371         0.000000     -0.000000      0.000000
      1.78686      8.93428      7.14742        -0.000000     -0.000000      0.000000
      5.36057      1.78686      0.00000         0.000000      0.000000      0.000000
      5.36057      1.78686      3.57371         0.000000     -0.000000     -0.000000
      5.36057      1.78686      7.14742        -0.000000      0.000000      0.000000
      5.36057      5.36057      0.00000         0.000000     -0.000000     -0.000000
      5.36057      5.36057      3.57371        -0.000000     -0.000000      0.000000
      5.36057      5.36057      7.14742         0.000000      0.000000      0.000000
      5.36057      8.93428      0.00000        -0.000000     -0.000000      0.000000
      5.36057      8.93428      3.57371         0.000000      0.000000      0.000000
      5.36057      8.93428      7.14742         0.000000     -0.000000     -0.000000
      8.93428      1.78686      0.00000        -0.000000      0.000000      0.000000
      8.93428      1.78686      3.57371        -0.000000      0.000000      0.000000
      8.93428      1.78686      7.14742         0.000000     -0.000000     -0.000000
      8.93428      5.36057      0.00000        -0.000000      0.000000      0.000000
      8.93428      5.36057      3.57371         0.000000     -0.000000     -0.000000
      8.93428      5.36057      7.14742        -0.000000      0.000000      0.000000
      8.93428      8.93428      0.00000         0.000000     -0.000000     -0.000000
      8.93428      8.93428      3.57371        -0.000000      0.000000      0.000000
      8.93428      8.93428      7.14742        -0.000000      0.000000      0.000000
      1.78686      0.00000      1.78686         0.000000     -0.000000      0.000000
      1.78686      0.00000      5.36057        -0.000000     -0.000000      0.000000
      1.78686      0.00000      8.93428        -0.000000      0.000000     -0.000000
      1.78686      3.57371      1.78686        -0.000000     -0.000000      0.000000
      1.78686      3.57371      5.36057        -0.000000      0.000000     -0.000000
      1.78686      3.57371      8.93428         0.000000     -0.000000      0.000000
      1.78686      7.14742      1.78686        -0.000000      0.000000     -0.000000
      1.78686      7.14742      5.36057         0.000000     -0.000000     -0.000000
      1.78686      7.14742      8.93428        -0.000000     -0.000000      0.000000
      5.36057      0.00000      1.78686        -0.000000      0.000000      0.000000
      5.36057      0.00000      5.36057         0.000000     -0.000000     -0.000000
      5.36057      0.00000      8.93428        -0.000000     -0.000000      0.000000
      5.36057      3.57371      1.78686         0.000000     -0.000000     -0.000000
      5.36057      3.57371      5.36057        -0.000000      0.000000      0.000000
      5.36057      3.57371      8.93428        -0.000000      0.000000      0.000000
      5.36057      7.14742      1.78686        -0.000000     -0.000000      0.000000
      5.36057      7.14742      5.36057         0.000000      0.000000      0.000000
      5.36057      7.14742      8.93428         0.000000     -0.000000     -0.000000
      8.93428      0.00000      1.78686        -0.000000      0.000000      0.000000
      8.93428      0.00000      5.36057        -0.000000      0.000000      0.000000
      8.93428      0.00000      8.93428         0.000000     -0.000000     -0.000000
      8.93428      3.57371      1.78686        -0.000000      0.000000     -0.000000
      8.93428      3.57371      5.36057         0.000000     -0.000000     -0.000000
      8.93428      3.57371      8.93428        -0.000000      0.000000      0.000000
      8.93428      7.14742      1.78686         0.000000     -0.000000     -0.000000
      8.93428      7.14742      5.36057        -0.000000      0.000000      0.000000
      8.93428      7.14742      8.93428        -0.000000      0.000000      0.000000
      0.00000      1.78686      1.78686        -0.000000      0.000000      0.000000
      0.00000      1.78686      5.36057        -0.000000      0.000000      0.000000
      0.00000      1.78686      8.93428         0.000000     -0.000000     -0.000000
      0.00000      5.36057      1.78686        -0.000000      0.000000      0.000000
      0.00000      5.36057      5.36057         0.000000     -0.000000     -0.000000
      0.00000      5.36057      8.93428        -0.000000     -0.000000      0.000000
      0.00000      8.93428      1.78686         0.000000     -0.000000     -0.000000
      0.00000      8.93428      5.36057        -0.000000      0.000000      0.000000
      0.00000      8.93428      8.93428        -0.000000      0.000000      0.000000
      3.57371      1.78686      1.78686         0.000000     -0.000000     -0.000000
      3.57371      1.78686      5.36057        -0.000000     -0.000000      0.000000
      3.57371      1.78686      8.93428        -0.000000      0.000000     -0.000000
      3.57371      5.36057      1.78686        -0.000000     -0.000000      0.000000
      3.57371      5.36057      5.36057        -0.000000      0.000000      0.000000
      3.57371      5.36057      8.93428         0.000000     -0.000000     -0.000000
      3.57371      8.93428      1.78686        -0.000000      0.000000      0.000000
      3.57371      8.93428      5.36057         0.000000     -0.000000     -0.000000
      3.57371      8.93428      8.93428        -0.000000      0.000000      0.000000
      7.14742      1.78686      1.78686         0.000000      0.000000     -0.000000
      7.14742      1.78686      5.36057         0.000000     -0.000000      0.000000
      7.14742      1.78686      8.93428        -0.000000      0.000000      0.000000
      7.14742      5.36057      1.78686        -0.000000     -0.000000      0.000000
      7.14742      5.36057      5.36057        -0.000000     -0.000000      0.000000
      7.14742      5.36057      8.93428         0.000000      0.000000     -0.000000
      7.14742      8.93428      1.78686        -0.000000      0.000000      0.000000
      7.14742      8.93428      5.36057         0.000000      0.000000     -0.000000
      7.14742      8.93428      8.93428        -0.000000     -0.000000      0.000000
 -----------------------------------------------------------------------------------
    total drift:                                0.000000      0.000000      0.000000


--------------------------------------------------------------------------------------------------------



  FREE ENERGIE OF THE ION-ELECTRON SYSTEM (eV)
  ---------------------------------------------------
  free  energy   TOTEN  =     -1961.92007167 eV

  energy  without entropy=    -1961.92007167  energy(sigma->0) =    -1961.92007167
 


--------------------------------------------------------------------------------------------------------


    POTLOK:  cpu time      0.1059: real time      0.1068


--------------------------------------------------------------------------------------------------------




--------------------------------------------------------------------------------------------------------


  
 reached required accuracy - stopping structural energy minimisation
     LOOP+:  cpu time    153.3756: real time    154.7048
    4ORBIT:  cpu time      0.0000: real time      0.0000



 total charge

# of ion       s       p       d       tot
------------------------------------------
    1        0.829   1.743   0.000   2.572
    2        0.829   1.743   0.000   2.572
    3        0.829   1.743   0.000   2.572
    4        0.829   1.743   0.000   2.572
    5        0.829   1.743   0.000   2.572
    6        0.829   1.743   0.000   2.572
    7        0.829   1.743   0.000   2.572
    8        0.829   1.743   0.000   2.572
    9        0.829   1.743   0.000   2.572
   10        0.829   1.743   0.000   2.572
   11        0.829   1.743   0.000   2.572
   12        0.829   1.743   0.000   2.572
   13        0.829   1.743   0.000   2.572
   14        0.829   1.743   0.000   2.572
   15        0.829   1.743   0.000   2.572
   16        0.829   1.743   0.000   2.572
   17        0.829   1.743   0.000   2.572
   18        0.829   1.743   0.000   2.572
   19        0.829   1.743   0.000   2.572
   20        0.829   1.743   0.000   2.572
   21        0.829   1.743   0.000   2.572
   22        0.829   1.743   0.000   2.572
   23        0.829   1.743   0.000   2.572
   24        0.829   1.743   0.000   2.572
   25        0.829   1.743   0.000   2.572
   26        0.829   1.743   0.000   2.572
   27        0.829   1.743   0.000   2.572
   28        0.829   1.743   0.000   2.572
   29        0.829   1.743   0.000   2.572
   30        0.829   1.743   0.000   2.572
   31        0.829   1.743   0.000   2.572
   32        0.829   1.743   0.000   2.572
   33        0.829   1.743   0.000   2.572
   34        0.829   1.743   0.000   2.572
   35        0.829   1.743   0.000   2.572
   36        0.829   1.743   0.000   2.572
   37        0.829   1.743   0.000   2.572
   38        0.829   1.743   0.000   2.572
   39        0.829   1.743   0.000   2.572
   40        0.829   1.743   0.000   2.572
   41        0.829   1.743   0.000   2.572
   42        0.829   1.743   0.000   2.572
   43        0.829   1.743   0.000   2.572
   44        0.829   1.743   0.000   2.572
   45        0.829   1.743   0.000   2.572
   46        0.829   1.743   0.000   2.572
   47        0.829   1.743   0.000   2.572
   48        0.829   1.743   0.000   2.572
   49        0.829   1.743   0.000   2.572
   50        0.829   1.743   0.000   2.572
   51        0.829   1.743   0.000   2.572
   52        0.829   1.743   0.000   2.572
   53        0.829   1.743   0.000   2.572
   54        0.829   1.743   0.000   2.572
   55        0.829   1.743   0.000   2.572
   56        0.829   1.743   0.000   2.572
   57        0.829   1.743   0.000   2.572
   58        0.829   1.743   0.000   2.572
   59        0.829   1.743   0.000   2.572
   60        0.829   1.743   0.000   2.572
   61        0.829   1.743   0.000   2.572
   62        0.829   1.743   0.000   2.572
   63        0.829   1.743   0.000   2.572
   64        0.829   1.743   0.000   2.572
   65        0.829   1.743   0.000   2.572
   66        0.829   1.743   0.000   2.572
   67        0.829   1.743   0.000   2.572
   68        0.829   1.743   0.000   2.572
   69        0.829   1.743   0.000   2.572
   70        0.829   1.743   0.000   2.572
   71        0.829   1.743   0.000   2.572
   72        0.829   1.743   0.000   2.572
   73        0.829   1.743   0.000   2.572
   74        0.829   1.743   0.000   2.572
   75        0.829   1.743   0.000   2.572
   76        0.829   1.743   0.000   2.572
   77        0.829   1.743   0.000   2.572
   78        0.829   1.743   0.000   2.572
   79        0.829   1.743   0.000   2.572
   80        0.829   1.743   0.000   2.572
   81        0.829   1.743   0.000   2.572
   82        0.829   1.743   0.000   2.572
   83        0.829   1.743   0.000   2.572
   84        0.829   1.743   0.000   2.572
   85        0.829   1.743   0.000   2.572
   86        0.829   1.743   0.000   2.572
   87        0.829   1.743   0.000   2.572
   88        0.829   1.743   0.000   2.572
   89        0.829   1.743   0.000   2.572
   90        0.829   1.743   0.000   2.572
   91        0.829   1.743   0.000   2.572
   92        0.829   1.743   0.000   2.572
   93        0.829   1.743   0.000   2.572
   94        0.829   1.743   0.000   2.572
   95        0.829   1.743   0.000   2.572
   96        0.829   1.743   0.000   2.572
   97        0.829   1.743   0.000   2.572
   98        0.829   1.743   0.000   2.572
   99        0.829   1.743   0.000   2.572
  100        0.829   1.743   0.000   2.572
  101        0.829   1.743   0.000   2.572
  102        0.829   1.743   0.000   2.572
  103        0.829   1.743   0.000   2.572
  104        0.829   1.743   0.000   2.572
  105        0.829   1.743   0.000   2.572
  106        0.829   1.743   0.000   2.572
  107        0.829   1.743   0.000   2.572
  108        0.829   1.743   0.000   2.572
  109        0.829   1.743   0.000   2.572
  110        0.829   1.743   0.000   2.572
  111        0.829   1.743   0.000   2.572
  112        0.829   1.743   0.000   2.572
  113        0.829   1.743   0.000   2.572
  114        0.829   1.743   0.000   2.572
  115        0.829   1.743   0.000   2.572
  116        0.829   1.743   0.000   2.572
  117        0.829   1.743   0.000   2.572
  118        0.829   1.743   0.000   2.572
  119        0.829   1.743   0.000   2.572
  120        0.829   1.743   0.000   2.572
  121        0.829   1.743   0.000   2.572
  122        0.829   1.743   0.000   2.572
  123        0.829   1.743   0.000   2.572
  124        0.829   1.743   0.000   2.572
  125        0.829   1.743   0.000   2.572
  126        0.829   1.743   0.000   2.572
  127        0.829   1.743   0.000   2.572
  128        0.829   1.743   0.000   2.572
  129        0.829   1.743   0.000   2.572
  130        0.829   1.743   0.000   2.572
  131        0.829   1.743   0.000   2.572
  132        0.829   1.743   0.000   2.572
  133        0.829   1.743   0.000   2.572
  134        0.829   1.743   0.000   2.572
  135        0.829   1.743   0.000   2.572
  136        0.829   1.743   0.000   2.572
  137        0.829   1.743   0.000   2.572
  138        0.829   1.743   0.000   2.572
  139        0.829   1.743   0.000   2.572
  140        0.829   1.743   0.000   2.572
  141        0.829   1.743   0.000   2.572
  142        0.829   1.743   0.000   2.572
  143        0.829   1.743   0.000   2.572
  144        0.829   1.743   0.000   2.572
  145        0.829   1.743   0.000   2.572
  146        0.829   1.743   0.000   2.572
  147        0.829   1.743   0.000   2.572
  148        0.829   1.743   0.000   2.572
  149        0.829   1.743   0.000   2.572
  150        0.829   1.743   0.000   2.572
  151        0.829   1.743   0.000   2.572
  152        0.829   1.743   0.000   2.572
  153        0.829   1.743   0.000   2.572
  154        0.829   1.743   0.000   2.572
  155        0.829   1.743   0.000   2.572
  156        0.829   1.743   0.000   2.572
  157        0.829   1.743   0.000   2.572
  158        0.829   1.743   0.000   2.572
  159        0.829   1.743   0.000   2.572
  160        0.829   1.743   0.000   2.572
  161        0.829   1.743   0.000   2.572
  162        0.829   1.743   0.000   2.572
  163        0.829   1.743   0.000   2.572
  164        0.829   1.743   0.000   2.572
  165        0.829   1.743   0.000   2.572
  166        0.829   1.743   0.000   2.572
  167        0.829   1.743   0.000   2.572
  168        0.829   1.743   0.000   2.572
  169        0.829   1.743   0.000   2.572
  170        0.829   1.743   0.000   2.572
  171        0.829   1.743   0.000   2.572
  172        0.829   1.743   0.000   2.572
  173        0.829   1.743   0.000   2.572
  174        0.829   1.743   0.000   2.572
  175        0.829   1.743   0.000   2.572
  176        0.829   1.743   0.000   2.572
  177        0.829   1.743   0.000   2.572
  178        0.829   1.743   0.000   2.572
  179        0.829   1.743   0.000   2.572
  180        0.829   1.743   0.000   2.572
  181        0.829   1.743   0.000   2.572
  182        0.829   1.743   0.000   2.572
  183        0.829   1.743   0.000   2.572
  184        0.829   1.743   0.000   2.572
  185        0.829   1.743   0.000   2.572
  186        0.829   1.743   0.000   2.572
  187        0.829   1.743   0.000   2.572
  188        0.829   1.743   0.000   2.572
  189        0.829   1.743   0.000   2.572
  190        0.829   1.743   0.000   2.572
  191        0.829   1.743   0.000   2.572
  192        0.829   1.743   0.000   2.572
  193        0.829   1.743   0.000   2.572
  194        0.829   1.743   0.000   2.572
  195        0.829   1.743   0.000   2.572
  196        0.829   1.743   0.000   2.572
  197        0.829   1.743   0.000   2.572
  198        0.829   1.743   0.000   2.572
  199        0.829   1.743   0.000   2.572
  200        0.829   1.743   0.000   2.572
  201        0.829   1.743   0.000   2.572
  202        0.829   1.743   0.000   2.572
  203        0.829   1.743   0.000   2.572
  204        0.829   1.743   0.000   2.572
  205        0.829   1.743   0.000   2.572
  206        0.829   1.743   0.000   2.572
  207        0.829   1.743   0.000   2.572
  208        0.829   1.743   0.000   2.572
  209        0.829   1.743   0.000   2.572
  210        0.829   1.743   0.000   2.572
  211        0.829   1.743   0.000   2.572
  212        0.829   1.743   0.000   2.572
  213        0.829   1.743   0.000   2.572
  214        0.829   1.743   0.000   2.572
  215        0.829   1.743   0.000   2.572
  216        0.829   1.743   0.000   2.572
--------------------------------------------------
tot        178.969 376.495   0.000 555.463



 magnetization (x)

# of ion       s       p       d       tot
------------------------------------------
    1        0.000  -0.000   0.000  -0.000
    2        0.000  -0.000   0.000  -0.000
    3        0.000  -0.000   0.000  -0.000
    4        0.000  -0.000   0.000  -0.000
    5        0.000  -0.000   0.000  -0.000
    6        0.000  -0.000   0.000  -0.000
    7        0.000  -0.000   0.000  -0.000
    8        0.000  -0.000   0.000  -0.000
    9        0.000  -0.000   0.000  -0.000
   10        0.000  -0.000   0.000  -0.000
   11        0.000  -0.000   0.000  -0.000
   12        0.000  -0.000   0.000  -0.000
   13        0.000  -0.000   0.000  -0.000
   14        0.000  -0.000   0.000  -0.000
   15        0.000  -0.000   0.000  -0.000
   16        0.000  -0.000   0.000  -0.000
   17        0.000  -0.000   0.000  -0.000
   18        0.000  -0.000   0.000  -0.000
   19        0.000  -0.000   0.000  -0.000
   20        0.000  -0.000   0.000  -0.000
   21        0.000  -0.000   0.000  -0.000
   22        0.000  -0.000   0.000  -0.000
   23        0.000  -0.000   0.000  -0.000
   24        0.000  -0.000   0.000  -0.000
   25        0.000  -0.000   0.000  -0.000
   26        0.000  -0.000   0.000  -0.000
   27        0.000  -0.000   0.000  -0.000
   28        0.000  -0.000   0.000  -0.000
   29        0.000  -0.000   0.000  -0.000
   30        0.000  -0.000   0.000  -0.000
   31        0.000  -0.000   0.000  -0.000
   32        0.000  -0.000   0.000  -0.000
   33        0.000  -0.000   0.000  -0.000
   34        0.000  -0.000   0.000  -0.000
   35        0.000  -0.000   0.000  -0.000
   36        0.000  -0.000   0.000  -0.000
   37        0.000  -0.000   0.000  -0.000
   38        0.000  -0.000   0.000  -0.000
   39        0.000  -0.000   0.000  -0.000
   40        0.000  -0.000   0.000  -0.000
   41        0.000  -0.000   0.000  -0.000
   42        0.000  -0.000   0.000  -0.000
   43        0.000  -0.000   0.000  -0.000
   44        0.000  -0.000   0.000  -0.000
   45        0.000  -0.000   0.000  -0.000
   46        0.000  -0.000   0.000  -0.000
   47        0.000  -0.000   0.000  -0.000
   48        0.000  -0.000   0.000  -0.000
   49        0.000  -0.000   0.000  -0.000
   50        0.000  -0.000   0.000  -0.000
   51        0.000  -0.000   0.000  -0.000
   52        0.000  -0.000   0.000  -0.000
   53        0.000  -0.000   0.000  -0.000
   54        0.000  -0.000   0.000  -0.000
   55        0.000  -0.000   0.000  -0.000
   56        0.000  -0.000   0.000  -0.000
   57        0.000  -0.000   0.000  -0.000
   58        0.000  -0.000   0.000  -0.000
   59        0.000  -0.000   0.000  -0.000
   60        0.000  -0.000   0.000  -0.000
   61        0.000  -0.000   0.000  -0.000
   62        0.000  -0.000   0.000  -0.000
   63        0.000  -0.000   0.000  -0.000
   64        0.000  -0.000   0.000  -0.000
   65        0.000  -0.000   0.000  -0.000
   66        0.000  -0.000   0.000  -0.000
   67        0.000  -0.000   0.000  -0.000
   68        0.000  -0.000   0.000  -0.000
   69        0.000  -0.000   0.000  -0.000
   70        0.000  -0.000   0.000  -0.000
   71        0.000  -0.000   0.000  -0.000
   72        0.000  -0.000   0.000  -0.000
   73        0.000  -0.000   0.000  -0.000
   74        0.000  -0.000   0.000  -0.000
   75        0.000  -0.000   0.000  -0.000
   76        0.000  -0.000   0.000  -0.000
   77        0.000  -0.000   0.000  -0.000
   78        0.000  -0.000   0.000  -0.000
   79        0.000  -0.000   0.000  -0.000
   80        0.000  -0.000   0.000  -0.000
   81        0.000  -0.000   0.000  -0.000
   82        0.000  -0.000   0.000  -0.000
   83        0.000  -0.000   0.000  -0.000
   84        0.000  -0.000   0.000  -0.000
   85        0.000  -0.000   0.000  -0.000
   86        0.000  -0.000   0.000  -0.000
   87        0.000  -0.000   0.000  -0.000
   88        0.000  -0.000   0.000  -0.000
   89        0.000  -0.000   0.000  -0.000
   90        0.000  -0.000   0.000  -0.000
   91        0.000  -0.000   0.000  -0.000
   92        0.000  -0.000   0.000  -0.000
   93        0.000  -0.000   0.000  -0.000
   94        0.000  -0.000   0.000  -0.000
   95        0.000  -0.000   0.000  -0.000
   96        0.000  -0.000   0.000  -0.000
   97        0.000  -0.000   0.000  -0.000
   98        0.000  -0.000   0.000  -0.000
   99        0.000  -0.000   0.000  -0.000
  100        0.000  -0.000   0.000  -0.000
  101        0.000  -0.000   0.000  -0.000
  102        0.000  -0.000   0.000  -0.000
  103        0.000  -0.000   0.000  -0.000
  104        0.000  -0.000   0.000  -0.000
  105        0.000  -0.000   0.000  -0.000
  106        0.000  -0.000   0.000  -0.000
  107        0.000  -0.000   0.000  -0.000
  108        0.000  -0.000   0.000  -0.000
  109        0.000  -0.000   0.000  -0.000
  110        0.000  -0.000   0.000  -0.000
  111        0.000  -0.000   0.000  -0.000
  112        0.000  -0.000   0.000  -0.000
  113        0.000  -0.000   0.000  -0.000
  114        0.000  -0.000   0.000  -0.000
  115        0.000  -0.000   0.000  -0.000
  116        0.000  -0.000   0.000  -0.000
  117        0.000  -0.000   0.000  -0.000
  118        0.000  -0.000   0.000  -0.000
  119        0.000  -0.000   0.000  -0.000
  120        0.000  -0.000   0.000  -0.000
  121        0.000  -0.000   0.000  -0.000
  122        0.000  -0.000   0.000  -0.000
  123        0.000  -0.000   0.000  -0.000
  124        0.000  -0.000   0.000  -0.000
  125        0.000  -0.000   0.000  -0.000
  126        0.000  -0.000   0.000  -0.000
  127        0.000  -0.000   0.000  -0.000
  128        0.000  -0.000   0.000  -0.000
  129        0.000  -0.000   0.000  -0.000
  130        0.000  -0.000   0.000  -0.000
  131        0.000  -0.000   0.000  -0.000
  132        0.000  -0.000   0.000  -0.000
  133        0.000  -0.000   0.000  -0.000
  134        0.000  -0.000   0.000  -0.000
  135        0.000  -0.000   0.000  -0.000
  136        0.000  -0.000   0.000  -0.000
  137        0.000  -0.000   0.000  -0.000
  138        0.000  -0.000   0.000  -0.000
  139        0.000  -0.000   0.000  -0.000
  140        0.000  -0.000   0.000  -0.000
  141        0.000  -0.000   0.000  -0.000
  142        0.000  -0.000   0.000  -0.000
  143        0.000  -0.000   0.000  -0.000
  144        0.000  -0.000   0.000  -0.000
  145        0.000  -0.000   0.000  -0.000
  146        0.000  -0.000   0.000  -0.000
  147        0.000  -0.000   0.000  -0.000
  148        0.000  -0.000   0.000  -0.000
  149        0.000  -0.000   0.000  -0.000
  150        0.000  -0.000   0.000  -0.000
  151        0.000  -0.000   0.000  -0.000
  152        0.000  -0.000   0.000  -0.000
  153        0.000  -0.000   0.000  -0.000
  154        0.000  -0.000   0.000  -0.000
  155        0.000  -0.000   0.000  -0.000
  156        0.000  -0.000   0.000  -0.000
  157        0.000  -0.000   0.000  -0.000
  158        0.000  -0.000   0.000  -0.000
  159        0.000  -0.000   0.000  -0.000
  160        0.000  -0.000   0.000  -0.000
  161        0.000  -0.000   0.000  -0.000
  162        0.000  -0.000   0.000  -0.000
  163        0.000  -0.000   0.000  -0.000
  164        0.000  -0.000   0.000  -0.000
  165        0.000  -0.000   0.000  -0.000
  166        0.000  -0.000   0.000  -0.000
  167        0.000  -0.000   0.000  -0.000
  168        0.000  -0.000   0.000  -0.000
  169        0.000  -0.000   0.000  -0.000
  170        0.000  -0.000   0.000  -0.000
  171        0.000  -0.000   0.000  -0.000
  172        0.000  -0.000   0.000  -0.000
  173        0.000  -0.000   0.000  -0.000
  174        0.000  -0.000   0.000  -0.000
  175        0.000  -0.000   0.000  -0.000
  176        0.000  -0.000   0.000  -0.000
  177        0.000  -0.000   0.000  -0.000
  178        0.000  -0.000   0.000  -0.000
  179        0.000  -0.000   0.000  -0.000
  180        0.000  -0.000   0.000  -0.000
  181        0.000  -0.000   0.000  -0.000
  182        0.000  -0.000   0.000  -0.000
  183        0.000  -0.000   0.000  -0.000
  184        0.000  -0.000   0.000  -0.000
  185        0.000  -0.000   0.000  -0.000
  186        0.000  -0.000   0.000  -0.000
  187        0.000  -0.000   0.000  -0.000
  188        0.000  -0.000   0.000  -0.000
  189        0.000  -0.000   0.000  -0.000
  190        0.000  -0.000   0.000  -0.000
  191        0.000  -0.000   0.000  -0.000
  192        0.000  -0.000   0.000  -0.000
  193        0.000  -0.000   0.000  -0.000
  194        0.000  -0.000   0.000  -0.000
  195        0.000  -0.000   0.000  -0.000
  196        0.000  -0.000   0.000  -0.000
  197        0.000  -0.000   0.000  -0.000
  198        0.000  -0.000   0.000  -0.000
  199        0.000  -0.000   0.000  -0.000
  200        0.000  -0.000   0.000  -0.000
  201        0.000  -0.000   0.000  -0.000
  202        0.000  -0.000   0.000  -0.000
  203        0.000  -0.000   0.000  -0.000
  204        0.000  -0.000   0.000  -0.000
  205        0.000  -0.000   0.000  -0.000
  206        0.000  -0.000   0.000  -0.000
  207        0.000  -0.000   0.000  -0.000
  208        0.000  -0.000   0.000  -0.000
  209        0.000  -0.000   0.000  -0.000
  210        0.000  -0.000   0.000  -0.000
  211        0.000  -0.000   0.000  -0.000
  212        0.000  -0.000   0.000  -0.000
  213        0.000  -0.000   0.000  -0.000
  214        0.000  -0.000   0.000  -0.000
  215        0.000  -0.000   0.000  -0.000
  216        0.000  -0.000   0.000  -0.000
--------------------------------------------------
tot          0.000  -0.000   0.000  -0.000
 

 total amount of memory used by VASP MPI-rank0    70778. kBytes
=======================================================================

   base                                    :      30000. kBytes
   nonlr-proj                              :       4630. kBytes
   fftplans                                :       3375. kBytes
   grid                                    :       7860. kBytes
   one-center                              :        190. kBytes
   wavefun                                 :      24723. kBytes
 
  
  
 General timing and accounting informations for this job:
 ========================================================
  
                  Total CPU time used (sec):      158.674
                            User time (sec):      157.492
                          System time (sec):        1.183
                         Elapsed time (sec):      160.648
  
                   Maximum memory used (kb):      279808.
                   Average memory used (kb):          N/A
  
                          Minor page faults:        32674
                          Major page faults:           61
                 Voluntary context switches:         1047
