
     Program PWSCF v.7.4.1 starts on  3Aug2026 at  4:14:29 

     This program is part of the open-source Quantum ESPRESSO suite
     for quantum simulation of materials; please cite
         "P. Giannozzi et al., J. Phys.:Condens. Matter 21 395502 (2009);
         "P. Giannozzi et al., J. Phys.:Condens. Matter 29 465901 (2017);
         "P. Giannozzi et al., J. Chem. Phys. 152 154105 (2020);
          URL http://www.quantum-espresso.org", 
     in publications or presentations arising from this work. More details at
     http://www.quantum-espresso.org/quote

     Parallel version (MPI), running on    36 processors

     MPI processes distributed on     1 nodes
     109776 MiB available memory on the printing compute node when the environment starts
 
     Reading input from diamond_pd_scf.in

     Current dimensions of program PWSCF are:
     Max number of different atomic species (ntypx) = 10
     Max number of k-points (npk) =  40000
     Max angular momentum in pseudopotentials (lmaxx) =  4
     file C.pbe-n-kjpaw_psl.1.0.0.UPF: wavefunction(s)  2S 2P renormalized
     file N.pbe-n-kjpaw_psl.1.0.0.UPF: wavefunction(s)  2S renormalized
 
     R & G space division:  proc/nbgrp/npool/nimage =      36
     Subspace diagonalization in iterative solution of the eigenvalue problem:
     one sub-group per band group will be used
     scalapack distributed-memory algorithm (size of sub-group:  6*  6 procs)

 
     Parallelization info
     --------------------
     sticks:   dense  smooth     PW     G-vecs:    dense   smooth      PW
     Min         163     163     40                 9409     9409    1174
     Max         164     164     41                 9414     9414    1179
     Sum        5877    5877   1473               338755   338755   42379
 
     Using Slab Decomposition
 


     bravais-lattice index     =            0
     lattice parameter (alat)  =      20.2515  a.u.
     unit-cell volume          =    8305.5769 (a.u.)^3
     number of atoms/cell      =          215
     number of atomic types    =            2
     number of electrons       =       860.00 (up: 430.00, down: 430.00)
     number of Kohn-Sham states=          860
     kinetic-energy cutoff     =      45.0000  Ry
     charge density cutoff     =     180.0000  Ry
     scf convergence threshold =      1.0E-08
     mixing beta               =       0.7000
     number of iterations used =            8  plain     mixing
     Exchange-correlation= SLA  PW   PBX  PBC
                           (   1   4   3   4   0   0   0)

     celldm(1)=  20.251472  celldm(2)=   0.000000  celldm(3)=   0.000000
     celldm(4)=   0.000000  celldm(5)=   0.000000  celldm(6)=   0.000000

     crystal axes: (cart. coord. in units of alat)
               a(1) = (  -0.707107   0.000000   0.707107 )  
               a(2) = (   0.408248   0.816497   0.408248 )  
               a(3) = (  -0.577350   0.577350  -0.577350 )  

     reciprocal axes: (cart. coord. in units 2 pi/alat)
               b(1) = ( -0.707107  0.000000  0.707107 )  
               b(2) = (  0.408248  0.816497  0.408248 )  
               b(3) = ( -0.577350  0.577350 -0.577350 )  


     PseudoPot. # 1 for C  read from file:
     ../../../pseudos/C.pbe-n-kjpaw_psl.1.0.0.UPF
     MD5 check sum: 5f16ad9a65e90284d1d834d4ab3b0f7d
     Pseudo is Projector augmented-wave + core cor, Zval =  4.0
     Generated using &quot;atomic&quot; code by A. Dal Corso  v.6.3
     Shape of augmentation charge: PSQ
     Using radial grid of 1073 points,  4 beta functions with: 
                l(1) =   0
                l(2) =   0
                l(3) =   1
                l(4) =   1
     Q(r) pseudized with 0 coefficients 


     PseudoPot. # 2 for N  read from file:
     ../../../pseudos/N.pbe-n-kjpaw_psl.1.0.0.UPF
     MD5 check sum: a6186d50559fdcbe4b2d0187dd61a119
     Pseudo is Projector augmented-wave + core cor, Zval =  5.0
     Generated using &quot;atomic&quot; code by A. Dal Corso  v.6.3
     Shape of augmentation charge: PSQ
     Using radial grid of 1085 points,  4 beta functions with: 
                l(1) =   0
                l(2) =   0
                l(3) =   1
                l(4) =   1
     Q(r) pseudized with 0 coefficients 


     atomic species   valence    mass     pseudopotential
     C                 4.00    12.01070     C ( 1.00)
     N                 5.00    14.00670     N ( 1.00)

     Starting magnetic structure 
     atomic species   magnetization
     C               0.000
     N               0.000

     No symmetry found


                                    s                        frac. trans.

      isym =  1     identity                                     

 cryst.   s( 1) = (     1          0          0      )
                  (     0          1          0      )
                  (     0          0          1      )

 cart.    s( 1) = (  1.0000000  0.0000000  0.0000000 )
                  (  0.0000000  1.0000000  0.0000000 )
                  (  0.0000000  0.0000000  1.0000000 )


   Cartesian axes

     site n.     atom                  positions (alat units)
         1        C      tau(   1) = (  -0.0001166   0.0002026   0.0000674  )
         2        C      tau(   2) = (  -0.1925654   0.1927843  -0.1921710  )
         3        C      tau(   3) = (  -0.3848295   0.3852118  -0.3848566  )
         4        C      tau(   4) = (   0.1357296   0.2724420   0.1361240  )
         5        C      tau(   5) = (  -0.0568288   0.4650575  -0.0560131  )
         6        C      tau(   6) = (  -0.2487501   0.6574601  -0.2488394  )
         7        C      tau(   7) = (   0.2720517   0.5445979   0.2720246  )
         8        C      tau(   8) = (   0.0796458   0.7371423   0.0795564  )
         9        C      tau(   9) = (  -0.1125947   0.9296178  -0.1129684  )
        10        C      tau(  10) = (  -0.2358492  -0.0000266   0.2358557  )
        11        C      tau(  11) = (  -0.4283066   0.1924566   0.0433492  )
        12        C      tau(  12) = (  -0.6204467   0.3852261  -0.1490056  )
        13        C      tau(  13) = (  -0.0997197   0.2721852   0.3719361  )
        14        C      tau(  14) = (  -0.2951515   0.4638595   0.1826003  )
        15        C      tau(  15) = (  -0.4823678   0.6581196  -0.0101700  )
        16        C      tau(  16) = (   0.0362041   0.5445563   0.5076452  )
        17        C      tau(  17) = (  -0.1590346   0.7365734   0.3131632  )
        18        C      tau(  18) = (  -0.3479045   0.9291631   0.1224517  )
        19        C      tau(  19) = (  -0.4714602  -0.0001152   0.4714882  )
        20        C      tau(  20) = (  -0.6641581   0.1920311   0.2790456  )
        21        C      tau(  21) = (  -0.8561487   0.3850312   0.0865636  )
        22        C      tau(  22) = (  -0.3353203   0.2718206   0.6078835  )
        23        C      tau(  23) = (  -0.5284393   0.4636182   0.4159467  )
        24        C      tau(  24) = (  -0.7190265   0.6566741   0.2225837  )
        25        C      tau(  25) = (  -0.1993230   0.5444039   0.7433894  )
        26        C      tau(  26) = (  -0.3915593   0.7361310   0.5500509  )
        27        C      tau(  27) = (  -0.5838951   0.9291504   0.3584454  )
        28        C      tau(  28) = (  -0.0499676   0.1363574   0.1859884  )
        29        C      tau(  29) = (  -0.2426941   0.3294241  -0.0055194  )
        30        C      tau(  30) = (  -0.4346214   0.5213257  -0.1986536  )
        31        C      tau(  31) = (   0.0859791   0.4085694   0.3218840  )
        32        C      tau(  32) = (  -0.1097927   0.6020393   0.1293897  )
        33        C      tau(  33) = (  -0.2983696   0.7938294  -0.0624158  )
        34        C      tau(  34) = (   0.2222308   0.6807101   0.4579580  )
        35        C      tau(  35) = (   0.0298382   0.8732184   0.2654394  )
        36        C      tau(  36) = (  -0.1624400   1.0657964   0.0730553  )
        37        C      tau(  37) = (  -0.2855016   0.1357138   0.4219581  )
        38        C      tau(  38) = (  -0.4785482   0.3273132   0.2297517  )
        39        C      tau(  39) = (  -0.6694594   0.5212529   0.0375935  )
        40        C      tau(  40) = (  -0.1495046   0.4081994   0.5577345  )
        41        C      tau(  41) = (  -0.3438184   0.5968217   0.3642282  )
        42        C      tau(  42) = (  -0.5311685   0.7914439   0.1719574  )
        43        C      tau(  43) = (  -0.0136266   0.6804887   0.6935257  )
        44        C      tau(  44) = (  -0.2060300   0.8726815   0.5008106  )
        45        C      tau(  45) = (  -0.3981356   1.0655872   0.3086733  )
        46        C      tau(  46) = (  -0.5213043   0.1360613   0.6575095  )
        47        C      tau(  47) = (  -0.7140511   0.3283424   0.4652502  )
        48        C      tau(  48) = (  -0.9059593   0.5211175   0.2724610  )
        49        C      tau(  49) = (  -0.3852593   0.4081710   0.7934627  )
        50        C      tau(  50) = (  -0.5777263   0.6006805   0.6009931  )
        51        C      tau(  51) = (  -0.7697842   0.7932263   0.4083329  )
        52        C      tau(  52) = (  -0.2491225   0.6804992   0.9293693  )
        53        C      tau(  53) = (  -0.4414682   0.8727987   0.7367458  )
        54        C      tau(  54) = (  -0.6338331   1.0655024   0.5444375  )
        55        C      tau(  55) = (  -0.2142386   0.0964986   0.0217174  )
        56        C      tau(  56) = (  -0.4065217   0.2890687  -0.1706168  )
        57        C      tau(  57) = (  -0.5989526   0.4814575  -0.3632254  )
        58        C      tau(  58) = (  -0.0792243   0.3690885   0.1579503  )
        59        C      tau(  59) = (  -0.2707314   0.5629891  -0.0315489  )
        60        C      tau(  60) = (  -0.4628153   0.7536806  -0.2272142  )
        61        C      tau(  61) = (   0.0576672   0.6407750   0.2936349  )
        62        C      tau(  62) = (  -0.1350084   0.8334675   0.1009453  )
        63        C      tau(  63) = (  -0.3268219   1.0259106  -0.0913266  )
        64        C      tau(  64) = (  -0.4500441   0.0957891   0.2574156  )
        65        C      tau(  65) = (  -0.6422745   0.2886334   0.0649646  )
        66        C      tau(  66) = (  -0.8344764   0.4813172  -0.1273241  )
        67        C      tau(  67) = (  -0.3140146   0.3672358   0.3942853  )
        68        C      tau(  68) = (  -0.5043168   0.5578783   0.2037298  )
        69        C      tau(  69) = (  -0.6980742   0.7532916   0.0087663  )
        70        C      tau(  70) = (  -0.1785224   0.6403741   0.5285304  )
        71        C      tau(  71) = (  -0.3687743   0.8308473   0.3343515  )
        72        C      tau(  72) = (  -0.5623929   1.0257317   0.1444160  )
        73        C      tau(  73) = (  -0.6856846   0.0961759   0.4931292  )
        74        C      tau(  74) = (  -0.8779967   0.2886128   0.3007253  )
        75        C      tau(  75) = (  -1.0703125   0.4812451   0.1081793  )
        76        C      tau(  76) = (  -0.5497558   0.3682071   0.6295455  )
        77        C      tau(  77) = (  -0.7419095   0.5608430   0.4368099  )
        78        C      tau(  78) = (  -0.9340228   0.7532849   0.2441912  )
        79        C      tau(  79) = (  -0.4134048   0.6406313   0.7650156  )
        80        C      tau(  80) = (  -0.6056340   0.8330558   0.5724831  )
        81        C      tau(  81) = (  -0.7981352   1.0256360   0.3801354  )
        82        C      tau(  82) = (  -0.0285591   0.2325752  -0.0278731  )
        83        C      tau(  83) = (  -0.2206325   0.4250651  -0.2200531  )
        84        C      tau(  84) = (  -0.4130722   0.6174459  -0.4130193  )
        85        C      tau(  85) = (   0.1072626   0.5046258   0.1078421  )
        86        C      tau(  86) = (  -0.0845965   0.6973493  -0.0846088  )
        87        C      tau(  87) = (  -0.2768919   0.8899314  -0.2773987  )
        88        C      tau(  88) = (   0.2438634   0.7768453   0.2439164  )
        89        C      tau(  89) = (   0.0517896   0.9696829   0.0512828  )
        90        C      tau(  90) = (  -0.1409036   1.1618181  -0.1410007  )
        91        C      tau(  91) = (  -0.2641507   0.2314220   0.2079983  )
        92        C      tau(  92) = (  -0.4563104   0.4249055   0.0156443  )
        93        C      tau(  93) = (  -0.6486292   0.6174458  -0.1768163  )
        94        C      tau(  94) = (  -0.1283965   0.5044708   0.3435581  )
        95        C      tau(  95) = (  -0.5125336   0.8897032  -0.0413779  )
        96        C      tau(  96) = (   0.0076790   0.7766929   0.4794918  )
        97        C      tau(  97) = (  -0.1841665   0.9693784   0.2869892  )
        98        C      tau(  98) = (  -0.3765570   1.1622194   0.0945553  )
        99        C      tau(  99) = (  -0.4998721   0.2318107   0.4436254  )
       100        C      tau( 100) = (  -0.6926076   0.4240104   0.2512816  )
       101        C      tau( 101) = (  -0.8841607   0.6171601   0.0585610  )
       102        C      tau( 102) = (  -0.3638418   0.5037824   0.5800474  )
       103        C      tau( 103) = (  -0.5557419   0.6965581   0.3867285  )
       104        C      tau( 104) = (  -0.7480546   0.8890822   0.1942469  )
       105        C      tau( 105) = (  -0.2276355   0.7764599   0.7150862  )
       106        C      tau( 106) = (  -0.4196420   0.9687685   0.5226595  )
       107        C      tau( 107) = (  -0.6122723   1.1616701   0.3304038  )
       108        C      tau( 108) = (  -0.0731887   0.1164578   0.0449313  )
       109        C      tau( 109) = (  -0.2657390   0.3092464  -0.1469817  )
       110        C      tau( 110) = (  -0.4579098   0.5013472  -0.3402696  )
       111        C      tau( 111) = (   0.0622897   0.3888395   0.1810469  )
       112        C      tau( 112) = (  -0.1296801   0.5816752  -0.0114580  )
       113        C      tau( 113) = (  -0.3218406   0.7738770  -0.2059566  )
       114        C      tau( 114) = (   0.1992766   0.6608074   0.3169168  )
       115        C      tau( 115) = (   0.0084594   0.8540212   0.1243435  )
       116        C      tau( 116) = (  -0.1857025   1.0457571  -0.0680407  )
       117        C      tau( 117) = (  -0.3088744   0.1156389   0.2808158  )
       118        C      tau( 118) = (  -0.5013465   0.3083517   0.0884736  )
       119        C      tau( 119) = (  -0.6930302   0.5013106  -0.1038154  )
       120        C      tau( 120) = (  -0.1729591   0.3880319   0.4168610  )
       121        C      tau( 121) = (  -0.5568269   0.7736733   0.0316931  )
       122        C      tau( 122) = (  -0.0371308   0.6604585   0.5520840  )
       123        C      tau( 123) = (  -0.2290661   0.8532014   0.3594539  )
       124        C      tau( 124) = (  -0.4219961   1.0475048   0.1678288  )
       125        C      tau( 125) = (  -0.5445822   0.1159813   0.5164405  )
       126        C      tau( 126) = (  -0.7372757   0.3082019   0.3240926  )
       127        C      tau( 127) = (  -0.9291395   0.5011994   0.1313998  )
       128        C      tau( 128) = (  -0.4085516   0.3879637   0.6528167  )
       129        C      tau( 129) = (  -0.6009207   0.5803966   0.4600929  )
       130        C      tau( 130) = (  -0.7924946   0.7730567   0.2673973  )
       131        C      tau( 131) = (  -0.2723454   0.6605644   0.7881939  )
       132        C      tau( 132) = (  -0.4646239   0.8526115   0.5952680  )
       133        C      tau( 133) = (  -0.6571848   1.0457784   0.4034364  )
       134        C      tau( 134) = (  -0.1232737   0.2523924   0.2309650  )
       135        C      tau( 135) = (  -0.3165406   0.4461481   0.0402754  )
       136        C      tau( 136) = (  -0.5073214   0.6374078  -0.1549373  )
       137        C      tau( 137) = (   0.0128234   0.5245685   0.3666898  )
       138        C      tau( 138) = (  -0.1685434   0.7212688   0.1740931  )
       139        C      tau( 139) = (  -0.3718912   0.9100771  -0.0186071  )
       140        C      tau( 140) = (   0.1493103   0.7967621   0.5027040  )
       141        C      tau( 141) = (  -0.0430951   0.9893835   0.3105360  )
       142        C      tau( 142) = (  -0.2354589   1.1819597   0.1180588  )
       143        C      tau( 143) = (  -0.3586565   0.2515449   0.4670188  )
       144        C      tau( 144) = (  -0.5522271   0.4429328   0.2750434  )
       145        C      tau( 145) = (  -0.7426629   0.6371372   0.0818516  )
       146        C      tau( 146) = (  -0.2227758   0.5242361   0.6023087  )
       147        C      tau( 147) = (  -0.4150619   0.7153124   0.4079606  )
       148        C      tau( 148) = (  -0.6072038   0.9102920   0.2178322  )
       149        C      tau( 149) = (  -0.0866074   0.7964179   0.7384662  )
       150        C      tau( 150) = (  -0.2789020   0.9888630   0.5459606  )
       151        C      tau( 151) = (  -0.4712768   1.1819547   0.3538376  )
       152        C      tau( 152) = (  -0.5945715   0.2523516   0.7023650  )
       153        C      tau( 153) = (  -0.7868995   0.4448882   0.5099839  )
       154        C      tau( 154) = (  -0.9790157   0.6372733   0.3168958  )
       155        C      tau( 155) = (  -0.4582289   0.5247397   0.8382207  )
       156        C      tau( 156) = (  -0.6505019   0.7170002   0.6455599  )
       157        C      tau( 157) = (  -0.8428519   0.9095391   0.4530313  )
       158        C      tau( 158) = (  -0.3220712   0.7967292   0.9742962  )
       159        C      tau( 159) = (  -0.5143222   0.9892516   0.7818450  )
       160        C      tau( 160) = (  -0.7069319   1.1817250   0.5893366  )
       161        C      tau( 161) = (  -0.2873750   0.2125747   0.0668638  )
       162        C      tau( 162) = (  -0.4794794   0.4051158  -0.1256130  )
       163        C      tau( 163) = (  -0.6718579   0.5975133  -0.3184643  )
       164        C      tau( 164) = (  -0.1533335   0.4857488   0.2034825  )
       165        C      tau( 165) = (  -0.3439391   0.6787107  -0.0013025  )
       166        C      tau( 166) = (  -0.5360884   0.8697633  -0.1824572  )
       167        C      tau( 167) = (  -0.0142388   0.7570497   0.3381454  )
       168        C      tau( 168) = (  -0.2070666   0.9500702   0.1462175  )
       169        C      tau( 169) = (  -0.4000064   1.1420338  -0.0464888  )
       170        C      tau( 170) = (  -0.5232099   0.2116176   0.3024655  )
       171        C      tau( 171) = (  -0.7150194   0.4047978   0.1100651  )
       172        C      tau( 172) = (  -0.9075435   0.5972254  -0.0824699  )
       173        C      tau( 173) = (  -0.3873698   0.4829339   0.4399006  )
       174        C      tau( 174) = (  -0.5767645   0.6760768   0.2462581  )
       175        C      tau( 175) = (  -0.7714012   0.8693626   0.0534614  )
       176        C      tau( 176) = (  -0.2509225   0.7564535   0.5735921  )
       177        C      tau( 177) = (  -0.4435244   0.9500073   0.3815117  )
       178        C      tau( 178) = (  -0.6357852   1.1420382   0.1893292  )
       179        C      tau( 179) = (  -0.7587625   0.2125122   0.5381741  )
       180        C      tau( 180) = (  -0.9510370   0.4051644   0.3454127  )
       181        C      tau( 181) = (  -1.1434364   0.5974326   0.1529310  )
       182        C      tau( 182) = (  -0.6227636   0.4847143   0.6741198  )
       183        C      tau( 183) = (  -0.8146997   0.6771592   0.4813620  )
       184        C      tau( 184) = (  -1.0073639   0.8696197   0.2888033  )
       185        C      tau( 185) = (  -0.4860362   0.7568902   0.8098753  )
       186        C      tau( 186) = (  -0.6785588   0.9494033   0.6173244  )
       187        C      tau( 187) = (  -0.8712345   1.1418585   0.4250339  )
       188        C      tau( 188) = (  -0.1018127   0.3490804   0.0171116  )
       189        C      tau( 189) = (  -0.2940099   0.5415260  -0.1764861  )
       190        C      tau( 190) = (  -0.4863011   0.7336403  -0.3685528  )
       191        C      tau( 191) = (   0.0353931   0.6214526   0.1529169  )
       192        C      tau( 192) = (  -0.1570875   0.8135261  -0.0403070  )
       193        C      tau( 193) = (  -0.3501881   1.0059289  -0.2324120  )
       194        C      tau( 194) = (   0.1711872   0.8931737   0.2889355  )
       195        C      tau( 195) = (  -0.0213474   1.0857190   0.0964287  )
       196        C      tau( 196) = (  -0.2139487   1.2779712  -0.0961392  )
       197        C      tau( 197) = (  -0.3373807   0.3463605   0.2533395  )
       198        C      tau( 198) = (  -0.5272778   0.5408739   0.0615655  )
       199        C      tau( 199) = (  -0.7216314   0.7333882  -0.1322831  )
       200        C      tau( 200) = (  -0.2023679   0.6197102   0.3864753  )
       201        C      tau( 201) = (  -0.3971226   0.8240109   0.1971841  )
       202        C      tau( 202) = (  -0.5858778   1.0057893   0.0033581  )
       203        C      tau( 203) = (  -0.0649963   0.8927146   0.5243521  )
       204        C      tau( 204) = (  -0.2570824   1.0855685   0.3321536  )
       205        C      tau( 205) = (  -0.4497611   1.2780689   0.1396496  )
       206        C      tau( 206) = (  -0.5731062   0.3479384   0.4886822  )
       207        C      tau( 207) = (  -0.7647778   0.5407429   0.2957696  )
       208        C      tau( 208) = (  -0.9573301   0.7332453   0.1033368  )
       209        C      tau( 209) = (  -0.4366354   0.6203636   0.6239120  )
       210        C      tau( 210) = (  -0.6287566   0.8129520   0.4315013  )
       211        C      tau( 211) = (  -0.8212891   1.0057688   0.2392228  )
       212        C      tau( 212) = (  -0.3005848   0.8925984   0.7600822  )
       213        C      tau( 213) = (  -0.4929292   1.0854423   0.5675826  )
       214        C      tau( 214) = (  -0.6853884   1.2778745   0.3753241  )
       215        N      tau( 215) = (  -0.3689840   0.5708959   0.2304614  )

   Crystallographic axes

     site n.     atom                  positions (cryst. coord.)
         1        C      tau(   1) = (  0.0001301  0.0001454  0.0001454  )
         2        C      tau(   2) = (  0.0002789  0.0003397  0.3334317  )
         3        C      tau(   3) = ( -0.0000191  0.0003011  0.6667806  )
         4        C      tau(   4) = (  0.0002789  0.3334317  0.0003397  )
         5        C      tau(   5) = (  0.0005768  0.3336504  0.3336504  )
         6        C      tau(   6) = ( -0.0000632  0.3336738  0.6668682  )
         7        C      tau(   7) = ( -0.0000191  0.6667806  0.0003011  )
         8        C      tau(   8) = ( -0.0000632  0.6668682  0.3336738  )
         9        C      tau(   9) = ( -0.0002643  0.6669440  0.6669440  )
        10        C      tau(  10) = (  0.3335457 -0.0000191 -0.0000191  )
        11        C      tau(  11) = (  0.3335110 -0.0000180  0.3333701  )
        12        C      tau(  12) = (  0.3333592  0.0004082  0.6666539  )
        13        C      tau(  13) = (  0.3335110  0.3333701 -0.0000180  )
        14        C      tau(  14) = (  0.3378215  0.3327909  0.3327909  )
        15        C      tau(  15) = (  0.3338942  0.3362747  0.6643324  )
        16        C      tau(  16) = (  0.3333592  0.6666539  0.0004082  )
        17        C      tau(  17) = (  0.3338942  0.6643324  0.3362747  )
        18        C      tau(  18) = (  0.3325921  0.6666178  0.6666178  )
        19        C      tau(  19) = (  0.6667652 -0.0000826 -0.0000826  )
        20        C      tau(  20) = (  0.6669458 -0.0004287  0.3332140  )
        21        C      tau(  21) = (  0.6665983  0.0001949  0.6666181  )
        22        C      tau(  22) = (  0.6669458  0.3332140 -0.0004287  )
        23        C      tau(  23) = (  0.6677818  0.3326178  0.3326178  )
        24        C      tau(  24) = (  0.6658189  0.3335002  0.6657524  )
        25        C      tau(  25) = (  0.6665983  0.6666181  0.0001949  )
        26        C      tau(  26) = (  0.6658189  0.6657524  0.3335002  )
        27        C      tau(  27) = (  0.6663353  0.6666086  0.6666086  )
        28        C      tau(  28) = (  0.1668461  0.1668657  0.0001943  )
        29        C      tau(  29) = (  0.1677078  0.1676409  0.3334992  )
        30        C      tau(  30) = (  0.1668544  0.1671272  0.6666090  )
        31        C      tau(  31) = (  0.1668099  0.5001049  0.0004078  )
        32        C      tau(  32) = (  0.1691275  0.4995635  0.3362732  )
        33        C      tau(  33) = (  0.1668445  0.5008690  0.6666172  )
        34        C      tau(  34) = (  0.1666843  0.8334834  0.0003009  )
        35        C      tau(  35) = (  0.1665952  0.8335264  0.3336742  )
        36        C      tau(  36) = (  0.1665203  0.8337280  0.6669441  )
        37        C      tau(  37) = (  0.5002495  0.1665179 -0.0004288  )
        38        C      tau(  38) = (  0.5008436  0.1656794  0.3326171  )
        39        C      tau(  39) = (  0.4999618  0.1676430  0.6657534  )
        40        C      tau(  40) = (  0.5000935  0.4999526 -0.0000176  )
        41        C      tau(  41) = (  0.5006646  0.4956352  0.3327916  )
        42        C      tau(  42) = (  0.4971851  0.4995639  0.6643310  )
        43        C      tau(  43) = (  0.5000322  0.8331843  0.0003404  )
        44        C      tau(  44) = (  0.4998117  0.8328852  0.3336513  )
        45        C      tau(  45) = (  0.4997894  0.8335255  0.6668681  )
        46        C      tau(  46) = (  0.8335472  0.1666991 -0.0000831  )
        47        C      tau(  47) = (  0.8338920  0.1665179  0.3332139  )
        48        C      tau(  48) = (  0.8332690  0.1668661  0.6666178  )
        49        C      tau(  49) = (  0.8334823  0.4999185 -0.0000187  )
        50        C      tau(  50) = (  0.8334805  0.4999522  0.3333700  )
        51        C      tau(  51) = (  0.8330546  0.5001047  0.6666534  )
        52        C      tau(  52) = (  0.8333195  0.8333348  0.0001457  )
        53        C      tau(  53) = (  0.8331231  0.8331837  0.3334319  )
        54        C      tau(  54) = (  0.8331631  0.8334835  0.6667806  )
        55        C      tau(  55) = (  0.1668461  0.0001943  0.1668657  )
        56        C      tau(  56) = (  0.1668099  0.0004078  0.5001049  )
        57        C      tau(  57) = (  0.1666843  0.0003009  0.8334834  )
        58        C      tau(  58) = (  0.1677078  0.3334992  0.1676409  )
        59        C      tau(  59) = (  0.1691275  0.3362732  0.4995635  )
        60        C      tau(  60) = (  0.1665952  0.3336743  0.8335264  )
        61        C      tau(  61) = (  0.1668544  0.6666090  0.1671272  )
        62        C      tau(  62) = (  0.1668445  0.6666172  0.5008690  )
        63        C      tau(  63) = (  0.1665203  0.6669441  0.8337280  )
        64        C      tau(  64) = (  0.5002495 -0.0004288  0.1665179  )
        65        C      tau(  65) = (  0.5000935 -0.0000176  0.4999526  )
        66        C      tau(  66) = (  0.5000322  0.0003404  0.8331843  )
        67        C      tau(  67) = (  0.5008436  0.3326171  0.1656794  )
        68        C      tau(  68) = (  0.5006646  0.3327916  0.4956351  )
        69        C      tau(  69) = (  0.4998117  0.3336513  0.8328852  )
        70        C      tau(  70) = (  0.4999618  0.6657534  0.1676430  )
        71        C      tau(  71) = (  0.4971851  0.6643310  0.4995639  )
        72        C      tau(  72) = (  0.4997894  0.6668681  0.8335255  )
        73        C      tau(  73) = (  0.8335472 -0.0000831  0.1666991  )
        74        C      tau(  74) = (  0.8334823 -0.0000187  0.4999185  )
        75        C      tau(  75) = (  0.8333195  0.0001457  0.8333348  )
        76        C      tau(  76) = (  0.8338920  0.3332139  0.1665179  )
        77        C      tau(  77) = (  0.8334805  0.3333700  0.4999522  )
        78        C      tau(  78) = (  0.8331231  0.3334319  0.8331837  )
        79        C      tau(  79) = (  0.8332690  0.6666178  0.1668661  )
        80        C      tau(  80) = (  0.8330546  0.6666534  0.5001046  )
        81        C      tau(  81) = (  0.8331631  0.6667806  0.8334835  )
        82        C      tau(  82) = (  0.0004851  0.1668585  0.1668585  )
        83        C      tau(  83) = (  0.0004097  0.1671550  0.4998414  )
        84        C      tau(  84) = (  0.0000374  0.1668920  0.8334268  )
        85        C      tau(  85) = (  0.0004097  0.4998414  0.1671550  )
        86        C      tau(  86) = ( -0.0000087  0.5003056  0.5003056  )
        87        C      tau(  87) = ( -0.0003584  0.5003378  0.8338220  )
        88        C      tau(  88) = (  0.0000374  0.8334268  0.1668920  )
        89        C      tau(  89) = ( -0.0003584  0.8338220  0.5003378  )
        90        C      tau(  90) = ( -0.0000687  0.8335335  0.8335335  )
        91        C      tau(  91) = (  0.3338598  0.1660311  0.1660311  )
        92        C      tau(  92) = (  0.3337223  0.1670328  0.4997380  )
        93        C      tau(  93) = (  0.3336221  0.1671557  0.8330537  )
        94        C      tau(  94) = (  0.3337223  0.4997380  0.1670328  )
        95        C      tau(  95) = (  0.3331574  0.5003062  0.8334713  )
        96        C      tau(  96) = (  0.3336221  0.8330537  0.1671557  )
        97        C      tau(  97) = (  0.3331574  0.8334713  0.5003062  )
        98        C      tau(  98) = (  0.3331267  0.8338214  0.8338214  )
        99        C      tau(  99) = (  0.6671534  0.1663100  0.1663100  )
       100        C      tau( 100) = (  0.6674305  0.1660325  0.4996022  )
       101        C      tau( 101) = (  0.6666049  0.1668595  0.8329778  )
       102        C      tau( 102) = (  0.6674305  0.4996022  0.1660325  )
       103        C      tau( 103) = (  0.6664272  0.4997379  0.4997379  )
       104        C      tau( 104) = (  0.6663078  0.4998416  0.8330529  )
       105        C      tau( 105) = (  0.6666049  0.8329778  0.1668595  )
       106        C      tau( 106) = (  0.6663078  0.8330529  0.4998416  )
       107        C      tau( 107) = (  0.6665727  0.8334274  0.8334274  )
       108        C      tau( 108) = (  0.0835234  0.0835514  0.0835514  )
       109        C      tau( 109) = (  0.0839741  0.0840062  0.4168279  )
       110        C      tau( 110) = (  0.0831842  0.0834930  0.7502820  )
       111        C      tau( 111) = (  0.0839741  0.4168279  0.0840062  )
       112        C      tau( 112) = (  0.0835956  0.4173164  0.4173164  )
       113        C      tau( 113) = (  0.0819424  0.4163956  0.7515219  )
       114        C      tau( 114) = (  0.0831842  0.7502820  0.0834930  )
       115        C      tau( 115) = (  0.0819424  0.7515219  0.4163956  )
       116        C      tau( 116) = (  0.0831995  0.7502669  0.7502669  )
       117        C      tau( 117) = (  0.4169739  0.0829638  0.0829638  )
       118        C      tau( 118) = (  0.4170658  0.0832135  0.4163992  )
       119        C      tau( 119) = (  0.4166378  0.0840076  0.7494908  )
       120        C      tau( 120) = (  0.4170658  0.4163992  0.0832135  )
       121        C      tau( 121) = (  0.4161465  0.4173166  0.7498667  )
       122        C      tau( 122) = (  0.4166378  0.7494908  0.0840076  )
       123        C      tau( 123) = (  0.4161465  0.7498667  0.4173166  )
       124        C      tau( 124) = (  0.4170692  0.7515207  0.7515207  )
       125        C      tau( 125) = (  0.7502564  0.0832095  0.0832095  )
       126        C      tau( 126) = (  0.7505007  0.0829645  0.4164918  )
       127        C      tau( 127) = (  0.7499145  0.0835517  0.7499428  )
       128        C      tau( 128) = (  0.7505007  0.4164918  0.0829645  )
       129        C      tau( 129) = (  0.7502499  0.4163991  0.4163991  )
       130        C      tau( 130) = (  0.7494568  0.4168280  0.7494896  )
       131        C      tau( 131) = (  0.7499145  0.7499428  0.0835517  )
       132        C      tau( 132) = (  0.7494568  0.7494896  0.4168280  )
       133        C      tau( 133) = (  0.7499724  0.7502821  0.7502821  )
       134        C      tau( 134) = (  0.2504846  0.2500423  0.0835432  )
       135        C      tau( 135) = (  0.2523070  0.2514936  0.4170855  )
       136        C      tau( 136) = (  0.2491732  0.2500753  0.7503628  )
       137        C      tau( 137) = (  0.2502213  0.5832440  0.0837478  )
       138        C      tau( 138) = (  0.2422806  0.5911792  0.4132207  )
       139        C      tau( 139) = (  0.2498096  0.5836546  0.7508875  )
       140        C      tau( 140) = (  0.2498870  0.9167373  0.0835702  )
       141        C      tau( 141) = (  0.2500550  0.9170106  0.4168137  )
       142        C      tau( 142) = (  0.2499747  0.9171376  0.7501857  )
       143        C      tau( 143) = (  0.5838406  0.2496243  0.0826665  )
       144        C      tau( 144) = (  0.5849686  0.2484933  0.4157595  )
       145        C      tau( 145) = (  0.5830198  0.2504452  0.7493710  )
       146        C      tau( 146) = (  0.5834228  0.5829807  0.0835445  )
       147        C      tau( 147) = (  0.5819648  0.5811510  0.4170857  )
       148        C      tau( 148) = (  0.5833886  0.5842900  0.7503611  )
       149        C      tau( 149) = (  0.5834152  0.9163927  0.0834612  )
       150        C      tau( 150) = (  0.5832659  0.9164294  0.4167339  )
       151        C      tau( 151) = (  0.5834440  0.9171176  0.7502054  )
       152        C      tau( 152) = (  0.9170726  0.2500507  0.0834607  )
       153        C      tau( 153) = (  0.9170350  0.2501994  0.4167337  )
       154        C      tau( 154) = (  0.9163478  0.2500221  0.7502050  )
       155        C      tau( 155) = (  0.9167283  0.5835791  0.0835702  )
       156        C      tau( 156) = (  0.9164540  0.5834107  0.4168136  )
       157        C      tau( 157) = (  0.9163278  0.5834920  0.7501857  )
       158        C      tau( 158) = (  0.9166702  0.9167964  0.0834295  )
       159        C      tau( 159) = (  0.9165287  0.9169363  0.4166904  )
       160        C      tau( 160) = (  0.9166002  0.9168664  0.7501630  )
       161        C      tau( 161) = (  0.2504846  0.0835432  0.2500423  )
       162        C      tau( 162) = (  0.2502213  0.0837478  0.5832440  )
       163        C      tau( 163) = (  0.2498870  0.0835702  0.9167373  )
       164        C      tau( 164) = (  0.2523070  0.4170855  0.2514936  )
       165        C      tau( 165) = (  0.2422806  0.4132207  0.5911792  )
       166        C      tau( 166) = (  0.2500550  0.4168137  0.9170106  )
       167        C      tau( 167) = (  0.2491732  0.7503628  0.2500753  )
       168        C      tau( 168) = (  0.2498096  0.7508875  0.5836546  )
       169        C      tau( 169) = (  0.2499747  0.7501857  0.9171376  )
       170        C      tau( 170) = (  0.5838406  0.0826665  0.2496243  )
       171        C      tau( 171) = (  0.5834228  0.0835445  0.5829807  )
       172        C      tau( 172) = (  0.5834152  0.0834612  0.9163927  )
       173        C      tau( 173) = (  0.5849686  0.4157595  0.2484933  )
       174        C      tau( 174) = (  0.5819648  0.4170857  0.5811510  )
       175        C      tau( 175) = (  0.5832659  0.4167339  0.9164294  )
       176        C      tau( 176) = (  0.5830198  0.7493710  0.2504452  )
       177        C      tau( 177) = (  0.5833886  0.7503611  0.5842900  )
       178        C      tau( 178) = (  0.5834440  0.7502054  0.9171176  )
       179        C      tau( 179) = (  0.9170726  0.0834607  0.2500507  )
       180        C      tau( 180) = (  0.9167283  0.0835702  0.5835791  )
       181        C      tau( 181) = (  0.9166702  0.0834295  0.9167964  )
       182        C      tau( 182) = (  0.9170350  0.4167337  0.2501994  )
       183        C      tau( 183) = (  0.9164540  0.4168136  0.5834107  )
       184        C      tau( 184) = (  0.9165286  0.4166904  0.9169363  )
       185        C      tau( 185) = (  0.9163478  0.7502050  0.2500221  )
       186        C      tau( 186) = (  0.9163278  0.7501857  0.5834920  )
       187        C      tau( 187) = (  0.9166002  0.7501630  0.9168664  )
       188        C      tau( 188) = (  0.0840922  0.2504439  0.2504439  )
       189        C      tau( 189) = (  0.0831019  0.2500750  0.5842912  )
       190        C      tau( 190) = (  0.0832606  0.2500221  0.9171176  )
       191        C      tau( 191) = (  0.0831019  0.5842912  0.2500750  )
       192        C      tau( 192) = (  0.0825763  0.5836553  0.5836553  )
       193        C      tau( 193) = (  0.0832803  0.5834920  0.9171376  )
       194        C      tau( 194) = (  0.0832606  0.9171176  0.2500221  )
       195        C      tau( 195) = (  0.0832803  0.9171376  0.5834920  )
       196        C      tau( 196) = (  0.0833039  0.9168663  0.9168663  )
       197        C      tau( 197) = (  0.4177022  0.2484925  0.2484925  )
       198        C      tau( 198) = (  0.4163751  0.2514954  0.5811528  )
       199        C      tau( 199) = (  0.4167322  0.2501998  0.9164296  )
       200        C      tau( 200) = (  0.4163751  0.5811528  0.2514954  )
       201        C      tau( 201) = (  0.4202383  0.5911775  0.5911775  )
       202        C      tau( 202) = (  0.4166527  0.5834109  0.9170107  )
       203        C      tau( 203) = (  0.4167322  0.9164296  0.2501998  )
       204        C      tau( 204) = (  0.4166527  0.9170107  0.5834109  )
       205        C      tau( 205) = (  0.4167763  0.9169364  0.9169364  )
       206        C      tau( 206) = (  0.7507977  0.2496246  0.2496246  )
       207        C      tau( 207) = (  0.7499203  0.2500429  0.5829800  )
       208        C      tau( 208) = (  0.7500048  0.2500510  0.9163926  )
       209        C      tau( 209) = (  0.7499203  0.5829800  0.2500429  )
       210        C      tau( 210) = (  0.7497155  0.5832434  0.5832434  )
       211        C      tau( 211) = (  0.7498951  0.5835793  0.9167370  )
       212        C      tau( 212) = (  0.7500048  0.9163926  0.2500510  )
       213        C      tau( 213) = (  0.7498951  0.9167370  0.5835792  )
       214        C      tau( 214) = (  0.7500370  0.9167969  0.9167969  )
       215        N      tau( 215) = (  0.4238719  0.4095829  0.4095829  )

     number of k points=     1
                       cart. coord. in units 2pi/alat
        k(    1) = (   0.0000000   0.0000000   0.0000000), wk =   1.0000000

                       cryst. coord.
        k(    1) = (   0.0000000   0.0000000   0.0000000), wk =   1.0000000

     Dense  grid:   338755 G-vectors     FFT dimensions: (  90,  90,  90)

     Dynamical RAM for                 wfc:      15.43 MB

     Dynamical RAM for     wfc (w. buffer):      46.30 MB

     Dynamical RAM for           str. fact:       0.29 MB

     Dynamical RAM for           local pot:       0.00 MB

     Dynamical RAM for          nlocal pot:      30.86 MB

     Dynamical RAM for                qrad:       0.62 MB

     Dynamical RAM for          rho,v,vnew:       1.97 MB

     Dynamical RAM for               rhoin:       0.66 MB

     Dynamical RAM for            rho*nmix:       4.60 MB

     Dynamical RAM for           G-vectors:       0.61 MB

     Dynamical RAM for          h,s,v(r/c):       3.74 MB

     Dynamical RAM for          <psi|beta>:      22.57 MB

     Dynamical RAM for                 psi:      30.86 MB

     Dynamical RAM for                hpsi:      30.86 MB

     Dynamical RAM for                spsi:      30.86 MB

     Dynamical RAM for      wfcinit/wfcrot:      47.80 MB

     Dynamical RAM for           addusdens:      37.06 MB

     Dynamical RAM for          addusforce:      98.61 MB

     Dynamical RAM for         addusstress:       7.40 MB

     Estimated static dynamical RAM per process >      82.85 MB

     Estimated max dynamical RAM per process >     206.35 MB

     Estimated total dynamical RAM >       7.25 GB

     Check: negative core charge=   -0.000075
     Generating pointlists ...
     new r_m :   0.0570 (alat units)  1.1534 (a.u.) for type    1
     new r_m :   0.0572 (alat units)  1.1575 (a.u.) for type    2

     Initial potential from superposition of free atoms

     starting charge     860.9911, renormalised to     860.0000
     Starting wfcs are random
     Checking if some PAW data can be deallocated... 
       PAW data deallocated on   35 nodes for type:  2

     total cpu time spent up to now is        6.4 secs

     per-process dynamical memory:   192.9 Mb

     Self-consistent Calculation

     iteration #  1     ecut=    45.00 Ry     beta= 0.70
     Davidson diagonalization with overlap

---- Real-time Memory Report at c_bands before calling an iterative solver
           358 MiB given to the printing process from OS
           188 MiB allocation reported by mallinfo(arena+hblkhd)
        103298 MiB available memory on the node where the printing process lives
------------------
     ethr =  1.00E-02,  avg # of iterations =  9.0

     total cpu time spent up to now is       79.6 secs

     total energy              =   -3972.46266717 Ry
     estimated scf accuracy    <      12.66016391 Ry

     total magnetization       =     0.00 Bohr mag/cell
     absolute magnetization    =     0.28 Bohr mag/cell

     iteration #  2     ecut=    45.00 Ry     beta= 0.70
     Davidson diagonalization with overlap

---- Real-time Memory Report at c_bands before calling an iterative solver
           647 MiB given to the printing process from OS
           181 MiB allocation reported by mallinfo(arena+hblkhd)
        102347 MiB available memory on the node where the printing process lives
------------------
     ethr =  1.47E-03,  avg # of iterations =  3.0

     total cpu time spent up to now is       98.6 secs

     total energy              =   -3971.54596843 Ry
     estimated scf accuracy    <       2.99729437 Ry

     total magnetization       =    -0.00 Bohr mag/cell
     absolute magnetization    =     0.13 Bohr mag/cell

     iteration #  3     ecut=    45.00 Ry     beta= 0.70
     Davidson diagonalization with overlap

---- Real-time Memory Report at c_bands before calling an iterative solver
           683 MiB given to the printing process from OS
           203 MiB allocation reported by mallinfo(arena+hblkhd)
        102032 MiB available memory on the node where the printing process lives
------------------
     ethr =  3.49E-04,  avg # of iterations =  9.0

     total cpu time spent up to now is      127.9 secs

     total energy              =   -3971.09924522 Ry
     estimated scf accuracy    <      20.26317809 Ry

     total magnetization       =     0.00 Bohr mag/cell
     absolute magnetization    =     0.14 Bohr mag/cell

     iteration #  4     ecut=    45.00 Ry     beta= 0.70
     Davidson diagonalization with overlap

---- Real-time Memory Report at c_bands before calling an iterative solver
           695 MiB given to the printing process from OS
           203 MiB allocation reported by mallinfo(arena+hblkhd)
        102010 MiB available memory on the node where the printing process lives
------------------
     ethr =  3.49E-04,  avg # of iterations =  9.5

     total cpu time spent up to now is      159.0 secs

     total energy              =   -3973.46388011 Ry
     estimated scf accuracy    <       0.56350146 Ry

     total magnetization       =    -0.00 Bohr mag/cell
     absolute magnetization    =     0.05 Bohr mag/cell

     iteration #  5     ecut=    45.00 Ry     beta= 0.70
     Davidson diagonalization with overlap

---- Real-time Memory Report at c_bands before calling an iterative solver
           701 MiB given to the printing process from OS
           203 MiB allocation reported by mallinfo(arena+hblkhd)
        102026 MiB available memory on the node where the printing process lives
------------------
     ethr =  6.55E-05,  avg # of iterations =  5.0

     total cpu time spent up to now is      178.9 secs

     total energy              =   -3973.50079204 Ry
     estimated scf accuracy    <       0.14844044 Ry

     total magnetization       =    -0.00 Bohr mag/cell
     absolute magnetization    =     0.04 Bohr mag/cell

     iteration #  6     ecut=    45.00 Ry     beta= 0.70
     Davidson diagonalization with overlap

---- Real-time Memory Report at c_bands before calling an iterative solver
           707 MiB given to the printing process from OS
           203 MiB allocation reported by mallinfo(arena+hblkhd)
        102026 MiB available memory on the node where the printing process lives
------------------
     ethr =  1.73E-05,  avg # of iterations =  6.5

     total cpu time spent up to now is      199.8 secs

     total energy              =   -3973.49704234 Ry
     estimated scf accuracy    <       0.05074394 Ry

     total magnetization       =     0.00 Bohr mag/cell
     absolute magnetization    =     0.03 Bohr mag/cell

     iteration #  7     ecut=    45.00 Ry     beta= 0.70
     Davidson diagonalization with overlap

---- Real-time Memory Report at c_bands before calling an iterative solver
           711 MiB given to the printing process from OS
           203 MiB allocation reported by mallinfo(arena+hblkhd)
        102022 MiB available memory on the node where the printing process lives
------------------
     ethr =  5.90E-06,  avg # of iterations = 11.0

     total cpu time spent up to now is      224.0 secs

     total energy              =   -3973.50109906 Ry
     estimated scf accuracy    <       0.01022931 Ry

     total magnetization       =    -0.00 Bohr mag/cell
     absolute magnetization    =     0.02 Bohr mag/cell

     iteration #  8     ecut=    45.00 Ry     beta= 0.70
     Davidson diagonalization with overlap

---- Real-time Memory Report at c_bands before calling an iterative solver
           718 MiB given to the printing process from OS
           203 MiB allocation reported by mallinfo(arena+hblkhd)
        101903 MiB available memory on the node where the printing process lives
------------------
     ethr =  1.19E-06,  avg # of iterations =  8.5

     total cpu time spent up to now is      246.4 secs

     total energy              =   -3973.50258303 Ry
     estimated scf accuracy    <       0.00724951 Ry

     total magnetization       =     0.00 Bohr mag/cell
     absolute magnetization    =     0.01 Bohr mag/cell

     iteration #  9     ecut=    45.00 Ry     beta= 0.70
     Davidson diagonalization with overlap

---- Real-time Memory Report at c_bands before calling an iterative solver
           723 MiB given to the printing process from OS
           203 MiB allocation reported by mallinfo(arena+hblkhd)
        101785 MiB available memory on the node where the printing process lives
------------------
     ethr =  8.43E-07,  avg # of iterations =  3.0

     total cpu time spent up to now is      265.2 secs

     total energy              =   -3973.50347431 Ry
     estimated scf accuracy    <       0.00087093 Ry

     total magnetization       =    -0.00 Bohr mag/cell
     absolute magnetization    =     0.01 Bohr mag/cell

     iteration # 10     ecut=    45.00 Ry     beta= 0.70
     Davidson diagonalization with overlap

---- Real-time Memory Report at c_bands before calling an iterative solver
           727 MiB given to the printing process from OS
           203 MiB allocation reported by mallinfo(arena+hblkhd)
        101527 MiB available memory on the node where the printing process lives
------------------
     ethr =  1.01E-07,  avg # of iterations =  2.0

     total cpu time spent up to now is      283.5 secs

     total energy              =   -3973.50359084 Ry
     estimated scf accuracy    <       0.00013363 Ry

     total magnetization       =     0.00 Bohr mag/cell
     absolute magnetization    =     0.00 Bohr mag/cell

     iteration # 11     ecut=    45.00 Ry     beta= 0.70
     Davidson diagonalization with overlap

---- Real-time Memory Report at c_bands before calling an iterative solver
           729 MiB given to the printing process from OS
           203 MiB allocation reported by mallinfo(arena+hblkhd)
        101592 MiB available memory on the node where the printing process lives
------------------
     ethr =  1.55E-08,  avg # of iterations =  2.0

     total cpu time spent up to now is      301.7 secs

     total energy              =   -3973.50361617 Ry
     estimated scf accuracy    <       0.00001740 Ry

     total magnetization       =     0.00 Bohr mag/cell
     absolute magnetization    =     0.00 Bohr mag/cell

     iteration # 12     ecut=    45.00 Ry     beta= 0.70
     Davidson diagonalization with overlap

---- Real-time Memory Report at c_bands before calling an iterative solver
           731 MiB given to the printing process from OS
           203 MiB allocation reported by mallinfo(arena+hblkhd)
        101521 MiB available memory on the node where the printing process lives
------------------
     ethr =  2.02E-09,  avg # of iterations =  2.0

     total cpu time spent up to now is      320.2 secs

     total energy              =   -3973.50361916 Ry
     estimated scf accuracy    <       0.00000170 Ry

     total magnetization       =    -0.00 Bohr mag/cell
     absolute magnetization    =     0.00 Bohr mag/cell

     iteration # 13     ecut=    45.00 Ry     beta= 0.70
     Davidson diagonalization with overlap

---- Real-time Memory Report at c_bands before calling an iterative solver
           734 MiB given to the printing process from OS
           203 MiB allocation reported by mallinfo(arena+hblkhd)
        101513 MiB available memory on the node where the printing process lives
------------------
     ethr =  1.98E-10,  avg # of iterations =  2.0

     total cpu time spent up to now is      338.5 secs

     total energy              =   -3973.50361951 Ry
     estimated scf accuracy    <       0.00000030 Ry

     total magnetization       =    -0.00 Bohr mag/cell
     absolute magnetization    =     0.00 Bohr mag/cell

     iteration # 14     ecut=    45.00 Ry     beta= 0.70
     Davidson diagonalization with overlap

---- Real-time Memory Report at c_bands before calling an iterative solver
           736 MiB given to the printing process from OS
           203 MiB allocation reported by mallinfo(arena+hblkhd)
        101506 MiB available memory on the node where the printing process lives
------------------
     ethr =  3.43E-11,  avg # of iterations =  2.0

     total cpu time spent up to now is      356.9 secs

     total energy              =   -3973.50361954 Ry
     estimated scf accuracy    <       0.00000027 Ry

     total magnetization       =     0.00 Bohr mag/cell
     absolute magnetization    =     0.00 Bohr mag/cell

     iteration # 15     ecut=    45.00 Ry     beta= 0.70
     Davidson diagonalization with overlap

---- Real-time Memory Report at c_bands before calling an iterative solver
           739 MiB given to the printing process from OS
           203 MiB allocation reported by mallinfo(arena+hblkhd)
        101518 MiB available memory on the node where the printing process lives
------------------
     ethr =  3.09E-11,  avg # of iterations =  2.0

     total cpu time spent up to now is      375.3 secs

     total energy              =   -3973.50361959 Ry
     estimated scf accuracy    <       0.00000007 Ry

     total magnetization       =    -0.00 Bohr mag/cell
     absolute magnetization    =     0.00 Bohr mag/cell

     iteration # 16     ecut=    45.00 Ry     beta= 0.70
     Davidson diagonalization with overlap

---- Real-time Memory Report at c_bands before calling an iterative solver
           742 MiB given to the printing process from OS
           203 MiB allocation reported by mallinfo(arena+hblkhd)
        101516 MiB available memory on the node where the printing process lives
------------------
     ethr =  8.49E-12,  avg # of iterations =  2.0

     total cpu time spent up to now is      393.6 secs

     total energy              =   -3973.50361960 Ry
     estimated scf accuracy    <       0.00000002 Ry

     total magnetization       =    -0.00 Bohr mag/cell
     absolute magnetization    =     0.00 Bohr mag/cell

     iteration # 17     ecut=    45.00 Ry     beta= 0.70
     Davidson diagonalization with overlap

---- Real-time Memory Report at c_bands before calling an iterative solver
           744 MiB given to the printing process from OS
           203 MiB allocation reported by mallinfo(arena+hblkhd)
        101494 MiB available memory on the node where the printing process lives
------------------
     ethr =  1.86E-12,  avg # of iterations =  2.0
 
     Magnetic moment per site  (integrated on atomic sphere of radius R)
     atom   1 (R=0.057)  charge=  1.8251  magn= -0.0000
     atom   2 (R=0.057)  charge=  1.8244  magn= -0.0000
     atom   3 (R=0.057)  charge=  1.8263  magn= -0.0000
     atom   4 (R=0.057)  charge=  1.8244  magn=  0.0000
     atom   5 (R=0.057)  charge=  1.8244  magn=  0.0000
     atom   6 (R=0.057)  charge=  1.8269  magn=  0.0000
     atom   7 (R=0.057)  charge=  1.8263  magn= -0.0000
     atom   8 (R=0.057)  charge=  1.8269  magn= -0.0000
     atom   9 (R=0.057)  charge=  1.8260  magn=  0.0000
     atom  10 (R=0.057)  charge=  1.8255  magn= -0.0000
     atom  11 (R=0.057)  charge=  1.8263  magn=  0.0000
     atom  12 (R=0.057)  charge=  1.8261  magn=  0.0000
     atom  13 (R=0.057)  charge=  1.8263  magn=  0.0000
     atom  14 (R=0.057)  charge=  1.7982  magn= -0.0000
     atom  15 (R=0.057)  charge=  1.8156  magn= -0.0000
     atom  16 (R=0.057)  charge=  1.8261  magn= -0.0000
     atom  17 (R=0.057)  charge=  1.8156  magn= -0.0000
     atom  18 (R=0.057)  charge=  1.8357  magn=  0.0000
     atom  19 (R=0.057)  charge=  1.8243  magn= -0.0000
     atom  20 (R=0.057)  charge=  1.8262  magn=  0.0000
     atom  21 (R=0.057)  charge=  1.8256  magn= -0.0000
     atom  22 (R=0.057)  charge=  1.8262  magn=  0.0000
     atom  23 (R=0.057)  charge=  1.8272  magn= -0.0000
     atom  24 (R=0.057)  charge=  1.8189  magn=  0.0000
     atom  25 (R=0.057)  charge=  1.8256  magn=  0.0000
     atom  26 (R=0.057)  charge=  1.8189  magn= -0.0000
     atom  27 (R=0.057)  charge=  1.8272  magn=  0.0000
     atom  28 (R=0.057)  charge=  1.8259  magn=  0.0000
     atom  29 (R=0.057)  charge=  1.8187  magn=  0.0000
     atom  30 (R=0.057)  charge=  1.8273  magn= -0.0000
     atom  31 (R=0.057)  charge=  1.8262  magn=  0.0000
     atom  32 (R=0.057)  charge=  1.8155  magn=  0.0000
     atom  33 (R=0.057)  charge=  1.8357  magn= -0.0000
     atom  34 (R=0.057)  charge=  1.8263  magn= -0.0000
     atom  35 (R=0.057)  charge=  1.8268  magn=  0.0000
     atom  36 (R=0.057)  charge=  1.8260  magn= -0.0000
     atom  37 (R=0.057)  charge=  1.8262  magn=  0.0000
     atom  38 (R=0.057)  charge=  1.8272  magn= -0.0000
     atom  39 (R=0.057)  charge=  1.8188  magn=  0.0000
     atom  40 (R=0.057)  charge=  1.8263  magn= -0.0000
     atom  41 (R=0.057)  charge=  1.7983  magn=  0.0000
     atom  42 (R=0.057)  charge=  1.8157  magn=  0.0000
     atom  43 (R=0.057)  charge=  1.8244  magn=  0.0000
     atom  44 (R=0.057)  charge=  1.8244  magn=  0.0000
     atom  45 (R=0.057)  charge=  1.8268  magn= -0.0000
     atom  46 (R=0.057)  charge=  1.8244  magn=  0.0000
     atom  47 (R=0.057)  charge=  1.8262  magn= -0.0000
     atom  48 (R=0.057)  charge=  1.8256  magn= -0.0000
     atom  49 (R=0.057)  charge=  1.8254  magn=  0.0000
     atom  50 (R=0.057)  charge=  1.8263  magn= -0.0000
     atom  51 (R=0.057)  charge=  1.8260  magn=  0.0000
     atom  52 (R=0.057)  charge=  1.8250  magn= -0.0000
     atom  53 (R=0.057)  charge=  1.8242  magn=  0.0000
     atom  54 (R=0.057)  charge=  1.8261  magn=  0.0000
     atom  55 (R=0.057)  charge=  1.8259  magn=  0.0000
     atom  56 (R=0.057)  charge=  1.8262  magn= -0.0000
     atom  57 (R=0.057)  charge=  1.8263  magn= -0.0000
     atom  58 (R=0.057)  charge=  1.8187  magn=  0.0000
     atom  59 (R=0.057)  charge=  1.8155  magn= -0.0000
     atom  60 (R=0.057)  charge=  1.8269  magn= -0.0000
     atom  61 (R=0.057)  charge=  1.8273  magn= -0.0000
     atom  62 (R=0.057)  charge=  1.8357  magn= -0.0000
     atom  63 (R=0.057)  charge=  1.8260  magn=  0.0000
     atom  64 (R=0.057)  charge=  1.8262  magn=  0.0000
     atom  65 (R=0.057)  charge=  1.8263  magn= -0.0000
     atom  66 (R=0.057)  charge=  1.8244  magn=  0.0000
     atom  67 (R=0.057)  charge=  1.8272  magn= -0.0000
     atom  68 (R=0.057)  charge=  1.7983  magn= -0.0000
     atom  69 (R=0.057)  charge=  1.8244  magn=  0.0000
     atom  70 (R=0.057)  charge=  1.8188  magn= -0.0000
     atom  71 (R=0.057)  charge=  1.8157  magn=  0.0000
     atom  72 (R=0.057)  charge=  1.8268  magn= -0.0000
     atom  73 (R=0.057)  charge=  1.8244  magn= -0.0000
     atom  74 (R=0.057)  charge=  1.8254  magn= -0.0000
     atom  75 (R=0.057)  charge=  1.8250  magn= -0.0000
     atom  76 (R=0.057)  charge=  1.8262  magn=  0.0000
     atom  77 (R=0.057)  charge=  1.8263  magn= -0.0000
     atom  78 (R=0.057)  charge=  1.8242  magn=  0.0000
     atom  79 (R=0.057)  charge=  1.8257  magn=  0.0000
     atom  80 (R=0.057)  charge=  1.8260  magn=  0.0000
     atom  81 (R=0.057)  charge=  1.8261  magn= -0.0000
     atom  82 (R=0.057)  charge=  1.8246  magn=  0.0000
     atom  83 (R=0.057)  charge=  1.8237  magn=  0.0000
     atom  84 (R=0.057)  charge=  1.8254  magn= -0.0000
     atom  85 (R=0.057)  charge=  1.8237  magn=  0.0000
     atom  86 (R=0.057)  charge=  1.8275  magn= -0.0000
     atom  87 (R=0.057)  charge=  1.8283  magn= -0.0000
     atom  88 (R=0.057)  charge=  1.8254  magn= -0.0000
     atom  89 (R=0.057)  charge=  1.8283  magn=  0.0000
     atom  90 (R=0.057)  charge=  1.8256  magn=  0.0000
     atom  91 (R=0.057)  charge=  1.8301  magn=  0.0000
     atom  92 (R=0.057)  charge=  1.8298  magn= -0.0000
     atom  93 (R=0.057)  charge=  1.8237  magn= -0.0000
     atom  94 (R=0.057)  charge=  1.8298  magn=  0.0000
     atom  95 (R=0.057)  charge=  1.8274  magn=  0.0000
     atom  96 (R=0.057)  charge=  1.8237  magn= -0.0000
     atom  97 (R=0.057)  charge=  1.8274  magn= -0.0000
     atom  98 (R=0.057)  charge=  1.8283  magn= -0.0000
     atom  99 (R=0.057)  charge=  1.8255  magn=  0.0000
     atom 100 (R=0.057)  charge=  1.8301  magn= -0.0000
     atom 101 (R=0.057)  charge=  1.8245  magn= -0.0000
     atom 102 (R=0.057)  charge=  1.8301  magn=  0.0000
     atom 103 (R=0.057)  charge=  1.8298  magn=  0.0000
     atom 104 (R=0.057)  charge=  1.8237  magn= -0.0000
     atom 105 (R=0.057)  charge=  1.8245  magn=  0.0000
     atom 106 (R=0.057)  charge=  1.8237  magn=  0.0000
     atom 107 (R=0.057)  charge=  1.8253  magn= -0.0000
     atom 108 (R=0.057)  charge=  1.8237  magn= -0.0000
     atom 109 (R=0.057)  charge=  1.8207  magn=  0.0000
     atom 110 (R=0.057)  charge=  1.8219  magn=  0.0000
     atom 111 (R=0.057)  charge=  1.8207  magn= -0.0000
     atom 112 (R=0.057)  charge=  1.8254  magn=  0.0000
     atom 113 (R=0.057)  charge=  1.8168  magn=  0.0000
     atom 114 (R=0.057)  charge=  1.8219  magn=  0.0000
     atom 115 (R=0.057)  charge=  1.8168  magn= -0.0000
     atom 116 (R=0.057)  charge=  1.8236  magn= -0.0000
     atom 117 (R=0.057)  charge=  1.8256  magn= -0.0000
     atom 118 (R=0.057)  charge=  1.8233  magn=  0.0000
     atom 119 (R=0.057)  charge=  1.8209  magn= -0.0000
     atom 120 (R=0.057)  charge=  1.8233  magn=  0.0000
     atom 121 (R=0.057)  charge=  1.8256  magn= -0.0000
     atom 122 (R=0.057)  charge=  1.8209  magn=  0.0000
     atom 123 (R=0.057)  charge=  1.8256  magn= -0.0000
     atom 124 (R=0.057)  charge=  1.8167  magn= -0.0000
     atom 125 (R=0.057)  charge=  1.8244  magn=  0.0000
     atom 126 (R=0.057)  charge=  1.8255  magn= -0.0000
     atom 127 (R=0.057)  charge=  1.8237  magn=  0.0000
     atom 128 (R=0.057)  charge=  1.8255  magn= -0.0000
     atom 129 (R=0.057)  charge=  1.8233  magn=  0.0000
     atom 130 (R=0.057)  charge=  1.8210  magn= -0.0000
     atom 131 (R=0.057)  charge=  1.8237  magn= -0.0000
     atom 132 (R=0.057)  charge=  1.8210  magn=  0.0000
     atom 133 (R=0.057)  charge=  1.8219  magn= -0.0000
     atom 134 (R=0.057)  charge=  1.8228  magn= -0.0000
     atom 135 (R=0.057)  charge=  1.8169  magn=  0.0000
     atom 136 (R=0.057)  charge=  1.8099  magn=  0.0000
     atom 137 (R=0.057)  charge=  1.8229  magn=  0.0000
     atom 138 (R=0.057)  charge=  1.7863  magn=  0.0000
     atom 139 (R=0.057)  charge=  1.8234  magn=  0.0000
     atom 140 (R=0.057)  charge=  1.8209  magn=  0.0000
     atom 141 (R=0.057)  charge=  1.8231  magn= -0.0000
     atom 142 (R=0.057)  charge=  1.8233  magn= -0.0000
     atom 143 (R=0.057)  charge=  1.8257  magn= -0.0000
     atom 144 (R=0.057)  charge=  1.8320  magn=  0.0000
     atom 145 (R=0.057)  charge=  1.8237  magn= -0.0000
     atom 146 (R=0.057)  charge=  1.8228  magn= -0.0000
     atom 147 (R=0.057)  charge=  1.8170  magn= -0.0000
     atom 148 (R=0.057)  charge=  1.8096  magn= -0.0000
     atom 149 (R=0.057)  charge=  1.8245  magn=  0.0000
     atom 150 (R=0.057)  charge=  1.8237  magn=  0.0000
     atom 151 (R=0.057)  charge=  1.8227  magn=  0.0000
     atom 152 (R=0.057)  charge=  1.8245  magn= -0.0000
     atom 153 (R=0.057)  charge=  1.8237  magn=  0.0000
     atom 154 (R=0.057)  charge=  1.8227  magn= -0.0000
     atom 155 (R=0.057)  charge=  1.8209  magn=  0.0000
     atom 156 (R=0.057)  charge=  1.8231  magn=  0.0000
     atom 157 (R=0.057)  charge=  1.8233  magn=  0.0000
     atom 158 (R=0.057)  charge=  1.8233  magn=  0.0000
     atom 159 (R=0.057)  charge=  1.8232  magn=  0.0000
     atom 160 (R=0.057)  charge=  1.8231  magn= -0.0000
     atom 161 (R=0.057)  charge=  1.8228  magn= -0.0000
     atom 162 (R=0.057)  charge=  1.8229  magn=  0.0000
     atom 163 (R=0.057)  charge=  1.8209  magn=  0.0000
     atom 164 (R=0.057)  charge=  1.8169  magn= -0.0000
     atom 165 (R=0.057)  charge=  1.7863  magn=  0.0000
     atom 166 (R=0.057)  charge=  1.8231  magn= -0.0000
     atom 167 (R=0.057)  charge=  1.8099  magn=  0.0000
     atom 168 (R=0.057)  charge=  1.8234  magn=  0.0000
     atom 169 (R=0.057)  charge=  1.8233  magn=  0.0000
     atom 170 (R=0.057)  charge=  1.8257  magn= -0.0000
     atom 171 (R=0.057)  charge=  1.8228  magn=  0.0000
     atom 172 (R=0.057)  charge=  1.8245  magn=  0.0000
     atom 173 (R=0.057)  charge=  1.8320  magn=  0.0000
     atom 174 (R=0.057)  charge=  1.8170  magn= -0.0000
     atom 175 (R=0.057)  charge=  1.8237  magn= -0.0000
     atom 176 (R=0.057)  charge=  1.8237  magn=  0.0000
     atom 177 (R=0.057)  charge=  1.8096  magn= -0.0000
     atom 178 (R=0.057)  charge=  1.8227  magn=  0.0000
     atom 179 (R=0.057)  charge=  1.8245  magn=  0.0000
     atom 180 (R=0.057)  charge=  1.8209  magn=  0.0000
     atom 181 (R=0.057)  charge=  1.8233  magn=  0.0000
     atom 182 (R=0.057)  charge=  1.8237  magn= -0.0000
     atom 183 (R=0.057)  charge=  1.8231  magn=  0.0000
     atom 184 (R=0.057)  charge=  1.8232  magn= -0.0000
     atom 185 (R=0.057)  charge=  1.8227  magn=  0.0000
     atom 186 (R=0.057)  charge=  1.8233  magn= -0.0000
     atom 187 (R=0.057)  charge=  1.8231  magn=  0.0000
     atom 188 (R=0.057)  charge=  1.8234  magn= -0.0000
     atom 189 (R=0.057)  charge=  1.8097  magn=  0.0000
     atom 190 (R=0.057)  charge=  1.8227  magn= -0.0000
     atom 191 (R=0.057)  charge=  1.8097  magn=  0.0000
     atom 192 (R=0.057)  charge=  1.8235  magn=  0.0000
     atom 193 (R=0.057)  charge=  1.8233  magn=  0.0000
     atom 194 (R=0.057)  charge=  1.8227  magn= -0.0000
     atom 195 (R=0.057)  charge=  1.8233  magn=  0.0000
     atom 196 (R=0.057)  charge=  1.8231  magn=  0.0000
     atom 197 (R=0.057)  charge=  1.8321  magn=  0.0000
     atom 198 (R=0.057)  charge=  1.8170  magn=  0.0000
     atom 199 (R=0.057)  charge=  1.8237  magn= -0.0000
     atom 200 (R=0.057)  charge=  1.8170  magn= -0.0000
     atom 201 (R=0.057)  charge=  1.7862  magn= -0.0000
     atom 202 (R=0.057)  charge=  1.8231  magn=  0.0000
     atom 203 (R=0.057)  charge=  1.8237  magn= -0.0000
     atom 204 (R=0.057)  charge=  1.8231  magn=  0.0000
     atom 205 (R=0.057)  charge=  1.8232  magn= -0.0000
     atom 206 (R=0.057)  charge=  1.8256  magn= -0.0000
     atom 207 (R=0.057)  charge=  1.8228  magn=  0.0000
     atom 208 (R=0.057)  charge=  1.8245  magn= -0.0000
     atom 209 (R=0.057)  charge=  1.8228  magn= -0.0000
     atom 210 (R=0.057)  charge=  1.8229  magn= -0.0000
     atom 211 (R=0.057)  charge=  1.8209  magn=  0.0000
     atom 212 (R=0.057)  charge=  1.8245  magn= -0.0000
     atom 213 (R=0.057)  charge=  1.8209  magn= -0.0000
     atom 214 (R=0.057)  charge=  1.8233  magn=  0.0000
     atom 215 (R=0.057)  charge=  2.9278  magn= -0.0000

     total cpu time spent up to now is      411.9 secs

     End of self-consistent calculation

 ------ SPIN UP ------------


          k = 0.0000 0.0000 0.0000 ( 42379 PWs)   bands (ev):

    -8.2494  -7.4460  -7.2295  -7.2295  -7.2028  -7.2028  -7.1634  -6.5788
    -6.2498  -6.2497  -6.2100  -6.2100  -6.2001  -6.2001  -6.1978  -6.1974
    -6.1973  -6.1966  -6.0595  -5.4530  -5.2417  -5.2414  -5.2414  -5.2209
    -5.2209  -5.2204  -5.0995  -4.4815  -4.2402  -4.2402  -4.2259  -4.2259
    -4.1268  -3.8468  -3.3743  -3.3742  -3.3405  -3.3405  -3.3126  -3.3126
    -3.3029  -3.2994  -3.2994  -3.2940  -3.2940  -3.2904  -3.2851  -3.2845
    -3.2845  -3.2795  -3.2795  -3.2727  -3.2692  -3.2675  -3.2551  -3.2551
    -2.9760  -2.7949  -2.5818  -2.5818  -2.5365  -2.5274  -2.5274  -2.5209
    -2.5209  -2.5174  -2.5174  -2.5131  -2.5043  -2.4951  -2.4951  -2.4833
    -2.4833  -2.4800  -2.4778  -2.4777  -2.4742  -2.4558  -2.4526  -2.4526
    -1.8202  -1.0501  -0.8796  -0.8796  -0.8616  -0.8616  -0.8481  -0.8418
    -0.8418  -0.8293  -0.8133  -0.8133  -0.5247   0.3195   0.4151   0.4151
     0.4570   0.4570   0.5426   0.7191   0.8797   0.8797   0.9250   0.9250
     0.9385   0.9385   0.9459   0.9648   0.9649   0.9852   0.9852   0.9876
     0.9878   1.0025   1.0025   1.0045   1.0139   1.0144   1.0144   1.0202
     1.0253   1.0253   1.0381   1.1713   1.1739   1.1740   1.1793   1.1835
     1.1867   1.1868   1.2020   1.2020   1.2024   1.2057   1.2057   1.2205
     1.2205   1.2274   1.2293   1.2293   1.2321   1.2372   1.2373   1.3181
     1.4551   1.4552   1.9866   2.2069   2.2069   2.2132   2.2433   2.2617
     2.2760   2.2761   2.2797   2.2797   2.3473   2.3473   3.3007   3.7372
     3.7478   3.7478   3.7868   3.8166   3.8166   3.8274   3.8350   3.8379
     3.8380   3.8410   3.8504   3.8507   3.8507   3.8567   3.8567   3.9972
     3.9972   3.9991   4.0140   4.3889   4.3890   4.4010   4.4468   4.4468
     4.4488   4.4631   4.4840   4.4840   4.4888   4.4888   4.4988   4.5127
     4.5128   4.5139   4.5140   4.5160   4.5225   4.5225   4.5272   4.5515
     4.6753   4.6753   5.2468   5.2469   5.3156   5.3317   5.3694   5.3695
     5.3783   5.3886   5.3886   5.4001   5.4120   5.4120   5.4137   5.4187
     5.4187   5.4261   5.4262   5.4272   5.4344   5.4345   5.4455   5.5513
     5.5658   5.5659   5.6144   5.7979   5.7979   5.8216   5.8572   5.8572
     5.8759   5.8759   5.8881   5.8910   5.8910   5.8945   5.8975   5.9002
     5.9002   5.9060   5.9098   5.9098   5.9161   5.9161   5.9281   5.9347
     5.9399   5.9587   5.9587   6.0051   6.0051   6.2765   6.3188   6.3188
     6.8651   6.8652   6.9142   6.9282   6.9344   6.9345   7.0022   7.4061
     7.4061   7.4241   7.4781   7.4782   7.4877   7.4877   7.5018   7.5072
     7.5651   7.5651   7.7432   7.7433   7.8161   7.8485   7.8509   7.8514
     7.8515   7.8856   7.8856   7.9125   7.9181   7.9363   7.9364   8.0189
     8.0190   8.0488   8.0488   8.1150   8.1299   8.1708   8.1859   8.1859
     8.2051   8.2052   8.2104   8.2105   8.2146   8.2319   8.2364   8.2413
     8.2413   8.2497   8.2497   8.2719   8.2719   8.2742   8.2822   8.2823
     8.3107   8.3227   8.3463   8.3463   8.3547   8.3557   8.3631   8.3631
     8.3660   8.3843   8.3844   8.3862   8.3862   8.3918   8.3918   8.3924
     8.3927   8.4013   8.4014   8.4038   8.4039   8.4068   8.4077   8.4077
     8.4130   8.4159   8.4219   8.4219   8.4225   8.4693   8.4693   8.5003
     8.5003   8.5051   8.5061   8.5078   8.5078   8.5219   8.5236   8.5236
     8.5316   8.5317   8.5636   8.9690   8.9886   8.9887   9.1281   9.1282
     9.1619   9.1619   9.1781   9.2035   9.2057   9.2057   9.2170   9.2268
     9.2269   9.2371   9.2438   9.2466   9.2467   9.2499   9.2499   9.2605
     9.2629   9.2629   9.2942   9.9079  10.0118  10.0120  10.2987  10.5477
    10.5478  10.5583  10.5783  10.5784  10.5821  10.6262  10.6264  10.6478
    10.7009  10.7140  10.7140  10.7658  10.7659  10.8273  10.8274  10.8427
    10.8462  10.8463  10.8675  10.8677  10.8734  10.8822  10.8823  10.9078
    10.9137  10.9264  10.9264  10.9335  10.9335  11.5129  11.5875  11.5948
    11.5949  11.7665  11.7665  11.7726  11.8003  11.8003  11.8037  11.8106
    11.8108  11.8249  12.8203  13.0041  13.0044  13.5419  14.4157  14.4159
    17.3491  17.3491  17.3617  17.4094  17.4094  17.4361  17.8912  17.9590
    17.9590  17.9918  17.9918  18.0057  18.1253  18.1253  18.1315  18.2364
    18.2364  18.2498  18.7982  18.7986  18.8503  19.3998  19.5030  19.5182
    19.5183  19.5218  19.5219  19.5524  19.5982  19.5982  19.6229  19.6229
    19.6762  20.0477  20.1755  20.1756  20.2046  20.2060  20.2361  20.2361
    20.2668  20.2668  20.2809  20.2867  20.2867  20.2959  20.3001  20.3002
    20.3004  20.3237  20.3238  20.3764  20.3764  20.3788  20.4216  20.4216
    20.4433  20.6564  20.6564  20.6792  20.7304  20.7732  20.7732  20.7867
    20.7868  20.8098  20.8231  20.8231  20.8232  20.8316  20.8345  20.8392
    20.8392  20.8522  20.8522  20.8616  20.8671  20.8671  20.8727  20.8728
    20.8778  20.8826  20.8826  20.8915  20.8956  20.8956  20.9102  20.9212
    20.9320  20.9320  20.9411  20.9411  20.9520  21.0535  21.0548  21.0548
    21.1167  21.1167  21.1527  21.2463  21.2828  21.2828  21.3104  21.3617
    21.3617  21.3618  21.3696  21.3744  21.3745  21.3923  21.3939  21.3941
    21.4034  21.4051  21.4051  21.4134  21.4134  21.4174  21.4250  21.4285
    21.4285  21.4420  21.4422  21.4609  21.4609  21.4635  21.4690  21.4691
    21.4770  21.4771  21.4776  21.4961  21.4963  21.5018  21.5975  21.5976
    21.6235  21.6749  21.7150  21.7150  21.7269  21.7269  21.7414  21.7521
    21.7616  21.7616  21.7714  21.7854  21.7954  21.8039  21.8040  21.8195
    21.8195  21.9503  21.9503  22.0286  22.0287  22.0410  22.1434  22.1671
    22.1672  22.2096  22.2097  22.2320  22.2326  22.2328  22.2585  22.3686
    22.3776  22.3777  22.4545  22.4877  22.4929  22.4930  22.5103  22.5103
    22.5958  22.6052  22.6053  22.6800  22.8456  22.8457  22.8740  23.1314
    23.1419  23.1420  23.1504  23.1505  23.1635  23.1687  23.1774  23.1775
    23.1889  23.1890  23.1908  23.1909  23.1913  23.2000  23.2107  23.2350
    23.2915  23.2915  23.3706  23.3706  23.4217  23.4290  23.4290  23.6944
    23.7836  23.7839  23.8068  23.8234  23.8234  23.8532  23.8787  23.8836
    23.8837  23.8938  23.8938  23.8987  23.9357  23.9357  23.9371  23.9688
    23.9845  23.9869  23.9869  24.1105  24.1105  24.1552  24.1553  24.2484
    24.2484  24.2764  24.2995  24.3337  24.3337  24.3429  24.3429  24.3506
    24.3529  24.3602  24.3603  24.3857  24.3967  24.3968  24.4213  24.4214
    24.4408  24.4408  24.4487  24.4684  24.4685  24.4686  24.4839  24.5270
    24.5271  24.5297  24.5339  24.5415  24.5578  24.5579  24.5692  24.5748
    24.5748  24.5799  24.5867  24.5868  24.5873  24.5939  24.5939  24.6339
    24.6339  24.7671  24.7671  25.3637  25.4101  25.4102  25.4575  25.7922
    25.7922  25.8334  25.8465  25.8465  25.9668  26.0302  26.0367  26.0367
    26.0726  26.0727  26.1592  26.1687  26.1687  26.1728  26.2510  26.2511
    26.2559  26.4734  26.5957  26.5957  26.6069  26.6478  26.6594  26.6595
    26.6816  26.7093  26.7093  26.7342  26.7342  26.7539  26.7539  26.7584
    26.7865  26.8046  26.8410  26.8410  26.8701  26.8843  26.8843  26.9209
    26.9209  27.0878  27.0879  27.0942  27.1184  27.1401  27.1401  27.1810
    27.1811  27.1915  27.1998  27.1999  27.2242  27.2299  27.2300  27.2503
    27.2584  27.2585  27.2714  27.2837  27.2910  27.2919  27.2919  27.3014
    27.3015  27.3090  27.3101  27.3102  27.3130  27.3131  27.3285  27.3287
    27.3287  27.3404  27.3463  27.3507  27.3507  27.3654  27.3750  27.3750
    27.4011  27.4123  27.4123  27.4248  27.4453  27.4460  27.4460  27.4489
    27.4489  27.4759  27.4897  27.4897  27.4900  27.5228  27.5228  27.5337
    27.5590  27.5599  27.5599  27.5601  27.5674  27.5674  27.5809  27.5810
    27.6120  27.6188  27.6220  27.6220  27.6397  27.6398  27.6424  27.6546
    27.6647  27.6648  27.7155  27.7233  27.7233  27.7613  27.7613  27.9185
    27.9185  27.9379  27.9397  28.0154  28.0541  28.0541  28.0825  28.0825
    28.1238  28.1238  28.1304  28.2012  28.2099  28.2100  28.2936  28.3537
    28.3538  28.3595  28.3678  28.4074  28.4075  28.4280  29.3251  29.7923
    29.8207  29.8208  29.9258  29.9261

     occupation numbers 
     1.0000   1.0000   1.0000   1.0000   1.0000   1.0000   1.0000   1.0000
     1.0000   1.0000   1.0000   1.0000   1.0000   1.0000   1.0000   1.0000
     1.0000   1.0000   1.0000   1.0000   1.0000   1.0000   1.0000   1.0000
     1.0000   1.0000   1.0000   1.0000   1.0000   1.0000   1.0000   1.0000
     1.0000   1.0000   1.0000   1.0000   1.0000   1.0000   1.0000   1.0000
     1.0000   1.0000   1.0000   1.0000   1.0000   1.0000   1.0000   1.0000
     1.0000   1.0000   1.0000   1.0000   1.0000   1.0000   1.0000   1.0000
     1.0000   1.0000   1.0000   1.0000   1.0000   1.0000   1.0000   1.0000
     1.0000   1.0000   1.0000   1.0000   1.0000   1.0000   1.0000   1.0000
     1.0000   1.0000   1.0000   1.0000   1.0000   1.0000   1.0000   1.0000
     1.0000   1.0000   1.0000   1.0000   1.0000   1.0000   1.0000   1.0000
     1.0000   1.0000   1.0000   1.0000   1.0000   1.0000   1.0000   1.0000
     1.0000   1.0000   1.0000   1.0000   1.0000   1.0000   1.0000   1.0000
     1.0000   1.0000   1.0000   1.0000   1.0000   1.0000   1.0000   1.0000
     1.0000   1.0000   1.0000   1.0000   1.0000   1.0000   1.0000   1.0000
     1.0000   1.0000   1.0000   1.0000   1.0000   1.0000   1.0000   1.0000
     1.0000   1.0000   1.0000   1.0000   1.0000   1.0000   1.0000   1.0000
     1.0000   1.0000   1.0000   1.0000   1.0000   1.0000   1.0000   1.0000
     1.0000   1.0000   1.0000   1.0000   1.0000   1.0000   1.0000   1.0000
     1.0000   1.0000   1.0000   1.0000   1.0000   1.0000   1.0000   1.0000
     1.0000   1.0000   1.0000   1.0000   1.0000   1.0000   1.0000   1.0000
     1.0000   1.0000   1.0000   1.0000   1.0000   1.0000   1.0000   1.0000
     1.0000   1.0000   1.0000   1.0000   1.0000   1.0000   1.0000   1.0000
     1.0000   1.0000   1.0000   1.0000   1.0000   1.0000   1.0000   1.0000
     1.0000   1.0000   1.0000   1.0000   1.0000   1.0000   1.0000   1.0000
     1.0000   1.0000   1.0000   1.0000   1.0000   1.0000   1.0000   1.0000
     1.0000   1.0000   1.0000   1.0000   1.0000   1.0000   1.0000   1.0000
     1.0000   1.0000   1.0000   1.0000   1.0000   1.0000   1.0000   1.0000
     1.0000   1.0000   1.0000   1.0000   1.0000   1.0000   1.0000   1.0000
     1.0000   1.0000   1.0000   1.0000   1.0000   1.0000   1.0000   1.0000
     1.0000   1.0000   1.0000   1.0000   1.0000   1.0000   1.0000   1.0000
     1.0000   1.0000   1.0000   1.0000   1.0000   1.0000   1.0000   1.0000
     1.0000   1.0000   1.0000   1.0000   1.0000   1.0000   1.0000   1.0000
     1.0000   1.0000   1.0000   1.0000   1.0000   1.0000   1.0000   1.0000
     1.0000   1.0000   1.0000   1.0000   1.0000   1.0000   1.0000   1.0000
     1.0000   1.0000   1.0000   1.0000   1.0000   1.0000   1.0000   1.0000
     1.0000   1.0000   1.0000   1.0000   1.0000   1.0000   1.0000   1.0000
     1.0000   1.0000   1.0000   1.0000   1.0000   1.0000   1.0000   1.0000
     1.0000   1.0000   1.0000   1.0000   1.0000   1.0000   1.0000   1.0000
     1.0000   1.0000   1.0000   1.0000   1.0000   1.0000   1.0000   1.0000
     1.0000   1.0000   1.0000   1.0000   1.0000   1.0000   1.0000   1.0000
     1.0000   1.0000   1.0000   1.0000   1.0000   1.0000   1.0000   1.0000
     1.0000   1.0000   1.0000   1.0000   1.0000   1.0000   1.0000   1.0000
     1.0000   1.0000   1.0000   1.0000   1.0000   1.0000   1.0000   1.0000
     1.0000   1.0000   1.0000   1.0000   1.0000   1.0000   1.0000   1.0000
     1.0000   1.0000   1.0000   1.0000   1.0000   1.0000   1.0000   1.0000
     1.0000   1.0000   1.0000   1.0000   1.0000   1.0000   1.0000   1.0000
     1.0000   1.0000   1.0000   1.0000   1.0000   1.0000   1.0000   1.0000
     1.0000   1.0000   1.0000   1.0000   1.0000   1.0000   1.0000   1.0000
     1.0000   1.0000   1.0000   1.0000   1.0000   1.0000   1.0000   1.0000
     1.0000   1.0000   1.0000   1.0000   1.0000   1.0000   1.0000   1.0000
     1.0000   1.0000   1.0000   1.0000   1.0000   1.0000   1.0000   1.0000
     1.0000   1.0000   1.0000   1.0000   1.0000   1.0000   1.0000   1.0000
     1.0000   1.0000   1.0000   1.0000   1.0000   1.0000   0.0000   0.0000
     0.0000   0.0000   0.0000   0.0000   0.0000   0.0000   0.0000   0.0000
     0.0000   0.0000   0.0000   0.0000   0.0000   0.0000   0.0000   0.0000
     0.0000   0.0000   0.0000   0.0000   0.0000   0.0000   0.0000   0.0000
     0.0000   0.0000   0.0000   0.0000   0.0000   0.0000   0.0000   0.0000
     0.0000   0.0000   0.0000   0.0000   0.0000   0.0000   0.0000   0.0000
     0.0000   0.0000   0.0000   0.0000   0.0000   0.0000   0.0000   0.0000
     0.0000   0.0000   0.0000   0.0000   0.0000   0.0000   0.0000   0.0000
     0.0000   0.0000   0.0000   0.0000   0.0000   0.0000   0.0000   0.0000
     0.0000   0.0000   0.0000   0.0000   0.0000   0.0000   0.0000   0.0000
     0.0000   0.0000   0.0000   0.0000   0.0000   0.0000   0.0000   0.0000
     0.0000   0.0000   0.0000   0.0000   0.0000   0.0000   0.0000   0.0000
     0.0000   0.0000   0.0000   0.0000   0.0000   0.0000   0.0000   0.0000
     0.0000   0.0000   0.0000   0.0000   0.0000   0.0000   0.0000   0.0000
     0.0000   0.0000   0.0000   0.0000   0.0000   0.0000   0.0000   0.0000
     0.0000   0.0000   0.0000   0.0000   0.0000   0.0000   0.0000   0.0000
     0.0000   0.0000   0.0000   0.0000   0.0000   0.0000   0.0000   0.0000
     0.0000   0.0000   0.0000   0.0000   0.0000   0.0000   0.0000   0.0000
     0.0000   0.0000   0.0000   0.0000   0.0000   0.0000   0.0000   0.0000
     0.0000   0.0000   0.0000   0.0000   0.0000   0.0000   0.0000   0.0000
     0.0000   0.0000   0.0000   0.0000   0.0000   0.0000   0.0000   0.0000
     0.0000   0.0000   0.0000   0.0000   0.0000   0.0000   0.0000   0.0000
     0.0000   0.0000   0.0000   0.0000   0.0000   0.0000   0.0000   0.0000
     0.0000   0.0000   0.0000   0.0000   0.0000   0.0000   0.0000   0.0000
     0.0000   0.0000   0.0000   0.0000   0.0000   0.0000   0.0000   0.0000
     0.0000   0.0000   0.0000   0.0000   0.0000   0.0000   0.0000   0.0000
     0.0000   0.0000   0.0000   0.0000   0.0000   0.0000   0.0000   0.0000
     0.0000   0.0000   0.0000   0.0000   0.0000   0.0000   0.0000   0.0000
     0.0000   0.0000   0.0000   0.0000   0.0000   0.0000   0.0000   0.0000
     0.0000   0.0000   0.0000   0.0000   0.0000   0.0000   0.0000   0.0000
     0.0000   0.0000   0.0000   0.0000   0.0000   0.0000   0.0000   0.0000
     0.0000   0.0000   0.0000   0.0000   0.0000   0.0000   0.0000   0.0000
     0.0000   0.0000   0.0000   0.0000   0.0000   0.0000   0.0000   0.0000
     0.0000   0.0000   0.0000   0.0000   0.0000   0.0000   0.0000   0.0000
     0.0000   0.0000   0.0000   0.0000   0.0000   0.0000   0.0000   0.0000
     0.0000   0.0000   0.0000   0.0000   0.0000   0.0000   0.0000   0.0000
     0.0000   0.0000   0.0000   0.0000   0.0000   0.0000   0.0000   0.0000
     0.0000   0.0000   0.0000   0.0000   0.0000   0.0000   0.0000   0.0000
     0.0000   0.0000   0.0000   0.0000   0.0000   0.0000   0.0000   0.0000
     0.0000   0.0000   0.0000   0.0000   0.0000   0.0000   0.0000   0.0000
     0.0000   0.0000   0.0000   0.0000   0.0000   0.0000   0.0000   0.0000
     0.0000   0.0000   0.0000   0.0000   0.0000   0.0000   0.0000   0.0000
     0.0000   0.0000   0.0000   0.0000   0.0000   0.0000   0.0000   0.0000
     0.0000   0.0000   0.0000   0.0000   0.0000   0.0000   0.0000   0.0000
     0.0000   0.0000   0.0000   0.0000   0.0000   0.0000   0.0000   0.0000
     0.0000   0.0000   0.0000   0.0000   0.0000   0.0000   0.0000   0.0000
     0.0000   0.0000   0.0000   0.0000   0.0000   0.0000   0.0000   0.0000
     0.0000   0.0000   0.0000   0.0000   0.0000   0.0000   0.0000   0.0000
     0.0000   0.0000   0.0000   0.0000   0.0000   0.0000   0.0000   0.0000
     0.0000   0.0000   0.0000   0.0000   0.0000   0.0000   0.0000   0.0000
     0.0000   0.0000   0.0000   0.0000   0.0000   0.0000   0.0000   0.0000
     0.0000   0.0000   0.0000   0.0000   0.0000   0.0000   0.0000   0.0000
     0.0000   0.0000   0.0000   0.0000   0.0000   0.0000   0.0000   0.0000
     0.0000   0.0000   0.0000   0.0000   0.0000   0.0000   0.0000   0.0000
     0.0000   0.0000   0.0000   0.0000

 ------ SPIN DOWN ----------


          k = 0.0000 0.0000 0.0000 ( 42379 PWs)   bands (ev):

    -8.2494  -7.4460  -7.2295  -7.2295  -7.2028  -7.2028  -7.1634  -6.5788
    -6.2498  -6.2497  -6.2100  -6.2100  -6.2001  -6.2001  -6.1978  -6.1974
    -6.1973  -6.1966  -6.0595  -5.4530  -5.2417  -5.2414  -5.2414  -5.2209
    -5.2209  -5.2204  -5.0995  -4.4815  -4.2402  -4.2402  -4.2259  -4.2259
    -4.1268  -3.8468  -3.3743  -3.3742  -3.3405  -3.3405  -3.3126  -3.3126
    -3.3029  -3.2994  -3.2994  -3.2940  -3.2940  -3.2904  -3.2851  -3.2845
    -3.2845  -3.2795  -3.2795  -3.2727  -3.2692  -3.2675  -3.2551  -3.2551
    -2.9760  -2.7949  -2.5818  -2.5818  -2.5365  -2.5274  -2.5274  -2.5209
    -2.5209  -2.5174  -2.5174  -2.5131  -2.5043  -2.4951  -2.4951  -2.4833
    -2.4833  -2.4800  -2.4778  -2.4777  -2.4742  -2.4558  -2.4526  -2.4526
    -1.8202  -1.0501  -0.8796  -0.8796  -0.8616  -0.8616  -0.8481  -0.8418
    -0.8418  -0.8293  -0.8133  -0.8133  -0.5247   0.3195   0.4151   0.4151
     0.4570   0.4570   0.5426   0.7191   0.8797   0.8797   0.9250   0.9250
     0.9385   0.9385   0.9459   0.9648   0.9649   0.9852   0.9852   0.9876
     0.9878   1.0025   1.0025   1.0045   1.0139   1.0144   1.0144   1.0202
     1.0253   1.0253   1.0381   1.1713   1.1739   1.1740   1.1793   1.1835
     1.1867   1.1868   1.2020   1.2020   1.2024   1.2057   1.2057   1.2205
     1.2205   1.2274   1.2293   1.2293   1.2321   1.2372   1.2373   1.3181
     1.4551   1.4552   1.9866   2.2069   2.2069   2.2132   2.2433   2.2617
     2.2760   2.2761   2.2797   2.2797   2.3473   2.3473   3.3007   3.7372
     3.7478   3.7478   3.7868   3.8166   3.8166   3.8274   3.8350   3.8379
     3.8380   3.8410   3.8504   3.8507   3.8507   3.8567   3.8567   3.9972
     3.9972   3.9991   4.0140   4.3889   4.3890   4.4010   4.4468   4.4468
     4.4488   4.4631   4.4840   4.4840   4.4888   4.4888   4.4988   4.5127
     4.5128   4.5139   4.5140   4.5160   4.5225   4.5225   4.5272   4.5515
     4.6753   4.6753   5.2468   5.2469   5.3156   5.3317   5.3694   5.3695
     5.3783   5.3886   5.3886   5.4001   5.4120   5.4120   5.4137   5.4187
     5.4187   5.4261   5.4262   5.4272   5.4344   5.4345   5.4455   5.5513
     5.5658   5.5659   5.6144   5.7979   5.7979   5.8216   5.8572   5.8572
     5.8759   5.8759   5.8881   5.8910   5.8910   5.8945   5.8975   5.9002
     5.9002   5.9060   5.9098   5.9098   5.9161   5.9161   5.9281   5.9347
     5.9399   5.9587   5.9587   6.0051   6.0051   6.2765   6.3188   6.3188
     6.8651   6.8652   6.9142   6.9282   6.9344   6.9345   7.0022   7.4061
     7.4061   7.4241   7.4781   7.4782   7.4877   7.4877   7.5018   7.5072
     7.5651   7.5651   7.7432   7.7433   7.8161   7.8485   7.8509   7.8514
     7.8515   7.8856   7.8856   7.9125   7.9181   7.9363   7.9364   8.0189
     8.0190   8.0488   8.0488   8.1150   8.1299   8.1708   8.1859   8.1859
     8.2051   8.2052   8.2104   8.2105   8.2146   8.2319   8.2364   8.2413
     8.2413   8.2497   8.2497   8.2719   8.2719   8.2742   8.2822   8.2823
     8.3107   8.3227   8.3463   8.3463   8.3547   8.3557   8.3631   8.3631
     8.3660   8.3843   8.3844   8.3862   8.3862   8.3918   8.3918   8.3924
     8.3927   8.4013   8.4014   8.4038   8.4039   8.4068   8.4077   8.4077
     8.4130   8.4159   8.4219   8.4219   8.4225   8.4693   8.4693   8.5003
     8.5003   8.5051   8.5061   8.5078   8.5078   8.5219   8.5236   8.5236
     8.5316   8.5317   8.5636   8.9690   8.9886   8.9887   9.1281   9.1282
     9.1619   9.1619   9.1781   9.2035   9.2057   9.2057   9.2170   9.2268
     9.2269   9.2371   9.2438   9.2466   9.2467   9.2499   9.2499   9.2605
     9.2629   9.2629   9.2942   9.9079  10.0118  10.0120  10.2987  10.5477
    10.5478  10.5583  10.5783  10.5784  10.5821  10.6262  10.6264  10.6478
    10.7009  10.7140  10.7140  10.7658  10.7659  10.8273  10.8274  10.8427
    10.8462  10.8463  10.8675  10.8677  10.8734  10.8822  10.8823  10.9078
    10.9137  10.9264  10.9264  10.9335  10.9335  11.5129  11.5875  11.5948
    11.5949  11.7665  11.7665  11.7726  11.8003  11.8003  11.8037  11.8106
    11.8108  11.8249  12.8203  13.0041  13.0044  13.5419  14.4158  14.4158
    17.3491  17.3491  17.3617  17.4094  17.4094  17.4361  17.8912  17.9590
    17.9590  17.9918  17.9919  18.0057  18.1253  18.1253  18.1315  18.2364
    18.2364  18.2498  18.7982  18.7986  18.8503  19.3998  19.5030  19.5182
    19.5183  19.5218  19.5219  19.5524  19.5982  19.5982  19.6229  19.6229
    19.6762  20.0477  20.1755  20.1756  20.2046  20.2060  20.2361  20.2361
    20.2668  20.2668  20.2809  20.2867  20.2867  20.2959  20.3001  20.3002
    20.3004  20.3237  20.3238  20.3764  20.3764  20.3788  20.4216  20.4217
    20.4433  20.6564  20.6564  20.6792  20.7304  20.7732  20.7732  20.7867
    20.7868  20.8098  20.8231  20.8231  20.8232  20.8316  20.8345  20.8392
    20.8392  20.8522  20.8522  20.8616  20.8671  20.8671  20.8727  20.8728
    20.8778  20.8826  20.8826  20.8915  20.8956  20.8956  20.9102  20.9212
    20.9320  20.9320  20.9411  20.9411  20.9520  21.0535  21.0548  21.0548
    21.1167  21.1167  21.1527  21.2463  21.2828  21.2828  21.3104  21.3617
    21.3617  21.3618  21.3696  21.3744  21.3745  21.3923  21.3939  21.3941
    21.4034  21.4051  21.4051  21.4134  21.4134  21.4174  21.4250  21.4285
    21.4285  21.4420  21.4422  21.4609  21.4609  21.4635  21.4690  21.4691
    21.4770  21.4771  21.4776  21.4961  21.4963  21.5018  21.5975  21.5976
    21.6235  21.6749  21.7150  21.7150  21.7269  21.7269  21.7414  21.7521
    21.7616  21.7616  21.7714  21.7854  21.7954  21.8039  21.8040  21.8195
    21.8195  21.9503  21.9503  22.0286  22.0287  22.0410  22.1434  22.1671
    22.1672  22.2096  22.2097  22.2320  22.2326  22.2328  22.2585  22.3686
    22.3776  22.3777  22.4545  22.4877  22.4929  22.4930  22.5103  22.5103
    22.5958  22.6052  22.6053  22.6800  22.8456  22.8457  22.8740  23.1314
    23.1419  23.1420  23.1504  23.1505  23.1635  23.1687  23.1774  23.1775
    23.1889  23.1890  23.1908  23.1909  23.1913  23.2000  23.2107  23.2350
    23.2915  23.2915  23.3706  23.3706  23.4217  23.4290  23.4290  23.6944
    23.7836  23.7839  23.8068  23.8234  23.8234  23.8532  23.8787  23.8836
    23.8837  23.8938  23.8938  23.8987  23.9357  23.9357  23.9371  23.9688
    23.9845  23.9869  23.9869  24.1105  24.1105  24.1552  24.1553  24.2484
    24.2484  24.2764  24.2995  24.3337  24.3337  24.3429  24.3429  24.3506
    24.3529  24.3602  24.3603  24.3857  24.3967  24.3968  24.4213  24.4214
    24.4408  24.4408  24.4487  24.4684  24.4685  24.4686  24.4839  24.5270
    24.5271  24.5297  24.5339  24.5415  24.5578  24.5579  24.5692  24.5748
    24.5748  24.5799  24.5867  24.5868  24.5873  24.5939  24.5939  24.6339
    24.6339  24.7671  24.7671  25.3637  25.4101  25.4102  25.4575  25.7922
    25.7922  25.8334  25.8465  25.8465  25.9668  26.0302  26.0367  26.0367
    26.0726  26.0727  26.1592  26.1687  26.1687  26.1728  26.2510  26.2511
    26.2559  26.4734  26.5957  26.5957  26.6069  26.6478  26.6594  26.6595
    26.6816  26.7093  26.7093  26.7342  26.7342  26.7539  26.7539  26.7584
    26.7865  26.8046  26.8410  26.8410  26.8701  26.8843  26.8843  26.9209
    26.9209  27.0878  27.0879  27.0942  27.1184  27.1401  27.1401  27.1810
    27.1811  27.1915  27.1998  27.1999  27.2242  27.2299  27.2300  27.2503
    27.2584  27.2585  27.2714  27.2837  27.2910  27.2919  27.2919  27.3014
    27.3015  27.3090  27.3101  27.3102  27.3130  27.3131  27.3285  27.3287
    27.3287  27.3404  27.3463  27.3507  27.3507  27.3654  27.3750  27.3750
    27.4011  27.4123  27.4123  27.4248  27.4453  27.4460  27.4460  27.4489
    27.4489  27.4759  27.4897  27.4897  27.4900  27.5228  27.5228  27.5337
    27.5590  27.5599  27.5599  27.5601  27.5674  27.5674  27.5809  27.5810
    27.6120  27.6188  27.6220  27.6220  27.6397  27.6398  27.6424  27.6546
    27.6647  27.6648  27.7155  27.7233  27.7233  27.7613  27.7613  27.9185
    27.9185  27.9379  27.9397  28.0154  28.0541  28.0541  28.0825  28.0825
    28.1238  28.1238  28.1304  28.2012  28.2099  28.2100  28.2936  28.3537
    28.3538  28.3595  28.3678  28.4074  28.4075  28.4280  29.3251  29.7924
    29.8207  29.8208  29.9259  29.9260

     occupation numbers 
     1.0000   1.0000   1.0000   1.0000   1.0000   1.0000   1.0000   1.0000
     1.0000   1.0000   1.0000   1.0000   1.0000   1.0000   1.0000   1.0000
     1.0000   1.0000   1.0000   1.0000   1.0000   1.0000   1.0000   1.0000
     1.0000   1.0000   1.0000   1.0000   1.0000   1.0000   1.0000   1.0000
     1.0000   1.0000   1.0000   1.0000   1.0000   1.0000   1.0000   1.0000
     1.0000   1.0000   1.0000   1.0000   1.0000   1.0000   1.0000   1.0000
     1.0000   1.0000   1.0000   1.0000   1.0000   1.0000   1.0000   1.0000
     1.0000   1.0000   1.0000   1.0000   1.0000   1.0000   1.0000   1.0000
     1.0000   1.0000   1.0000   1.0000   1.0000   1.0000   1.0000   1.0000
     1.0000   1.0000   1.0000   1.0000   1.0000   1.0000   1.0000   1.0000
     1.0000   1.0000   1.0000   1.0000   1.0000   1.0000   1.0000   1.0000
     1.0000   1.0000   1.0000   1.0000   1.0000   1.0000   1.0000   1.0000
     1.0000   1.0000   1.0000   1.0000   1.0000   1.0000   1.0000   1.0000
     1.0000   1.0000   1.0000   1.0000   1.0000   1.0000   1.0000   1.0000
     1.0000   1.0000   1.0000   1.0000   1.0000   1.0000   1.0000   1.0000
     1.0000   1.0000   1.0000   1.0000   1.0000   1.0000   1.0000   1.0000
     1.0000   1.0000   1.0000   1.0000   1.0000   1.0000   1.0000   1.0000
     1.0000   1.0000   1.0000   1.0000   1.0000   1.0000   1.0000   1.0000
     1.0000   1.0000   1.0000   1.0000   1.0000   1.0000   1.0000   1.0000
     1.0000   1.0000   1.0000   1.0000   1.0000   1.0000   1.0000   1.0000
     1.0000   1.0000   1.0000   1.0000   1.0000   1.0000   1.0000   1.0000
     1.0000   1.0000   1.0000   1.0000   1.0000   1.0000   1.0000   1.0000
     1.0000   1.0000   1.0000   1.0000   1.0000   1.0000   1.0000   1.0000
     1.0000   1.0000   1.0000   1.0000   1.0000   1.0000   1.0000   1.0000
     1.0000   1.0000   1.0000   1.0000   1.0000   1.0000   1.0000   1.0000
     1.0000   1.0000   1.0000   1.0000   1.0000   1.0000   1.0000   1.0000
     1.0000   1.0000   1.0000   1.0000   1.0000   1.0000   1.0000   1.0000
     1.0000   1.0000   1.0000   1.0000   1.0000   1.0000   1.0000   1.0000
     1.0000   1.0000   1.0000   1.0000   1.0000   1.0000   1.0000   1.0000
     1.0000   1.0000   1.0000   1.0000   1.0000   1.0000   1.0000   1.0000
     1.0000   1.0000   1.0000   1.0000   1.0000   1.0000   1.0000   1.0000
     1.0000   1.0000   1.0000   1.0000   1.0000   1.0000   1.0000   1.0000
     1.0000   1.0000   1.0000   1.0000   1.0000   1.0000   1.0000   1.0000
     1.0000   1.0000   1.0000   1.0000   1.0000   1.0000   1.0000   1.0000
     1.0000   1.0000   1.0000   1.0000   1.0000   1.0000   1.0000   1.0000
     1.0000   1.0000   1.0000   1.0000   1.0000   1.0000   1.0000   1.0000
     1.0000   1.0000   1.0000   1.0000   1.0000   1.0000   1.0000   1.0000
     1.0000   1.0000   1.0000   1.0000   1.0000   1.0000   1.0000   1.0000
     1.0000   1.0000   1.0000   1.0000   1.0000   1.0000   1.0000   1.0000
     1.0000   1.0000   1.0000   1.0000   1.0000   1.0000   1.0000   1.0000
     1.0000   1.0000   1.0000   1.0000   1.0000   1.0000   1.0000   1.0000
     1.0000   1.0000   1.0000   1.0000   1.0000   1.0000   1.0000   1.0000
     1.0000   1.0000   1.0000   1.0000   1.0000   1.0000   1.0000   1.0000
     1.0000   1.0000   1.0000   1.0000   1.0000   1.0000   1.0000   1.0000
     1.0000   1.0000   1.0000   1.0000   1.0000   1.0000   1.0000   1.0000
     1.0000   1.0000   1.0000   1.0000   1.0000   1.0000   1.0000   1.0000
     1.0000   1.0000   1.0000   1.0000   1.0000   1.0000   1.0000   1.0000
     1.0000   1.0000   1.0000   1.0000   1.0000   1.0000   1.0000   1.0000
     1.0000   1.0000   1.0000   1.0000   1.0000   1.0000   1.0000   1.0000
     1.0000   1.0000   1.0000   1.0000   1.0000   1.0000   1.0000   1.0000
     1.0000   1.0000   1.0000   1.0000   1.0000   1.0000   1.0000   1.0000
     1.0000   1.0000   1.0000   1.0000   1.0000   1.0000   1.0000   1.0000
     1.0000   1.0000   1.0000   1.0000   1.0000   1.0000   1.0000   1.0000
     1.0000   1.0000   1.0000   1.0000   1.0000   1.0000   0.0000   0.0000
     0.0000   0.0000   0.0000   0.0000   0.0000   0.0000   0.0000   0.0000
     0.0000   0.0000   0.0000   0.0000   0.0000   0.0000   0.0000   0.0000
     0.0000   0.0000   0.0000   0.0000   0.0000   0.0000   0.0000   0.0000
     0.0000   0.0000   0.0000   0.0000   0.0000   0.0000   0.0000   0.0000
     0.0000   0.0000   0.0000   0.0000   0.0000   0.0000   0.0000   0.0000
     0.0000   0.0000   0.0000   0.0000   0.0000   0.0000   0.0000   0.0000
     0.0000   0.0000   0.0000   0.0000   0.0000   0.0000   0.0000   0.0000
     0.0000   0.0000   0.0000   0.0000   0.0000   0.0000   0.0000   0.0000
     0.0000   0.0000   0.0000   0.0000   0.0000   0.0000   0.0000   0.0000
     0.0000   0.0000   0.0000   0.0000   0.0000   0.0000   0.0000   0.0000
     0.0000   0.0000   0.0000   0.0000   0.0000   0.0000   0.0000   0.0000
     0.0000   0.0000   0.0000   0.0000   0.0000   0.0000   0.0000   0.0000
     0.0000   0.0000   0.0000   0.0000   0.0000   0.0000   0.0000   0.0000
     0.0000   0.0000   0.0000   0.0000   0.0000   0.0000   0.0000   0.0000
     0.0000   0.0000   0.0000   0.0000   0.0000   0.0000   0.0000   0.0000
     0.0000   0.0000   0.0000   0.0000   0.0000   0.0000   0.0000   0.0000
     0.0000   0.0000   0.0000   0.0000   0.0000   0.0000   0.0000   0.0000
     0.0000   0.0000   0.0000   0.0000   0.0000   0.0000   0.0000   0.0000
     0.0000   0.0000   0.0000   0.0000   0.0000   0.0000   0.0000   0.0000
     0.0000   0.0000   0.0000   0.0000   0.0000   0.0000   0.0000   0.0000
     0.0000   0.0000   0.0000   0.0000   0.0000   0.0000   0.0000   0.0000
     0.0000   0.0000   0.0000   0.0000   0.0000   0.0000   0.0000   0.0000
     0.0000   0.0000   0.0000   0.0000   0.0000   0.0000   0.0000   0.0000
     0.0000   0.0000   0.0000   0.0000   0.0000   0.0000   0.0000   0.0000
     0.0000   0.0000   0.0000   0.0000   0.0000   0.0000   0.0000   0.0000
     0.0000   0.0000   0.0000   0.0000   0.0000   0.0000   0.0000   0.0000
     0.0000   0.0000   0.0000   0.0000   0.0000   0.0000   0.0000   0.0000
     0.0000   0.0000   0.0000   0.0000   0.0000   0.0000   0.0000   0.0000
     0.0000   0.0000   0.0000   0.0000   0.0000   0.0000   0.0000   0.0000
     0.0000   0.0000   0.0000   0.0000   0.0000   0.0000   0.0000   0.0000
     0.0000   0.0000   0.0000   0.0000   0.0000   0.0000   0.0000   0.0000
     0.0000   0.0000   0.0000   0.0000   0.0000   0.0000   0.0000   0.0000
     0.0000   0.0000   0.0000   0.0000   0.0000   0.0000   0.0000   0.0000
     0.0000   0.0000   0.0000   0.0000   0.0000   0.0000   0.0000   0.0000
     0.0000   0.0000   0.0000   0.0000   0.0000   0.0000   0.0000   0.0000
     0.0000   0.0000   0.0000   0.0000   0.0000   0.0000   0.0000   0.0000
     0.0000   0.0000   0.0000   0.0000   0.0000   0.0000   0.0000   0.0000
     0.0000   0.0000   0.0000   0.0000   0.0000   0.0000   0.0000   0.0000
     0.0000   0.0000   0.0000   0.0000   0.0000   0.0000   0.0000   0.0000
     0.0000   0.0000   0.0000   0.0000   0.0000   0.0000   0.0000   0.0000
     0.0000   0.0000   0.0000   0.0000   0.0000   0.0000   0.0000   0.0000
     0.0000   0.0000   0.0000   0.0000   0.0000   0.0000   0.0000   0.0000
     0.0000   0.0000   0.0000   0.0000   0.0000   0.0000   0.0000   0.0000
     0.0000   0.0000   0.0000   0.0000   0.0000   0.0000   0.0000   0.0000
     0.0000   0.0000   0.0000   0.0000   0.0000   0.0000   0.0000   0.0000
     0.0000   0.0000   0.0000   0.0000   0.0000   0.0000   0.0000   0.0000
     0.0000   0.0000   0.0000   0.0000   0.0000   0.0000   0.0000   0.0000
     0.0000   0.0000   0.0000   0.0000   0.0000   0.0000   0.0000   0.0000
     0.0000   0.0000   0.0000   0.0000   0.0000   0.0000   0.0000   0.0000
     0.0000   0.0000   0.0000   0.0000   0.0000   0.0000   0.0000   0.0000
     0.0000   0.0000   0.0000   0.0000   0.0000   0.0000   0.0000   0.0000
     0.0000   0.0000   0.0000   0.0000   0.0000   0.0000   0.0000   0.0000
     0.0000   0.0000   0.0000   0.0000   0.0000   0.0000   0.0000   0.0000
     0.0000   0.0000   0.0000   0.0000

     highest occupied, lowest unoccupied level (ev):    13.54190116   14.41566429

!    total energy              =   -3973.50361960 Ry
     total all-electron energy =    -16416.319222 Ry
     estimated scf accuracy    <          4.4E-09 Ry

     The total energy is the sum of the following terms:
     one-electron contribution =     881.32990462 Ry
     hartree contribution      =     218.02208706 Ry
     xc contribution           =   -1006.75019892 Ry
     ewald contribution        =   -2739.34835663 Ry
     one-center paw contrib.   =   -1326.75705573 Ry
      -> PAW hartree energy AE =      53.73097230 Ry
      -> PAW hartree energy PS =     -53.68213816 Ry
      -> PAW xc energy AE      =     -63.22729805 Ry
      -> PAW xc energy PS      =      26.20394433 Ry
      -> total E_H with PAW    =     218.07092121 Ry
      -> total E_XC with PAW   =   -1043.77355264 Ry

     total magnetization       =    -0.00 Bohr mag/cell
     absolute magnetization    =     0.00 Bohr mag/cell

     convergence has been achieved in  17 iterations

     Forces acting on atoms (cartesian axes, Ry/au):

     atom    1 type  1   force =     0.00004773   -0.00004135   -0.00003763
     atom    2 type  1   force =    -0.00018123   -0.00002989    0.00001746
     atom    3 type  1   force =    -0.00006194    0.00007332    0.00002756
     atom    4 type  1   force =    -0.00001506    0.00001042    0.00018364
     atom    5 type  1   force =    -0.00011515   -0.00008311    0.00013507
     atom    6 type  1   force =     0.00007255    0.00011805    0.00037672
     atom    7 type  1   force =    -0.00004564    0.00007727    0.00004365
     atom    8 type  1   force =    -0.00039141    0.00000538   -0.00008761
     atom    9 type  1   force =    -0.00008629    0.00014341    0.00005114
     atom   10 type  1   force =    -0.00000706   -0.00001259    0.00001015
     atom   11 type  1   force =    -0.00008543    0.00007619   -0.00006093
     atom   12 type  1   force =     0.00008109   -0.00007546   -0.00013352
     atom   13 type  1   force =     0.00003870    0.00010625    0.00006335
     atom   14 type  1   force =     0.00004706   -0.00014254   -0.00001239
     atom   15 type  1   force =    -0.00007901   -0.00001071   -0.00009945
     atom   16 type  1   force =     0.00014986   -0.00005884   -0.00006483
     atom   17 type  1   force =     0.00009461    0.00003197    0.00008006
     atom   18 type  1   force =     0.00010841    0.00031342   -0.00018442
     atom   19 type  1   force =    -0.00008946   -0.00003898    0.00009897
     atom   20 type  1   force =     0.00010393    0.00007628    0.00009419
     atom   21 type  1   force =     0.00007852   -0.00010292   -0.00011393
     atom   22 type  1   force =    -0.00010649    0.00002509   -0.00011621
     atom   23 type  1   force =    -0.00002622    0.00015872   -0.00001224
     atom   24 type  1   force =     0.00027152    0.00002531    0.00003738
     atom   25 type  1   force =     0.00013710   -0.00008870   -0.00005517
     atom   26 type  1   force =    -0.00003455   -0.00004904   -0.00026870
     atom   27 type  1   force =     0.00017209   -0.00012137   -0.00014261
     atom   28 type  1   force =     0.00008110    0.00005994    0.00014743
     atom   29 type  1   force =    -0.00013574    0.00022438    0.00010645
     atom   30 type  1   force =     0.00007512    0.00013725    0.00020230
     atom   31 type  1   force =     0.00010022    0.00008714    0.00013041
     atom   32 type  1   force =     0.00012140   -0.00001783   -0.00000433
     atom   33 type  1   force =     0.00012093    0.00032857   -0.00022805
     atom   34 type  1   force =    -0.00000971   -0.00001584   -0.00008935
     atom   35 type  1   force =    -0.00038546   -0.00001076   -0.00010468
     atom   36 type  1   force =    -0.00002398   -0.00001752   -0.00015960
     atom   37 type  1   force =    -0.00013905    0.00009177   -0.00001587
     atom   38 type  1   force =    -0.00000101    0.00006049   -0.00013506
     atom   39 type  1   force =     0.00025427    0.00004645    0.00007160
     atom   40 type  1   force =     0.00007755   -0.00000228   -0.00008231
     atom   41 type  1   force =    -0.00000747   -0.00002150    0.00014751
     atom   42 type  1   force =    -0.00009375    0.00005796    0.00002350
     atom   43 type  1   force =     0.00004292   -0.00015911   -0.00004114
     atom   44 type  1   force =    -0.00009075   -0.00017708    0.00002142
     atom   45 type  1   force =     0.00021386   -0.00028276   -0.00015685
     atom   46 type  1   force =    -0.00005792   -0.00011651   -0.00001407
     atom   47 type  1   force =     0.00014211   -0.00002793   -0.00005244
     atom   48 type  1   force =     0.00000779    0.00009205    0.00015272
     atom   49 type  1   force =    -0.00000516   -0.00000661    0.00001878
     atom   50 type  1   force =    -0.00007966    0.00007471   -0.00007395
     atom   51 type  1   force =     0.00001202    0.00012980    0.00014069
     atom   52 type  1   force =     0.00002286    0.00003983    0.00007047
     atom   53 type  1   force =    -0.00016640   -0.00006120   -0.00002674
     atom   54 type  1   force =    -0.00002967   -0.00000852   -0.00008831
     atom   55 type  1   force =    -0.00015491    0.00000267   -0.00008872
     atom   56 type  1   force =    -0.00014442    0.00002790   -0.00011408
     atom   57 type  1   force =     0.00009021    0.00000845    0.00001079
     atom   58 type  1   force =    -0.00016030    0.00021836    0.00008207
     atom   59 type  1   force =     0.00000985   -0.00004176   -0.00011495
     atom   60 type  1   force =     0.00009341    0.00010523    0.00037415
     atom   61 type  1   force =    -0.00022642    0.00006400   -0.00009941
     atom   62 type  1   force =     0.00014485    0.00033818   -0.00020441
     atom   63 type  1   force =     0.00015867    0.00002660    0.00002268
     atom   64 type  1   force =    -0.00001012    0.00012311    0.00011297
     atom   65 type  1   force =     0.00008264   -0.00000094   -0.00007730
     atom   66 type  1   force =     0.00007875   -0.00015040   -0.00000535
     atom   67 type  1   force =     0.00011693    0.00008910   -0.00001705
     atom   68 type  1   force =    -0.00013865   -0.00005274    0.00001619
     atom   69 type  1   force =     0.00001827   -0.00015094    0.00013051
     atom   70 type  1   force =    -0.00007340   -0.00003324   -0.00025591
     atom   71 type  1   force =    -0.00003864    0.00007064    0.00007837
     atom   72 type  1   force =     0.00022516   -0.00028001   -0.00014544
     atom   73 type  1   force =     0.00003953   -0.00009287    0.00008338
     atom   74 type  1   force =    -0.00001680   -0.00000949    0.00000717
     atom   75 type  1   force =    -0.00007712    0.00001554   -0.00002950
     atom   76 type  1   force =     0.00006157   -0.00004749   -0.00013296
     atom   77 type  1   force =     0.00005188    0.00010667    0.00005762
     atom   78 type  1   force =     0.00003574   -0.00001212    0.00017538
     atom   79 type  1   force =    -0.00016966    0.00004893   -0.00002477
     atom   80 type  1   force =    -0.00016698    0.00008632   -0.00003836
     atom   81 type  1   force =     0.00008689    0.00001980    0.00002823
     atom   82 type  1   force =     0.00011726   -0.00027098   -0.00005148
     atom   83 type  1   force =     0.00007041   -0.00004624    0.00016807
     atom   84 type  1   force =     0.00003964    0.00004836    0.00024766
     atom   85 type  1   force =    -0.00015033   -0.00009996   -0.00005273
     atom   86 type  1   force =    -0.00011971    0.00001845    0.00011502
     atom   87 type  1   force =     0.00011618    0.00024796    0.00010967
     atom   88 type  1   force =    -0.00025064   -0.00002211   -0.00004272
     atom   89 type  1   force =    -0.00016210    0.00018082   -0.00016843
     atom   90 type  1   force =     0.00005929    0.00017087   -0.00010073
     atom   91 type  1   force =     0.00005143    0.00000241   -0.00005196
     atom   92 type  1   force =     0.00007490    0.00020810   -0.00002872
     atom   93 type  1   force =    -0.00006407    0.00001234    0.00018877
     atom   94 type  1   force =    -0.00001911    0.00018517   -0.00012254
     atom   95 type  1   force =     0.00009186   -0.00009181    0.00009976
     atom   96 type  1   force =    -0.00018833   -0.00001775    0.00006496
     atom   97 type  1   force =    -0.00007271   -0.00013151   -0.00006471
     atom   98 type  1   force =     0.00019585    0.00002257   -0.00020127
     atom   99 type  1   force =     0.00008604    0.00023661   -0.00014338
     atom  100 type  1   force =    -0.00005503    0.00005132   -0.00004678
     atom  101 type  1   force =    -0.00029825   -0.00008574   -0.00001445
     atom  102 type  1   force =     0.00003175    0.00007224    0.00004002
     atom  103 type  1   force =     0.00011572    0.00012418   -0.00014585
     atom  104 type  1   force =     0.00001032   -0.00017665   -0.00007016
     atom  105 type  1   force =     0.00002573   -0.00000713    0.00030956
     atom  106 type  1   force =     0.00011024   -0.00015256    0.00002963
     atom  107 type  1   force =     0.00013218   -0.00019848   -0.00008395
     atom  108 type  1   force =     0.00006647   -0.00017989   -0.00002284
     atom  109 type  1   force =    -0.00009712    0.00008439    0.00016763
     atom  110 type  1   force =     0.00008374    0.00011412    0.00025712
     atom  111 type  1   force =    -0.00018548    0.00006278    0.00007906
     atom  112 type  1   force =    -0.00009713   -0.00012028    0.00012602
     atom  113 type  1   force =     0.00010084    0.00018034    0.00014049
     atom  114 type  1   force =    -0.00027433    0.00002716   -0.00010088
     atom  115 type  1   force =    -0.00017536    0.00011218   -0.00013570
     atom  116 type  1   force =     0.00002717    0.00005361   -0.00004009
     atom  117 type  1   force =     0.00002486    0.00008687   -0.00004597
     atom  118 type  1   force =     0.00006506    0.00014076   -0.00012848
     atom  119 type  1   force =     0.00016820   -0.00003947    0.00013622
     atom  120 type  1   force =     0.00009352    0.00014769   -0.00010006
     atom  121 type  1   force =     0.00001231   -0.00015567    0.00010704
     atom  122 type  1   force =    -0.00011825   -0.00010891   -0.00015008
     atom  123 type  1   force =    -0.00006699   -0.00017463    0.00002809
     atom  124 type  1   force =     0.00018099   -0.00003977   -0.00017149
     atom  125 type  1   force =     0.00003278    0.00008343   -0.00005299
     atom  126 type  1   force =     0.00005171    0.00007018   -0.00004418
     atom  127 type  1   force =    -0.00017126   -0.00007482    0.00000407
     atom  128 type  1   force =     0.00002783    0.00006437   -0.00006802
     atom  129 type  1   force =     0.00004591    0.00016250   -0.00008534
     atom  130 type  1   force =     0.00018308   -0.00010757    0.00004629
     atom  131 type  1   force =     0.00000871   -0.00003125    0.00018408
     atom  132 type  1   force =    -0.00001445   -0.00015547   -0.00015130
     atom  133 type  1   force =     0.00018835   -0.00018322   -0.00014399
     atom  134 type  1   force =    -0.00001582    0.00019990    0.00001807
     atom  135 type  1   force =     0.00000901    0.00012289    0.00005928
     atom  136 type  1   force =    -0.00001726    0.00006837    0.00035890
     atom  137 type  1   force =     0.00001077    0.00010459   -0.00008382
     atom  138 type  1   force =    -0.00022412    0.00001890   -0.00009293
     atom  139 type  1   force =     0.00003327    0.00012613   -0.00008232
     atom  140 type  1   force =    -0.00019457   -0.00003924   -0.00002035
     atom  141 type  1   force =    -0.00017497   -0.00004136    0.00000257
     atom  142 type  1   force =     0.00010922   -0.00008003   -0.00015128
     atom  143 type  1   force =    -0.00001403    0.00015147   -0.00012407
     atom  144 type  1   force =    -0.00011195   -0.00012965    0.00005504
     atom  145 type  1   force =    -0.00002536   -0.00012393    0.00007247
     atom  146 type  1   force =     0.00004732    0.00003434   -0.00020427
     atom  147 type  1   force =     0.00005918   -0.00001172   -0.00012895
     atom  148 type  1   force =     0.00011739   -0.00029664   -0.00015826
     atom  149 type  1   force =     0.00006131    0.00001907    0.00023355
     atom  150 type  1   force =     0.00014377   -0.00014306    0.00009485
     atom  151 type  1   force =     0.00018429   -0.00034970   -0.00011306
     atom  152 type  1   force =     0.00014053   -0.00019597   -0.00006490
     atom  153 type  1   force =     0.00012734   -0.00011004    0.00014488
     atom  154 type  1   force =     0.00004753    0.00002608    0.00039728
     atom  155 type  1   force =    -0.00018962   -0.00004627   -0.00003377
     atom  156 type  1   force =    -0.00016558   -0.00007222   -0.00003063
     atom  157 type  1   force =     0.00003445    0.00012813    0.00013235
     atom  158 type  1   force =    -0.00005518   -0.00000347   -0.00001797
     atom  159 type  1   force =    -0.00013964    0.00002268   -0.00006239
     atom  160 type  1   force =     0.00004789    0.00016665   -0.00011770
     atom  161 type  1   force =    -0.00006526    0.00018794   -0.00003118
     atom  162 type  1   force =     0.00005704    0.00011584   -0.00003752
     atom  163 type  1   force =     0.00002340    0.00001363    0.00019763
     atom  164 type  1   force =    -0.00008615    0.00009929   -0.00003616
     atom  165 type  1   force =     0.00008000    0.00009526    0.00021590
     atom  166 type  1   force =     0.00000224    0.00000155    0.00017973
     atom  167 type  1   force =    -0.00036460   -0.00001612    0.00000998
     atom  168 type  1   force =     0.00005123    0.00013090   -0.00006459
     atom  169 type  1   force =     0.00016886   -0.00006551   -0.00009141
     atom  170 type  1   force =     0.00008443    0.00017537   -0.00002568
     atom  171 type  1   force =     0.00019174    0.00006932   -0.00005993
     atom  172 type  1   force =    -0.00022964   -0.00005151   -0.00005736
     atom  173 type  1   force =    -0.00002613   -0.00010874    0.00014096
     atom  174 type  1   force =     0.00012968    0.00000532   -0.00005857
     atom  175 type  1   force =    -0.00005440   -0.00019115   -0.00010315
     atom  176 type  1   force =    -0.00004192   -0.00012795    0.00005578
     atom  177 type  1   force =     0.00022665   -0.00026994   -0.00004910
     atom  178 type  1   force =     0.00019746   -0.00034654   -0.00009986
     atom  179 type  1   force =     0.00011322   -0.00020253   -0.00009213
     atom  180 type  1   force =     0.00003811    0.00000918    0.00019403
     atom  181 type  1   force =     0.00001667    0.00001403    0.00005383
     atom  182 type  1   force =    -0.00011113   -0.00016797   -0.00009366
     atom  183 type  1   force =     0.00004198   -0.00002181    0.00017700
     atom  184 type  1   force =     0.00005130    0.00006907    0.00012848
     atom  185 type  1   force =    -0.00039077   -0.00008032   -0.00004111
     atom  186 type  1   force =    -0.00015776    0.00008150   -0.00005993
     atom  187 type  1   force =     0.00007639    0.00017348   -0.00008921
     atom  188 type  1   force =    -0.00005224   -0.00010871    0.00007865
     atom  189 type  1   force =     0.00013023    0.00000115    0.00034636
     atom  190 type  1   force =     0.00006591    0.00001833    0.00039513
     atom  191 type  1   force =    -0.00033279   -0.00011070   -0.00011675
     atom  192 type  1   force =     0.00005994    0.00009761   -0.00008378
     atom  193 type  1   force =     0.00011084    0.00009582    0.00012675
     atom  194 type  1   force =    -0.00038638   -0.00009128   -0.00005702
     atom  195 type  1   force =    -0.00014267    0.00003447   -0.00012673
     atom  196 type  1   force =     0.00008281    0.00014983   -0.00011917
     atom  197 type  1   force =    -0.00000150   -0.00018252    0.00004569
     atom  198 type  1   force =     0.00011359    0.00007673    0.00004106
     atom  199 type  1   force =    -0.00012199    0.00000534    0.00016284
     atom  200 type  1   force =    -0.00005464    0.00003578   -0.00012678
     atom  201 type  1   force =     0.00016097   -0.00011708   -0.00013386
     atom  202 type  1   force =     0.00007103   -0.00017103   -0.00006013
     atom  203 type  1   force =    -0.00016298   -0.00000455    0.00012194
     atom  204 type  1   force =     0.00010085   -0.00016385   -0.00003046
     atom  205 type  1   force =     0.00011133   -0.00009001   -0.00008951
     atom  206 type  1   force =     0.00010955    0.00009304   -0.00013212
     atom  207 type  1   force =     0.00016889    0.00011212    0.00000481
     atom  208 type  1   force =    -0.00023826   -0.00002715   -0.00002417
     atom  209 type  1   force =    -0.00002630    0.00006467   -0.00019041
     atom  210 type  1   force =     0.00006537    0.00007751   -0.00008423
     atom  211 type  1   force =     0.00008830   -0.00017243   -0.00005987
     atom  212 type  1   force =     0.00002303    0.00003626    0.00023707
     atom  213 type  1   force =     0.00010119   -0.00016922   -0.00004706
     atom  214 type  1   force =     0.00003485   -0.00005014   -0.00002274
     atom  215 type  2   force =    -0.00009806   -0.00024739    0.00015965
     The non-local contrib.  to forces
     atom    1 type  1   force =     0.00011901    0.00084998   -0.00032692
     atom    2 type  1   force =    -0.00804238    0.00120234    0.00006855
     atom    3 type  1   force =    -0.00233844    0.00202606    0.00311902
     atom    4 type  1   force =    -0.00057947    0.00301408    0.00753150
     atom    5 type  1   force =    -0.00805307    0.01355375    0.00476578
     atom    6 type  1   force =    -0.00879530   -0.00208093    0.00367864
     atom    7 type  1   force =    -0.00357490    0.00172474    0.00188274
     atom    8 type  1   force =    -0.00333125   -0.00075799    0.00913857
     atom    9 type  1   force =    -0.00249923   -0.01089778    0.00514204
     atom   10 type  1   force =     0.00540603   -0.00124237   -0.00510525
     atom   11 type  1   force =    -0.00143756   -0.00124804   -0.00482788
     atom   12 type  1   force =     0.00194336   -0.00306143    0.00119421
     atom   13 type  1   force =     0.00494473    0.00030189    0.00155305
     atom   14 type  1   force =    -0.09644252    0.18787782    0.05085589
     atom   15 type  1   force =     0.01347605   -0.00767117   -0.03596597
     atom   16 type  1   force =    -0.00038354   -0.00362654   -0.00113153
     atom   17 type  1   force =     0.03713074   -0.00193356   -0.01230617
     atom   18 type  1   force =    -0.00894644    0.01512676    0.00527248
     atom   19 type  1   force =     0.00206677   -0.00109465   -0.00180260
     atom   20 type  1   force =    -0.00244676    0.00124487   -0.00723223
     atom   21 type  1   force =     0.00037008   -0.00319017   -0.00347887
     atom   22 type  1   force =     0.00666285    0.00345749    0.00187659
     atom   23 type  1   force =     0.00002982    0.00903870   -0.00222156
     atom   24 type  1   force =     0.01963376    0.00760453    0.00816317
     atom   25 type  1   force =     0.00414071   -0.00227468    0.00029255
     atom   26 type  1   force =    -0.00915993    0.00061609   -0.02062994
     atom   27 type  1   force =     0.00480413    0.00459901   -0.00592150
     atom   28 type  1   force =     0.00331243   -0.00000455    0.00339340
     atom   29 type  1   force =    -0.01507002    0.01678144    0.00145457
     atom   30 type  1   force =     0.00352791    0.00811458   -0.00112023
     atom   31 type  1   force =    -0.00161275   -0.00026064    0.00346258
     atom   32 type  1   force =     0.02923689    0.01968246    0.01718262
     atom   33 type  1   force =    -0.00269907   -0.00190976   -0.01804478
     atom   34 type  1   force =    -0.00220997   -0.00200256   -0.00321257
     atom   35 type  1   force =    -0.00017189   -0.00937773   -0.00263724
     atom   36 type  1   force =    -0.00321951   -0.00891472    0.00785413
     atom   37 type  1   force =     0.00752709    0.00107767   -0.00136530
     atom   38 type  1   force =     0.00148099    0.00505824   -0.00765536
     atom   39 type  1   force =     0.02245335   -0.00009103   -0.00233369
     atom   40 type  1   force =     0.00508821   -0.00009660    0.00101169
     atom   41 type  1   force =    -0.02505473   -0.00718555   -0.21562502
     atom   42 type  1   force =    -0.00160689    0.03352127    0.02029704
     atom   43 type  1   force =     0.00270875   -0.00598411   -0.00475154
     atom   44 type  1   force =    -0.00245015   -0.00177284   -0.01616664
     atom   45 type  1   force =    -0.00730214   -0.00616729   -0.00190712
     atom   46 type  1   force =     0.00101492    0.00179557    0.00213433
     atom   47 type  1   force =    -0.00434022    0.00641575   -0.00017007
     atom   48 type  1   force =    -0.00160312    0.00220544    0.00389274
     atom   49 type  1   force =     0.00291660    0.00556855    0.00419859
     atom   50 type  1   force =    -0.00323340    0.00364634    0.00185112
     atom   51 type  1   force =     0.00141151   -0.00161287    0.00316839
     atom   52 type  1   force =     0.00020679    0.00061884   -0.00064484
     atom   53 type  1   force =    -0.00701369   -0.00160949   -0.00377421
     atom   54 type  1   force =    -0.00060107   -0.00272363   -0.00337430
     atom   55 type  1   force =    -0.00320028   -0.00158592   -0.00311886
     atom   56 type  1   force =    -0.00334771   -0.00068070    0.00172763
     atom   57 type  1   force =     0.00352843   -0.00060895    0.00252532
     atom   58 type  1   force =    -0.00579733    0.01903019    0.01072588
     atom   59 type  1   force =    -0.02049772    0.00762054   -0.03254795
     atom   60 type  1   force =     0.00476811   -0.00817774    0.00230354
     atom   61 type  1   force =    -0.00072131    0.00708013   -0.00537030
     atom   62 type  1   force =     0.01790096    0.00309058    0.00255135
     atom   63 type  1   force =    -0.00562287   -0.00949875    0.00545238
     atom   64 type  1   force =     0.00128763   -0.00043769   -0.00760358
     atom   65 type  1   force =    -0.00081387   -0.00153030   -0.00489014
     atom   66 type  1   force =     0.00610296   -0.00516007   -0.00135844
     atom   67 type  1   force =     0.00628802    0.00622523   -0.00284884
     atom   68 type  1   force =     0.21043720    0.04995521    0.01986562
     atom   69 type  1   force =     0.01605445    0.00271951    0.00233533
     atom   70 type  1   force =     0.00293077   -0.00482907   -0.02185382
     atom   71 type  1   force =    -0.02766568    0.02719711   -0.00576055
     atom   72 type  1   force =     0.00309537   -0.00364365    0.00849075
     atom   73 type  1   force =    -0.00246782    0.00094888   -0.00134820
     atom   74 type  1   force =    -0.00530724    0.00357187   -0.00402534
     atom   75 type  1   force =     0.00048462    0.00068686   -0.00036726
     atom   76 type  1   force =    -0.00146960    0.00711250    0.00270001
     atom   77 type  1   force =    -0.00274935    0.00376498    0.00233644
     atom   78 type  1   force =     0.00384458    0.00102788    0.00708504
     atom   79 type  1   force =    -0.00434596    0.00153801    0.00114902
     atom   80 type  1   force =    -0.00265628   -0.00260110   -0.00090079
     atom   81 type  1   force =     0.00390057   -0.00163071    0.00112806
     atom   82 type  1   force =    -0.00374174    0.00538225    0.00243645
     atom   83 type  1   force =    -0.01209396    0.01571280    0.00593732
     atom   84 type  1   force =     0.00112328    0.00143614    0.00481991
     atom   85 type  1   force =    -0.00981448    0.01626359    0.00821475
     atom   86 type  1   force =    -0.00698278   -0.00081795    0.00718162
     atom   87 type  1   force =    -0.00236038   -0.00767552    0.01090823
     atom   88 type  1   force =    -0.00498792   -0.00004918   -0.00129205
     atom   89 type  1   force =    -0.00885410   -0.00925188    0.00441243
     atom   90 type  1   force =    -0.00052858   -0.00134228    0.00085180
     atom   91 type  1   force =     0.00417416    0.00301554   -0.00490466
     atom   92 type  1   force =     0.00467160    0.00968179    0.00332010
     atom   93 type  1   force =     0.02048108    0.00106753    0.00265083
     atom   94 type  1   force =    -0.00537193    0.00724324   -0.00672382
     atom   95 type  1   force =     0.00510156   -0.00625687    0.00596085
     atom   96 type  1   force =    -0.00224096   -0.00444788   -0.02006893
     atom   97 type  1   force =    -0.00416988   -0.00850725   -0.00331080
     atom   98 type  1   force =    -0.00039559   -0.01304797    0.00355921
     atom   99 type  1   force =     0.00118343    0.00308964   -0.00193227
     atom  100 type  1   force =    -0.00131593    0.00548205   -0.00435090
     atom  101 type  1   force =     0.00681018    0.00063988    0.00136586
     atom  102 type  1   force =     0.00289798    0.00650477   -0.00013704
     atom  103 type  1   force =     0.00771149    0.00136992   -0.00804392
     atom  104 type  1   force =     0.01978656    0.00295873    0.00522496
     atom  105 type  1   force =    -0.00128326   -0.00132598   -0.00672646
     atom  106 type  1   force =    -0.00520720   -0.00310837   -0.01976890
     atom  107 type  1   force =     0.00297477   -0.00363173   -0.00209594
     atom  108 type  1   force =    -0.00260023   -0.00120672    0.00289352
     atom  109 type  1   force =     0.00219834    0.00277124    0.00198263
     atom  110 type  1   force =     0.00345483    0.00353529    0.01845342
     atom  111 type  1   force =    -0.00251540    0.00162819   -0.00273033
     atom  112 type  1   force =    -0.00693466    0.00183202    0.00648832
     atom  113 type  1   force =     0.00524752   -0.00080329    0.05558395
     atom  114 type  1   force =    -0.01865858   -0.00183211   -0.00366212
     atom  115 type  1   force =    -0.05365800   -0.01509873   -0.00331929
     atom  116 type  1   force =    -0.00155696   -0.00404955    0.00253694
     atom  117 type  1   force =    -0.00079891   -0.00254621    0.00141658
     atom  118 type  1   force =     0.00235158    0.00709872   -0.00837584
     atom  119 type  1   force =     0.00095489    0.00331764    0.00210089
     atom  120 type  1   force =     0.00653109    0.00811213   -0.00419532
     atom  121 type  1   force =     0.00694480   -0.00440353    0.00507272
     atom  122 type  1   force =    -0.00279578    0.00240544   -0.00164943
     atom  123 type  1   force =    -0.00369258   -0.00698490   -0.00556075
     atom  124 type  1   force =     0.02310946   -0.04958904   -0.01107962
     atom  125 type  1   force =    -0.00128971   -0.00333028    0.00209732
     atom  126 type  1   force =    -0.00113699   -0.00240391    0.00145295
     atom  127 type  1   force =     0.00127666   -0.00295612    0.00250270
     atom  128 type  1   force =    -0.00087657   -0.00233927    0.00171381
     atom  129 type  1   force =     0.00107511    0.01055174   -0.00363409
     atom  130 type  1   force =     0.00236911   -0.00058215   -0.00322086
     atom  131 type  1   force =    -0.00169816   -0.00367918   -0.00047248
     atom  132 type  1   force =     0.00333418   -0.00035035   -0.00225553
     atom  133 type  1   force =     0.01015938   -0.01479644   -0.00657139
     atom  134 type  1   force =     0.00527520    0.00469306   -0.00164204
     atom  135 type  1   force =     0.01485475    0.00904778   -0.00876595
     atom  136 type  1   force =     0.01522217    0.01102693    0.05205584
     atom  137 type  1   force =    -0.00127376    0.00729920   -0.00568922
     atom  138 type  1   force =     0.03740801   -0.00605232    0.01446764
     atom  139 type  1   force =     0.00158626   -0.01379894    0.01051998
     atom  140 type  1   force =    -0.01190056   -0.00157818   -0.00154264
     atom  141 type  1   force =    -0.00460648   -0.00829021   -0.00596399
     atom  142 type  1   force =    -0.00295011   -0.00427033    0.00132672
     atom  143 type  1   force =    -0.00000983   -0.00182411    0.00133386
     atom  144 type  1   force =     0.00304391   -0.02311962    0.01774839
     atom  145 type  1   force =     0.00297031    0.00115747   -0.00006060
     atom  146 type  1   force =     0.00541015    0.00433822   -0.00211035
     atom  147 type  1   force =     0.01281451    0.01464221   -0.00109952
     atom  148 type  1   force =     0.03389957   -0.04000296   -0.01766441
     atom  149 type  1   force =     0.00038729   -0.00484818    0.00064138
     atom  150 type  1   force =    -0.00276335   -0.00413096   -0.00451260
     atom  151 type  1   force =     0.00812586   -0.01676264   -0.00684477
     atom  152 type  1   force =    -0.00061676   -0.00209930    0.00438365
     atom  153 type  1   force =    -0.00503624    0.00205551    0.00393598
     atom  154 type  1   force =     0.00102692    0.00262828    0.01963556
     atom  155 type  1   force =    -0.01173272   -0.00202552   -0.00215526
     atom  156 type  1   force =    -0.00820882    0.00153266    0.00746625
     atom  157 type  1   force =    -0.00328329   -0.00336295    0.00257002
     atom  158 type  1   force =    -0.00758270   -0.00347795    0.00051129
     atom  159 type  1   force =    -0.00814221   -0.00450063    0.00110890
     atom  160 type  1   force =     0.00185178   -0.00334128    0.00293335
     atom  161 type  1   force =     0.00064139    0.00356819   -0.00627671
     atom  162 type  1   force =     0.00377034    0.00852508   -0.00064523
     atom  163 type  1   force =     0.00152928    0.00168211    0.01188804
     atom  164 type  1   force =     0.00680769    0.00709328   -0.01681101
     atom  165 type  1   force =    -0.01156298   -0.01793415   -0.03452709
     atom  166 type  1   force =     0.00761657   -0.00532374    0.00625889
     atom  167 type  1   force =    -0.05273243   -0.00546435   -0.01589683
     atom  168 type  1   force =    -0.00692442   -0.01586295    0.00201109
     atom  169 type  1   force =    -0.00036766   -0.00364462    0.00390825
     atom  170 type  1   force =    -0.00086537   -0.00203267    0.00047825
     atom  171 type  1   force =     0.00118283    0.00331338   -0.00633849
     atom  172 type  1   force =     0.00052933   -0.00481231    0.00078334
     atom  173 type  1   force =    -0.01170330   -0.02669869    0.00300262
     atom  174 type  1   force =    -0.00201487    0.01104514   -0.01593093
     atom  175 type  1   force =     0.00527880   -0.00217808    0.00352855
     atom  176 type  1   force =    -0.00012912    0.00040309   -0.00315866
     atom  177 type  1   force =     0.02755556   -0.04154249   -0.02400695
     atom  178 type  1   force =     0.01083050   -0.01610672   -0.00414046
     atom  179 type  1   force =    -0.00377965   -0.00286816    0.00121999
     atom  180 type  1   force =     0.00223586    0.00136367    0.01181404
     atom  181 type  1   force =     0.00010485   -0.00161100    0.00819998
     atom  182 type  1   force =    -0.00445096    0.00219767    0.00452130
     atom  183 type  1   force =    -0.00784977    0.00162108    0.00782607
     atom  184 type  1   force =    -0.00024947   -0.00258231    0.00900253
     atom  185 type  1   force =    -0.01966179   -0.00239434   -0.00105528
     atom  186 type  1   force =    -0.00179926   -0.00300426    0.00405395
     atom  187 type  1   force =    -0.00201051   -0.00427817   -0.00092966
     atom  188 type  1   force =    -0.00108689    0.00299678    0.00036087
     atom  189 type  1   force =     0.00695589    0.01474365    0.05289695
     atom  190 type  1   force =     0.00455640    0.00104530    0.01927784
     atom  191 type  1   force =    -0.05466227   -0.00020904   -0.00871938
     atom  192 type  1   force =    -0.00950837   -0.00882858    0.01164655
     atom  193 type  1   force =     0.00008267   -0.00487130    0.00222927
     atom  194 type  1   force =    -0.01883998   -0.00463434   -0.00412083
     atom  195 type  1   force =    -0.00101585   -0.00513840    0.00113147
     atom  196 type  1   force =    -0.00318558   -0.00107647    0.00344518
     atom  197 type  1   force =    -0.01618193   -0.01447282    0.01969505
     atom  198 type  1   force =    -0.00443804    0.01770457   -0.00683082
     atom  199 type  1   force =     0.00545883   -0.00265922    0.00286776
     atom  200 type  1   force =     0.00233549    0.01934468   -0.00005368
     atom  201 type  1   force =    -0.02642207    0.02267479    0.02091805
     atom  202 type  1   force =     0.00773294   -0.00562711    0.00584328
     atom  203 type  1   force =    -0.00200255   -0.00447144   -0.00459310
     atom  204 type  1   force =    -0.00413016   -0.00850464   -0.00601845
     atom  205 type  1   force =     0.00214606   -0.00912411    0.00006555
     atom  206 type  1   force =    -0.00112901   -0.00132602    0.00145205
     atom  207 type  1   force =    -0.00023360    0.00715447   -0.00108191
     atom  208 type  1   force =    -0.00042750   -0.00218903    0.00436357
     atom  209 type  1   force =    -0.00064086    0.00705443   -0.00148889
     atom  210 type  1   force =     0.00529471    0.00433243   -0.00634632
     atom  211 type  1   force =     0.00576297   -0.00989501   -0.00392387
     atom  212 type  1   force =    -0.00373442   -0.00299412    0.00105617
     atom  213 type  1   force =     0.00630790   -0.00976431   -0.00337858
     atom  214 type  1   force =     0.00243371   -0.00799150   -0.00049719
     atom  215 type  2   force =    -0.40869495   -1.05874811    0.66559519
     The ionic contribution  to forces
     atom    1 type  1   force =    -0.03218121   -0.00265263    0.03282496
     atom    2 type  1   force =    -0.12762242    0.06773388    0.01171756
     atom    3 type  1   force =    -0.03215212   -0.03689334    0.07608630
     atom    4 type  1   force =    -0.03099692    0.09117904    0.10834305
     atom    5 type  1   force =    -0.23559316    0.22542772    0.18089525
     atom    6 type  1   force =     0.02308292    0.01769515    0.29079103
     atom    7 type  1   force =    -0.06613399   -0.04513874    0.04210423
     atom    8 type  1   force =    -0.28598649   -0.05729759   -0.01827860
     atom    9 type  1   force =    -0.14947217   -0.16724599    0.19005296
     atom   10 type  1   force =     0.05159222   -0.04768516   -0.04002178
     atom   11 type  1   force =    -0.05238023   -0.02232153   -0.13749445
     atom   12 type  1   force =     0.04480219   -0.04855348    0.01395995
     atom   13 type  1   force =     0.13732604    0.02370891    0.05221183
     atom   14 type  1   force =     0.80078852    0.47438533   -0.91589369
     atom   15 type  1   force =     0.60789964    0.16645161    0.86655838
     atom   16 type  1   force =    -0.00083548   -0.05962696   -0.03167767
     atom   17 type  1   force =    -0.86362866   -0.19060068   -0.60496982
     atom   18 type  1   force =     0.37474012   -1.03043412   -0.12471450
     atom   19 type  1   force =     0.04163829   -0.02730900   -0.03501197
     atom   20 type  1   force =    -0.05586225   -0.02345186   -0.11886163
     atom   21 type  1   force =     0.07041139   -0.03452325   -0.03537294
     atom   22 type  1   force =     0.11939290    0.01907218    0.05639364
     atom   23 type  1   force =    -0.07400597    0.16008691    0.03516251
     atom   24 type  1   force =     0.31188272    0.13862999   -0.02330255
     atom   25 type  1   force =     0.04451204   -0.04080743   -0.06127226
     atom   26 type  1   force =    -0.00112069    0.06268253   -0.33630600
     atom   27 type  1   force =     0.13381877   -0.20674802   -0.08365334
     atom   28 type  1   force =     0.01019411    0.05301667    0.06698612
     atom   29 type  1   force =    -0.09764537    0.32665087    0.02467600
     atom   30 type  1   force =     0.04350976    0.03991915    0.25344233
     atom   31 type  1   force =    -0.02580362    0.00891587    0.06187342
     atom   32 type  1   force =    -1.03457786    0.27692452    0.03357332
     atom   33 type  1   force =     0.04830306   -0.13809790    1.09393335
     atom   34 type  1   force =    -0.05725619   -0.06959748    0.00878005
     atom   35 type  1   force =    -0.28060690   -0.07227822   -0.03870072
     atom   36 type  1   force =    -0.11365337   -0.26536140    0.05619610
     atom   37 type  1   force =     0.13207391   -0.01584398    0.00882489
     atom   38 type  1   force =    -0.01671831    0.00326135   -0.17876944
     atom   39 type  1   force =     0.30988857    0.14362445   -0.01631450
     atom   40 type  1   force =     0.14815305   -0.00596687    0.01163186
     atom   41 type  1   force =     0.53950962    1.18784814    0.05841611
     atom   42 type  1   force =     0.88299204   -0.58495477   -0.15997590
     atom   43 type  1   force =     0.02993925   -0.07591375   -0.11976855
     atom   44 type  1   force =    -0.09950161   -0.14714544   -0.32798983
     atom   45 type  1   force =     0.12198800   -0.25333483   -0.07923075
     atom   46 type  1   force =     0.01966751    0.03294442    0.04723271
     atom   47 type  1   force =    -0.09610536    0.08681990    0.03170834
     atom   48 type  1   force =     0.04402341    0.03793120    0.06353153
     atom   49 type  1   force =     0.02213828    0.03329789    0.07034865
     atom   50 type  1   force =    -0.09884882    0.10516120    0.03635950
     atom   51 type  1   force =     0.03375121   -0.01772207    0.05579114
     atom   52 type  1   force =    -0.01898574   -0.03869379   -0.01643065
     atom   53 type  1   force =    -0.09580015   -0.01929550   -0.10729249
     atom   54 type  1   force =    -0.01291559   -0.08946940    0.00421954
     atom   55 type  1   force =    -0.07727526    0.03179310   -0.02048320
     atom   56 type  1   force =    -0.06294357   -0.00009577    0.02473354
     atom   57 type  1   force =     0.00623813   -0.05419126    0.07227443
     atom   58 type  1   force =    -0.10375494    0.32516843    0.01856636
     atom   59 type  1   force =    -0.12746959    0.49702644    0.94068210
     atom   60 type  1   force =     0.04660613    0.00711657    0.28851215
     atom   61 type  1   force =    -0.25435998   -0.03235628   -0.04442727
     atom   62 type  1   force =    -1.02872051   -0.39942723    0.01690974
     atom   63 type  1   force =     0.00470738   -0.23664218    0.17455669
     atom   64 type  1   force =    -0.00106136   -0.04814799   -0.12431042
     atom   65 type  1   force =    -0.00565631   -0.04328736   -0.14217764
     atom   66 type  1   force =     0.13509300   -0.05039925   -0.01461490
     atom   67 type  1   force =     0.17241054    0.04915187    0.01035955
     atom   68 type  1   force =    -0.32129695    0.97898153   -0.80239020
     atom   69 type  1   force =     0.35044781   -0.03796948    0.12195987
     atom   70 type  1   force =    -0.00914334    0.06621442   -0.33534623
     atom   71 type  1   force =     0.31852625   -0.72191714   -0.72444258
     atom   72 type  1   force =     0.14016490   -0.24892432   -0.06105363
     atom   73 type  1   force =    -0.05308462    0.01529181   -0.02551950
     atom   74 type  1   force =    -0.07555241    0.00959424   -0.02734194
     atom   75 type  1   force =     0.02453814   -0.02813313    0.02709331
     atom   76 type  1   force =    -0.05401341    0.09703308    0.07380026
     atom   77 type  1   force =    -0.06293320    0.11387582    0.07227518
     atom   78 type  1   force =     0.10603298    0.02967734    0.09454071
     atom   79 type  1   force =    -0.06939632    0.01041092   -0.04988838
     atom   80 type  1   force =    -0.04905354   -0.03781383   -0.02701358
     atom   81 type  1   force =     0.01661997   -0.08230290    0.03375507
     atom   82 type  1   force =    -0.08629129    0.12589296    0.05574461
     atom   83 type  1   force =    -0.08300694    0.12141741    0.17221548
     atom   84 type  1   force =     0.01875930    0.01573278    0.11501196
     atom   85 type  1   force =    -0.19828289    0.09344662    0.05693941
     atom   86 type  1   force =    -0.34070082   -0.00392880    0.34165410
     atom   87 type  1   force =     0.01494221   -0.00962822    0.19051100
     atom   88 type  1   force =    -0.11489483   -0.01669712   -0.01864229
     atom   89 type  1   force =    -0.18236671   -0.05750330   -0.00679772
     atom   90 type  1   force =    -0.03786165   -0.09819176    0.06168708
     atom   91 type  1   force =     0.10197361    0.04587559   -0.11310498
     atom   92 type  1   force =     0.11686610    0.28655066   -0.11701801
     atom   93 type  1   force =     0.17266603    0.00646084    0.14659112
     atom   94 type  1   force =     0.04947285    0.27019836   -0.18441122
     atom   95 type  1   force =     0.27525859   -0.28090080    0.27964396
     atom   96 type  1   force =    -0.13898477   -0.06915818   -0.16505949
     atom   97 type  1   force =    -0.19756726   -0.39562746   -0.19318210
     atom   98 type  1   force =     0.07455162   -0.17309946   -0.03255051
     atom   99 type  1   force =     0.00649429    0.01694541   -0.01060589
     atom  100 type  1   force =    -0.05104079    0.11486636   -0.09765437
     atom  101 type  1   force =     0.15891188    0.01576306    0.03110134
     atom  102 type  1   force =     0.06632805    0.14334487    0.01971438
     atom  103 type  1   force =     0.13731376    0.23092270   -0.19334512
     atom  104 type  1   force =     0.20771538   -0.08899470    0.01606622
     atom  105 type  1   force =    -0.02938314   -0.02992495   -0.15719379
     atom  106 type  1   force =     0.01130922   -0.13665081   -0.18034011
     atom  107 type  1   force =     0.05917841   -0.09497759   -0.03613297
     atom  108 type  1   force =    -0.03688968    0.02740478    0.03024025
     atom  109 type  1   force =    -0.04706586    0.11165340    0.11684306
     atom  110 type  1   force =     0.01020473   -0.01277624    0.15713816
     atom  111 type  1   force =    -0.14116481    0.08882109    0.02274411
     atom  112 type  1   force =    -0.51126566    0.31342983    0.43521482
     atom  113 type  1   force =     0.04106835   -0.01366752    0.46673483
     atom  114 type  1   force =    -0.14934146   -0.05148864   -0.00240806
     atom  115 type  1   force =    -0.44899304   -0.13257597   -0.02332610
     atom  116 type  1   force =    -0.09359821   -0.24282498    0.15251756
     atom  117 type  1   force =     0.01936262   -0.04030633   -0.00958271
     atom  118 type  1   force =     0.01966872    0.08288663   -0.17267590
     atom  119 type  1   force =     0.13286079    0.03073466    0.09886221
     atom  120 type  1   force =     0.14876393    0.11421048   -0.04358067
     atom  121 type  1   force =     0.63713315   -0.20300218    0.31931881
     atom  122 type  1   force =    -0.09948026   -0.02564064   -0.13347881
     atom  123 type  1   force =    -0.24412059   -0.41683025   -0.56193491
     atom  124 type  1   force =     0.18953811   -0.41974078   -0.08769162
     atom  125 type  1   force =    -0.01463699   -0.03803403    0.02386562
     atom  126 type  1   force =    -0.04404399   -0.01170759   -0.00333961
     atom  127 type  1   force =     0.04948813   -0.01143989    0.02149792
     atom  128 type  1   force =     0.00474411    0.00013037    0.04544851
     atom  129 type  1   force =    -0.01920813    0.18972713   -0.02682739
     atom  130 type  1   force =     0.16161220   -0.04739588   -0.00791817
     atom  131 type  1   force =    -0.01677159   -0.02751723   -0.04476184
     atom  132 type  1   force =     0.02348440   -0.08091119   -0.14604602
     atom  133 type  1   force =     0.05870103   -0.14511689   -0.02348975
     atom  134 type  1   force =     0.07044501    0.12603361   -0.02060764
     atom  135 type  1   force =     0.23501177    0.74826051    0.01366043
     atom  136 type  1   force =     0.12485973    0.08062930    0.53338327
     atom  137 type  1   force =    -0.13617340    0.07355119   -0.09025187
     atom  138 type  1   force =    -3.60690633   -0.51815645   -0.58716180
     atom  139 type  1   force =     0.19375154   -0.64548217    0.52433771
     atom  140 type  1   force =    -0.10021421   -0.04061460   -0.02843684
     atom  141 type  1   force =    -0.15855890   -0.11952165   -0.08688209
     atom  142 type  1   force =    -0.00278844   -0.15988798    0.06109191
     atom  143 type  1   force =     0.05431407   -0.04256619    0.04580277
     atom  144 type  1   force =    -0.18369607    0.07111146   -0.10112642
     atom  145 type  1   force =     0.23849045    0.07005726    0.01260996
     atom  146 type  1   force =     0.08803410    0.07805704   -0.08620894
     atom  147 type  1   force =     0.40126834    0.29432047   -0.60626954
     atom  148 type  1   force =     0.31135294   -0.42854680   -0.16195352
     atom  149 type  1   force =    -0.01739405   -0.06100583   -0.05466101
     atom  150 type  1   force =    -0.01988381   -0.10871718   -0.17976429
     atom  151 type  1   force =     0.07738764   -0.10983531   -0.03197078
     atom  152 type  1   force =    -0.04876838    0.02525434    0.06294624
     atom  153 type  1   force =    -0.10440523    0.12264024    0.13600872
     atom  154 type  1   force =     0.03313509    0.01139893    0.13333316
     atom  155 type  1   force =    -0.11046787   -0.01208650    0.01038309
     atom  156 type  1   force =    -0.20231595    0.00060017    0.07700420
     atom  157 type  1   force =    -0.02100239   -0.10967845    0.12959017
     atom  158 type  1   force =    -0.05422333   -0.03645512    0.01201548
     atom  159 type  1   force =    -0.07377443   -0.04972585    0.01640140
     atom  160 type  1   force =    -0.02130980   -0.08283677    0.05470882
     atom  161 type  1   force =    -0.00767372    0.10707887   -0.09872626
     atom  162 type  1   force =     0.06644086    0.12271359    0.11236234
     atom  163 type  1   force =     0.03433106   -0.00796854    0.10610831
     atom  164 type  1   force =    -0.18291623    0.64685418   -0.40426745
     atom  165 type  1   force =     0.58936167    0.50002858    3.60910583
     atom  166 type  1   force =     0.10803509   -0.05483519    0.17971172
     atom  167 type  1   force =    -0.53356538   -0.07913124   -0.12504133
     atom  168 type  1   force =    -0.35166194   -0.77782171   -0.02107560
     atom  169 type  1   force =    -0.02173872   -0.16448603    0.04214176
     atom  170 type  1   force =    -0.03290696   -0.06372956   -0.04141832
     atom  171 type  1   force =     0.06786287    0.07316262   -0.10638021
     atom  172 type  1   force =     0.06697977   -0.04053333    0.02971284
     atom  173 type  1   force =     0.07622083    0.13417827    0.15879003
     atom  174 type  1   force =     0.53103541    0.32580740   -0.47650236
     atom  175 type  1   force =     0.19968007   -0.05544203    0.03979976
     atom  176 type  1   force =    -0.02194224    0.00686570   -0.24782285
     atom  177 type  1   force =     0.26723529   -0.43925148   -0.20607129
     atom  178 type  1   force =     0.05915797   -0.11425858   -0.05020039
     atom  179 type  1   force =    -0.06849332    0.02046833    0.04322129
     atom  180 type  1   force =    -0.01039635    0.01219503    0.11045467
     atom  181 type  1   force =    -0.00462985   -0.02442173    0.06160894
     atom  182 type  1   force =    -0.16401163    0.10817729    0.07640236
     atom  183 type  1   force =    -0.08072901    0.03010209    0.19859102
     atom  184 type  1   force =    -0.00632154   -0.03335922    0.08385420
     atom  185 type  1   force =    -0.13125968   -0.02848991   -0.03106164
     atom  186 type  1   force =    -0.10063367   -0.12900017    0.04995899
     atom  187 type  1   force =    -0.03422886   -0.08597151    0.04178971
     atom  188 type  1   force =    -0.10084841    0.22268030    0.04681715
     atom  189 type  1   force =     0.06753865    0.10647054    0.53904968
     atom  190 type  1   force =     0.00933304    0.02207985    0.13581442
     atom  191 type  1   force =    -0.54679965   -0.04259301   -0.07528836
     atom  192 type  1   force =    -0.51704062   -0.32588652    0.59611403
     atom  193 type  1   force =    -0.04575636   -0.09853228    0.13217364
     atom  194 type  1   force =    -0.13686816   -0.01339437   -0.01038671
     atom  195 type  1   force =    -0.10647837   -0.11326581    0.07145177
     atom  196 type  1   force =    -0.03822555   -0.07522446    0.05647818
     atom  197 type  1   force =     0.15496895   -0.08119402   -0.13526800
     atom  198 type  1   force =     0.40414569    0.67226717   -0.00348383
     atom  199 type  1   force =     0.18153732   -0.00600018    0.10736704
     atom  200 type  1   force =    -0.14351408    0.53938255   -0.55114346
     atom  201 type  1   force =     1.86169273   -2.97610597   -1.13956736
     atom  202 type  1   force =     0.14485973   -0.15558201    0.04213525
     atom  203 type  1   force =    -0.09769154   -0.07375238   -0.17186175
     atom  204 type  1   force =    -0.00011689   -0.19075932   -0.10284152
     atom  205 type  1   force =     0.01391350   -0.08926128    0.00774501
     atom  206 type  1   force =    -0.05921129    0.00853053    0.05714143
     atom  207 type  1   force =     0.04429687    0.13781175   -0.01812795
     atom  208 type  1   force =     0.06109490   -0.02418302    0.05189375
     atom  209 type  1   force =    -0.01360625    0.12376200   -0.07603123
     atom  210 type  1   force =     0.12814838   -0.04535283   -0.11714400
     atom  211 type  1   force =     0.06482583   -0.09096168   -0.00729783
     atom  212 type  1   force =    -0.04296277   -0.04943158   -0.05216400
     atom  213 type  1   force =     0.03038275   -0.09931889   -0.04174093
     atom  214 type  1   force =     0.01037629   -0.06555126    0.00552916
     atom  215 type  2   force =     1.69389647    4.38934902   -2.75893070
     The local contribution  to forces
     atom    1 type  1   force =     0.03211378    0.00183533   -0.03256218
     atom    2 type  1   force =     0.13527899   -0.06886239   -0.01182407
     atom    3 type  1   force =     0.03436509    0.03497977   -0.07914663
     atom    4 type  1   force =     0.03158768   -0.09401760   -0.11551088
     atom    5 type  1   force =     0.24338534   -0.23878053   -0.18544862
     atom    6 type  1   force =    -0.01431372   -0.01553223   -0.29404399
     atom    7 type  1   force =     0.06962321    0.04353115   -0.04389232
     atom    8 type  1   force =     0.28890484    0.05802972    0.00914998
     atom    9 type  1   force =     0.15183204    0.17810389   -0.19505994
     atom   10 type  1   force =    -0.05683679    0.04892833    0.04496370
     atom   11 type  1   force =     0.05369864    0.02365796    0.14216772
     atom   12 type  1   force =    -0.04664571    0.05146099   -0.01528801
     atom   13 type  1   force =    -0.14213681   -0.02386044   -0.05366887
     atom   14 type  1   force =    -0.70596158   -0.65835230    0.86570049
     atom   15 type  1   force =    -0.62176600   -0.15920736   -0.83123057
     atom   16 type  1   force =     0.00138873    0.06310781    0.03274681
     atom   17 type  1   force =     0.82720222    0.19236724    0.61777680
     atom   18 type  1   force =    -0.36544015    1.01664632    0.11874408
     atom   19 type  1   force =    -0.04370925    0.02841132    0.03681039
     atom   20 type  1   force =     0.05836212    0.02240765    0.12599062
     atom   21 type  1   force =    -0.07067514    0.03758758    0.03867746
     atom   22 type  1   force =    -0.12599857   -0.02231918   -0.05837113
     atom   23 type  1   force =     0.07400288   -0.16863964   -0.03307895
     atom   24 type  1   force =    -0.33080230   -0.14595634    0.01544012
     atom   25 type  1   force =    -0.04845489    0.04297876    0.06089894
     atom   26 type  1   force =     0.00994467   -0.06328371    0.35619303
     atom   27 type  1   force =    -0.13849636    0.20213416    0.08944519
     atom   28 type  1   force =    -0.01337736   -0.05289873   -0.07016852
     atom   29 type  1   force =     0.11216060   -0.34279060   -0.02604121
     atom   30 type  1   force =    -0.04696102   -0.04785005   -0.25220091
     atom   31 type  1   force =     0.02751936   -0.00858048   -0.06510329
     atom   32 type  1   force =     1.00610111   -0.29687637   -0.05046627
     atom   33 type  1   force =    -0.04518343    0.14119050   -1.07682886
     atom   34 type  1   force =     0.05944118    0.07154347   -0.00571284
     atom   35 type  1   force =     0.28039718    0.08154361    0.04123801
     atom   36 type  1   force =     0.11678591    0.27411326   -0.06407822
     atom   37 type  1   force =    -0.13955155    0.01496596   -0.00756197
     atom   38 type  1   force =     0.01531128   -0.00799943    0.18607032
     atom   39 type  1   force =    -0.33153866   -0.14351159    0.01860878
     atom   40 type  1   force =    -0.15306993    0.00608901   -0.01271603
     atom   41 type  1   force =    -0.51478695   -1.18033417    0.15299895
     atom   42 type  1   force =    -0.88208736    0.55180799    0.14012917
     atom   43 type  1   force =    -0.03250459    0.08164505    0.12431665
     atom   44 type  1   force =     0.10181060    0.14873450    0.34388674
     atom   45 type  1   force =    -0.11457336    0.25916281    0.08100110
     atom   46 type  1   force =    -0.02068159   -0.03470772   -0.04935335
     atom   47 type  1   force =     0.10050683   -0.09303315   -0.03165517
     atom   48 type  1   force =    -0.04241223   -0.03996961   -0.06720313
     atom   49 type  1   force =    -0.02495951   -0.03864810   -0.07442122
     atom   50 type  1   force =     0.10194001   -0.10863278   -0.03826313
     atom   51 type  1   force =    -0.03516393    0.01946056   -0.05871397
     atom   52 type  1   force =     0.01880880    0.03816689    0.01709272
     atom   53 type  1   force =     0.10246199    0.02088137    0.11090195
     atom   54 type  1   force =     0.01343861    0.09215892   -0.00098602
     atom   55 type  1   force =     0.08025356   -0.03018364    0.02345928
     atom   56 type  1   force =     0.06605514    0.00077696   -0.02656752
     atom   57 type  1   force =    -0.00961773    0.05479214   -0.07476865
     atom   58 type  1   force =     0.10930316   -0.34348836   -0.02889716
     atom   59 type  1   force =     0.14774439   -0.50511824   -0.90880566
     atom   60 type  1   force =    -0.05125278    0.00107288   -0.29040413
     atom   61 type  1   force =     0.25494194    0.02538707    0.04969391
     atom   62 type  1   force =     1.01145418    0.39759379   -0.02020994
     atom   63 type  1   force =     0.00096945    0.24600651   -0.17989601
     atom   64 type  1   force =    -0.00017230    0.04878111    0.13181956
     atom   65 type  1   force =     0.00654158    0.04481841    0.14689620
     atom   66 type  1   force =    -0.14093906    0.05533783    0.01588019
     atom   67 type  1   force =    -0.17842292   -0.05500804   -0.00766185
     atom   68 type  1   force =     0.11486940   -1.02754737    0.78264100
     atom   69 type  1   force =    -0.36618998    0.03518254   -0.12412592
     atom   70 type  1   force =     0.00626795   -0.06155445    0.35642644
     atom   71 type  1   force =    -0.29142030    0.69512919    0.73081298
     atom   72 type  1   force =    -0.14305071    0.25225151    0.05252066
     atom   73 type  1   force =     0.05553250   -0.01622053    0.02685914
     atom   74 type  1   force =     0.08069205   -0.01301721    0.03122961
     atom   75 type  1   force =    -0.02506866    0.02752294   -0.02678338
     atom   76 type  1   force =     0.05555613   -0.10393824   -0.07660615
     atom   77 type  1   force =     0.06568889   -0.11742515   -0.07450947
     atom   78 type  1   force =    -0.10972403   -0.03059332   -0.10127788
     atom   79 type  1   force =     0.07349586   -0.01185160    0.04869976
     atom   80 type  1   force =     0.05144331    0.04047014    0.02788796
     atom   81 type  1   force =    -0.02038682    0.08395384   -0.03481074
     atom   82 type  1   force =     0.09007432   -0.13134818   -0.05820101
     atom   83 type  1   force =     0.09490887   -0.13687554   -0.17795589
     atom   84 type  1   force =    -0.01980761   -0.01703795   -0.11951138
     atom   85 type  1   force =     0.20785332   -0.10947904   -0.06502012
     atom   86 type  1   force =     0.34747551    0.00470836   -0.34863127
     atom   87 type  1   force =    -0.01246791    0.01752110   -0.20110335
     atom   88 type  1   force =     0.11955324    0.01676751    0.01983966
     atom   89 type  1   force =     0.19087118    0.06685912    0.00222493
     atom   90 type  1   force =     0.03843540    0.09969291   -0.06263339
     atom   91 type  1   force =    -0.10594677   -0.04876348    0.11778251
     atom   92 type  1   force =    -0.12147434   -0.29600007    0.11359554
     atom   93 type  1   force =    -0.19283320   -0.00750528   -0.14908352
     atom   94 type  1   force =    -0.04405023   -0.27722891    0.19102912
     atom   95 type  1   force =    -0.28025929    0.28696295   -0.28542127
     atom   96 type  1   force =     0.14108017    0.07350832    0.18483556
     atom   97 type  1   force =     0.20160178    0.40389230    0.19645045
     atom   98 type  1   force =    -0.07391537    0.18598654    0.02877991
     atom   99 type  1   force =    -0.00752725   -0.01959577    0.01228410
     atom  100 type  1   force =     0.05223943   -0.12007782    0.10180368
     atom  101 type  1   force =    -0.16583994   -0.01640761   -0.03247106
     atom  102 type  1   force =    -0.06909301   -0.14951920   -0.01952642
     atom  103 type  1   force =    -0.14495909   -0.23208493    0.20127344
     atom  104 type  1   force =    -0.22717550    0.08600650   -0.02121024
     atom  105 type  1   force =     0.03066651    0.03126560    0.16403800
     atom  106 type  1   force =    -0.00616559    0.13962659    0.19980282
     atom  107 type  1   force =    -0.06196698    0.09839270    0.03808452
     atom  108 type  1   force =     0.03955683   -0.02651546   -0.03312227
     atom  109 type  1   force =     0.04495751   -0.11455725   -0.11879150
     atom  110 type  1   force =    -0.01350809    0.00933107   -0.17480861
     atom  111 type  1   force =     0.14368874   -0.09060749   -0.02006295
     atom  112 type  1   force =     0.51820919   -0.31573284   -0.44161305
     atom  113 type  1   force =    -0.04607033    0.01448920   -0.52016306
     atom  114 type  1   force =     0.16723072    0.05317589    0.00592492
     atom  115 type  1   force =     0.50057804    0.14712790    0.02645682
     atom  116 type  1   force =     0.09511959    0.24670750   -0.15499117
     atom  117 type  1   force =    -0.01856309    0.04311556    0.00810313
     atom  118 type  1   force =    -0.02182403   -0.08952054    0.18060410
     atom  119 type  1   force =    -0.13391951   -0.03410518   -0.10091054
     atom  120 type  1   force =    -0.15495865   -0.12182669    0.04746991
     atom  121 type  1   force =    -0.64436900    0.20707830   -0.32427174
     atom  122 type  1   force =     0.10223382    0.02318854    0.13525071
     atom  123 type  1   force =     0.24775655    0.42354907    0.56787609
     atom  124 type  1   force =    -0.21171018    0.46744393    0.09827905
     atom  125 type  1   force =     0.01597808    0.04144470   -0.02603554
     atom  126 type  1   force =     0.04540664    0.01426840    0.00180319
     atom  127 type  1   force =    -0.05099373    0.01420830   -0.02395366
     atom  128 type  1   force =    -0.00381273    0.00232961   -0.04741688
     atom  129 type  1   force =     0.01827682   -0.19970141    0.03018259
     atom  130 type  1   force =    -0.16407825    0.04786192    0.01110843
     atom  131 type  1   force =     0.01845996    0.03105634    0.04550066
     atom  132 type  1   force =    -0.02676100    0.08117258    0.14842388
     atom  133 type  1   force =    -0.06844614    0.15923160    0.02980269
     atom  134 type  1   force =    -0.07545119   -0.13042906    0.02213522
     atom  135 type  1   force =    -0.24901703   -0.75744078   -0.00557336
     atom  136 type  1   force =    -0.14001740   -0.09137966   -0.58335842
     atom  137 type  1   force =     0.13755770   -0.08064585    0.09578329
     atom  138 type  1   force =     3.56728990    0.52363689    0.57250100
     atom  139 type  1   force =    -0.19516901    0.65883140   -0.53452895
     atom  140 type  1   force =     0.11160855    0.04207779    0.03006361
     atom  141 type  1   force =     0.16288675    0.12751220    0.09271392
     atom  142 type  1   force =     0.00573386    0.16380183   -0.06253367
     atom  143 type  1   force =    -0.05432405    0.04476222   -0.04743717
     atom  144 type  1   force =     0.18091335   -0.04820107    0.08359095
     atom  145 type  1   force =    -0.24182672   -0.07127474   -0.01263105
     atom  146 type  1   force =    -0.09315833   -0.08215840    0.08813208
     atom  147 type  1   force =    -0.41356925   -0.30818085    0.60797115
     atom  148 type  1   force =    -0.34445526    0.46676008    0.17885619
     atom  149 type  1   force =     0.01713920    0.06584473    0.05437944
     atom  150 type  1   force =     0.02282435    0.11271684    0.18439024
     atom  151 type  1   force =    -0.08516634    0.12569775    0.03851553
     atom  152 type  1   force =     0.04964698   -0.02347118   -0.06740978
     atom  153 type  1   force =     0.10962107   -0.12481738   -0.13983421
     atom  154 type  1   force =    -0.03414448   -0.01398756   -0.15199384
     atom  155 type  1   force =     0.12176097    0.01384618   -0.00836072
     atom  156 type  1   force =     0.21016430   -0.00221858   -0.08430490
     atom  157 type  1   force =     0.02416856    0.11298739   -0.13185694
     atom  158 type  1   force =     0.06156600    0.03977231   -0.01251854
     atom  159 type  1   force =     0.08156547    0.05402712   -0.01750221
     atom  160 type  1   force =     0.01952774    0.08616306   -0.05765784
     atom  161 type  1   force =     0.00708655   -0.11040196    0.10467400
     atom  162 type  1   force =    -0.07009682   -0.13101771   -0.11187216
     atom  163 type  1   force =    -0.03592856    0.00628395   -0.11747451
     atom  164 type  1   force =     0.17682395   -0.65413058    0.42026695
     atom  165 type  1   force =    -0.57755445   -0.48206076   -3.57231075
     atom  166 type  1   force =    -0.11545174    0.05997094   -0.18562607
     atom  167 type  1   force =     0.58423186    0.08434319    0.14088845
     atom  168 type  1   force =     0.35836243    0.79315378    0.01900206
     atom  169 type  1   force =     0.02229590    0.16781653   -0.04597049
     atom  170 type  1   force =     0.03397924    0.06618472    0.04086768
     atom  171 type  1   force =    -0.06890678   -0.07627327    0.11237983
     atom  172 type  1   force =    -0.06785548    0.04522580   -0.03061827
     atom  173 type  1   force =    -0.06466391   -0.10778918   -0.16198306
     atom  174 type  1   force =    -0.52977001   -0.33637293    0.49176044
     atom  175 type  1   force =    -0.20502887    0.05743705   -0.04346756
     atom  176 type  1   force =     0.02215375   -0.00722939    0.25135941
     atom  177 type  1   force =    -0.29361500    0.47909428    0.22970063
     atom  178 type  1   force =    -0.06948350    0.12950315    0.05419972
     atom  179 type  1   force =     0.07243712   -0.01794408   -0.04461997
     atom  180 type  1   force =     0.00833966   -0.01366950   -0.12177689
     atom  181 type  1   force =     0.00454202    0.02594114   -0.06954046
     atom  182 type  1   force =     0.16839730   -0.11056021   -0.08106433
     atom  183 type  1   force =     0.08841855   -0.03175288   -0.20603663
     atom  184 type  1   force =     0.00659883    0.03584259   -0.09246206
     atom  185 type  1   force =     0.14997904    0.03067793    0.03211733
     atom  186 type  1   force =     0.10214508    0.13190605   -0.05388815
     atom  187 type  1   force =     0.03625230    0.09022005   -0.04093328
     atom  188 type  1   force =     0.10215662   -0.22599529   -0.04731875
     atom  189 type  1   force =    -0.07394255   -0.12115607   -0.58991806
     atom  190 type  1   force =    -0.01365698   -0.02318170   -0.15413988
     atom  191 type  1   force =     0.59951629    0.04223211    0.08351442
     atom  192 type  1   force =     0.52619858    0.33448307   -0.60737819
     atom  193 type  1   force =     0.04581799    0.10323420   -0.13412501
     atom  194 type  1   force =     0.15481469    0.01769106    0.01432622
     atom  195 type  1   force =     0.10726709    0.11815007   -0.07267924
     atom  196 type  1   force =     0.04140509    0.07631890   -0.05992914
     atom  197 type  1   force =    -0.13905490    0.09569752    0.11583747
     atom  198 type  1   force =    -0.40046111   -0.68938477    0.00977338
     atom  199 type  1   force =    -0.18713109    0.00868018   -0.11009510
     atom  200 type  1   force =     0.14154157   -0.55788460    0.55179705
     atom  201 type  1   force =    -1.83430001    2.95146425    1.11813345
     atom  202 type  1   force =    -0.15233675    0.16085084   -0.04787655
     atom  203 type  1   force =     0.09955169    0.07823644    0.17659619
     atom  204 type  1   force =     0.00423613    0.19884433    0.10869806
     atom  205 type  1   force =    -0.01592734    0.09796622   -0.00784827
     atom  206 type  1   force =     0.06061599   -0.00696883   -0.05892063
     atom  207 type  1   force =    -0.04399586   -0.14458227    0.01912092
     atom  208 type  1   force =    -0.06103786    0.02633799   -0.05626846
     atom  209 type  1   force =     0.01425139   -0.13045391    0.07736651
     atom  210 type  1   force =    -0.13334648    0.04122928    0.12334049
     atom  211 type  1   force =    -0.07047855    0.10034063    0.01103822
     atom  212 type  1   force =     0.04670763    0.05247283    0.05147714
     atom  213 type  1   force =    -0.03638959    0.10860762    0.04512596
     atom  214 type  1   force =    -0.01272722    0.07322873   -0.00504909
     atom  215 type  2   force =    -1.29200496   -3.34815787    2.10438768
     The core correction contribution to forces
     atom    1 type  1   force =    -0.00001570   -0.00004777    0.00002732
     atom    2 type  1   force =     0.00018934   -0.00007503    0.00005688
     atom    3 type  1   force =     0.00005925   -0.00001698   -0.00001578
     atom    4 type  1   force =    -0.00003216   -0.00012878   -0.00016461
     atom    5 type  1   force =     0.00013396   -0.00024336   -0.00007494
     atom    6 type  1   force =     0.00009520    0.00006791   -0.00002874
     atom    7 type  1   force =     0.00002104   -0.00002622   -0.00005400
     atom    8 type  1   force =     0.00001459    0.00004839   -0.00010929
     atom    9 type  1   force =     0.00004553    0.00018749   -0.00009101
     atom   10 type  1   force =    -0.00018454    0.00001154    0.00018174
     atom   11 type  1   force =     0.00001955    0.00002425    0.00009720
     atom   12 type  1   force =    -0.00002065    0.00010659    0.00001884
     atom   13 type  1   force =    -0.00009961   -0.00000468   -0.00002193
     atom   14 type  1   force =     0.00165327   -0.00402854   -0.00067578
     atom   15 type  1   force =     0.00031792    0.00044174    0.00053996
     atom   16 type  1   force =    -0.00004400    0.00010093   -0.00000453
     atom   17 type  1   force =    -0.00061957    0.00021430   -0.00039758
     atom   18 type  1   force =    -0.00026112   -0.00100280    0.00050449
     atom   19 type  1   force =    -0.00008906   -0.00002424    0.00009495
     atom   20 type  1   force =     0.00004539   -0.00009804    0.00018885
     atom   21 type  1   force =    -0.00002060    0.00004524    0.00005877
     atom   22 type  1   force =    -0.00015906   -0.00014767   -0.00001559
     atom   23 type  1   force =    -0.00005906   -0.00028621    0.00012849
     atom   24 type  1   force =    -0.00043780   -0.00022475   -0.00025284
     atom   25 type  1   force =    -0.00006832    0.00003366    0.00001103
     atom   26 type  1   force =     0.00028605   -0.00004908    0.00047102
     atom   27 type  1   force =     0.00003296   -0.00009721   -0.00000935
     atom   28 type  1   force =    -0.00005299   -0.00000865   -0.00004733
     atom   29 type  1   force =     0.00040419   -0.00037464    0.00002447
     atom   30 type  1   force =     0.00000029   -0.00000942    0.00010858
     atom   31 type  1   force =    -0.00001946    0.00003363   -0.00009633
     atom   32 type  1   force =    -0.00064542    0.00025823   -0.00030392
     atom   33 type  1   force =    -0.00031785   -0.00085533    0.00070817
     atom   34 type  1   force =    -0.00000768    0.00005233    0.00005334
     atom   35 type  1   force =    -0.00001377    0.00012545   -0.00000348
     atom   36 type  1   force =     0.00005428    0.00016309   -0.00012458
     atom   37 type  1   force =    -0.00018781   -0.00006853    0.00009259
     atom   38 type  1   force =    -0.00008136   -0.00022232    0.00021680
     atom   39 type  1   force =    -0.00054078    0.00005457    0.00012026
     atom   40 type  1   force =    -0.00010128    0.00000032   -0.00001484
     atom   41 type  1   force =     0.00031138   -0.00033174    0.00437253
     atom   42 type  1   force =     0.00058285   -0.00030264   -0.00042990
     atom   43 type  1   force =    -0.00011778    0.00010571    0.00015580
     atom   44 type  1   force =     0.00003587    0.00002504    0.00029225
     atom   45 type  1   force =     0.00009137    0.00007790   -0.00001427
     atom   46 type  1   force =    -0.00005795   -0.00010948   -0.00002192
     atom   47 type  1   force =     0.00007732   -0.00018694    0.00006658
     atom   48 type  1   force =     0.00000944   -0.00003701   -0.00005378
     atom   49 type  1   force =    -0.00010735   -0.00020059   -0.00010777
     atom   50 type  1   force =     0.00005403   -0.00006920   -0.00003046
     atom   51 type  1   force =     0.00001162    0.00001878   -0.00010006
     atom   52 type  1   force =    -0.00001925   -0.00003781    0.00004104
     atom   53 type  1   force =     0.00017115   -0.00002482    0.00012667
     atom   54 type  1   force =     0.00004235    0.00002948    0.00004824
     atom   55 type  1   force =     0.00004651    0.00001550    0.00005214
     atom   56 type  1   force =     0.00008509    0.00005897    0.00000822
     atom   57 type  1   force =    -0.00006436    0.00003856   -0.00000332
     atom   58 type  1   force =     0.00007605   -0.00045424   -0.00030363
     atom   59 type  1   force =     0.00021597    0.00046713    0.00055737
     atom   60 type  1   force =    -0.00002659    0.00012233   -0.00001631
     atom   61 type  1   force =    -0.00010327   -0.00003449    0.00000502
     atom   62 type  1   force =    -0.00049544   -0.00089844    0.00053068
     atom   63 type  1   force =     0.00008417    0.00017037   -0.00009473
     atom   64 type  1   force =    -0.00007917   -0.00004215    0.00020121
     atom   65 type  1   force =     0.00001143    0.00002770    0.00009787
     atom   66 type  1   force =    -0.00017963    0.00009070    0.00009397
     atom   67 type  1   force =    -0.00016055   -0.00024154    0.00013762
     atom   68 type  1   force =    -0.00416041   -0.00141678   -0.00009925
     atom   69 type  1   force =    -0.00028881   -0.00005377   -0.00003239
     atom   70 type  1   force =    -0.00014515    0.00015057    0.00051585
     atom   71 type  1   force =     0.00050565   -0.00032136   -0.00050711
     atom   72 type  1   force =    -0.00000185    0.00005527   -0.00010751
     atom   73 type  1   force =     0.00004545   -0.00008437    0.00008147
     atom   74 type  1   force =     0.00014890   -0.00013840    0.00014848
     atom   75 type  1   force =    -0.00003148   -0.00004079    0.00002881
     atom   76 type  1   force =    -0.00001843   -0.00021017   -0.00002916
     atom   77 type  1   force =     0.00004743   -0.00007082   -0.00003708
     atom   78 type  1   force =    -0.00011229   -0.00009363   -0.00015679
     atom   79 type  1   force =     0.00006123   -0.00002441   -0.00000199
     atom   80 type  1   force =     0.00009309    0.00003857   -0.00001857
     atom   81 type  1   force =    -0.00005257    0.00000645   -0.00004669
     atom   82 type  1   force =     0.00006300   -0.00015230   -0.00002606
     atom   83 type  1   force =     0.00025641   -0.00026041   -0.00001019
     atom   84 type  1   force =    -0.00003179   -0.00004511   -0.00004977
     atom   85 type  1   force =     0.00007857   -0.00030351   -0.00018799
     atom   86 type  1   force =     0.00007821    0.00007337   -0.00009603
     atom   87 type  1   force =    -0.00000734    0.00004250   -0.00019922
     atom   88 type  1   force =     0.00005808   -0.00002327    0.00004009
     atom   89 type  1   force =     0.00018329    0.00008876   -0.00000855
     atom   90 type  1   force =     0.00000253    0.00002146   -0.00000770
     atom   91 type  1   force =    -0.00016079   -0.00007884    0.00017990
     atom   92 type  1   force =     0.00000712    0.00001150    0.00008030
     atom   93 type  1   force =    -0.00037208    0.00002218    0.00005242
     atom   94 type  1   force =    -0.00008054   -0.00000975   -0.00000734
     atom   95 type  1   force =    -0.00002233    0.00011842   -0.00008573
     atom   96 type  1   force =    -0.00006678    0.00009629    0.00035767
     atom   97 type  1   force =     0.00005473    0.00013714   -0.00000865
     atom   98 type  1   force =    -0.00006437    0.00020015    0.00001584
     atom   99 type  1   force =    -0.00006682   -0.00015976    0.00010557
     atom  100 type  1   force =     0.00006932   -0.00018131    0.00015763
     atom  101 type  1   force =    -0.00016842   -0.00004893   -0.00000312
     atom  102 type  1   force =    -0.00010842   -0.00022444   -0.00002011
     atom  103 type  1   force =     0.00003597   -0.00006433   -0.00002035
     atom  104 type  1   force =    -0.00031719   -0.00012823   -0.00014898
     atom  105 type  1   force =     0.00000975   -0.00000567    0.00017503
     atom  106 type  1   force =     0.00016587   -0.00001098    0.00033409
     atom  107 type  1   force =    -0.00005887    0.00002906    0.00005185
     atom  108 type  1   force =    -0.00001342    0.00017992   -0.00003025
     atom  109 type  1   force =    -0.00019895    0.00025383    0.00014676
     atom  110 type  1   force =    -0.00006816    0.00005365   -0.00050160
     atom  111 type  1   force =    -0.00020809    0.00025160    0.00013760
     atom  112 type  1   force =    -0.00012109    0.00037588    0.00002992
     atom  113 type  1   force =    -0.00015118    0.00017962   -0.00199785
     atom  114 type  1   force =     0.00047264    0.00018489    0.00003923
     atom  115 type  1   force =     0.00189416    0.00067594    0.00004740
     atom  116 type  1   force =     0.00005136    0.00023197   -0.00010761
     atom  117 type  1   force =     0.00001277   -0.00013770    0.00002064
     atom  118 type  1   force =    -0.00013760   -0.00028865    0.00032131
     atom  119 type  1   force =     0.00027641    0.00004044    0.00010058
     atom  120 type  1   force =    -0.00024802   -0.00031542    0.00021086
     atom  121 type  1   force =     0.00029812    0.00018979   -0.00001466
     atom  122 type  1   force =    -0.00009933   -0.00005069   -0.00027516
     atom  123 type  1   force =    -0.00002194    0.00011213   -0.00033478
     atom  124 type  1   force =    -0.00077517    0.00186713    0.00032216
     atom  125 type  1   force =    -0.00002287    0.00003804    0.00001364
     atom  126 type  1   force =    -0.00017230   -0.00005311    0.00003891
     atom  127 type  1   force =     0.00006809    0.00014332   -0.00003857
     atom  128 type  1   force =    -0.00003022   -0.00001865    0.00018098
     atom  129 type  1   force =    -0.00010407   -0.00038046    0.00019637
     atom  130 type  1   force =     0.00028327    0.00002998    0.00008718
     atom  131 type  1   force =     0.00000563    0.00012818   -0.00010102
     atom  132 type  1   force =    -0.00008365   -0.00005902   -0.00027976
     atom  133 type  1   force =    -0.00023265    0.00050298    0.00011064
     atom  134 type  1   force =    -0.00029347   -0.00005059    0.00014404
     atom  135 type  1   force =    -0.00085071    0.00029200    0.00073846
     atom  136 type  1   force =    -0.00007473   -0.00017534   -0.00169618
     atom  137 type  1   force =    -0.00011876   -0.00008477    0.00007786
     atom  138 type  1   force =     0.00197807    0.00060186    0.00009369
     atom  139 type  1   force =    -0.00015335    0.00058126   -0.00041887
     atom  140 type  1   force =     0.00028792    0.00009568   -0.00010497
     atom  141 type  1   force =     0.00009381    0.00028852    0.00014449
     atom  142 type  1   force =     0.00010491    0.00029829   -0.00002229
     atom  143 type  1   force =     0.00000843   -0.00017792    0.00017689
     atom  144 type  1   force =    -0.00037899    0.00011648   -0.00015687
     atom  145 type  1   force =     0.00035001   -0.00003423    0.00016383
     atom  146 type  1   force =    -0.00024820   -0.00017731   -0.00002846
     atom  147 type  1   force =    -0.00047136   -0.00077775   -0.00071550
     atom  148 type  1   force =    -0.00069465    0.00150820    0.00060411
     atom  149 type  1   force =    -0.00008541    0.00004613   -0.00013856
     atom  150 type  1   force =    -0.00003899    0.00000782   -0.00002043
     atom  151 type  1   force =    -0.00016392    0.00056743    0.00018444
     atom  152 type  1   force =    -0.00012833    0.00016440    0.00002236
     atom  153 type  1   force =    -0.00005585    0.00005520    0.00004313
     atom  154 type  1   force =     0.00003611    0.00002445   -0.00055617
     atom  155 type  1   force =     0.00023436    0.00024183    0.00009401
     atom  156 type  1   force =     0.00018860    0.00003078   -0.00020713
     atom  157 type  1   force =     0.00014603    0.00018923   -0.00017177
     atom  158 type  1   force =     0.00016744    0.00017868   -0.00003741
     atom  159 type  1   force =     0.00020177    0.00023699   -0.00007180
     atom  160 type  1   force =    -0.00002937    0.00019243   -0.00009991
     atom  161 type  1   force =    -0.00013641   -0.00001248    0.00030111
     atom  162 type  1   force =    -0.00005905   -0.00007032    0.00013757
     atom  163 type  1   force =     0.00008766    0.00004707   -0.00030525
     atom  164 type  1   force =    -0.00081049    0.00030178    0.00077863
     atom  165 type  1   force =    -0.00017620    0.00007912   -0.00205994
     atom  166 type  1   force =    -0.00020569    0.00021585   -0.00015500
     atom  167 type  1   force =     0.00168693    0.00025214    0.00006542
     atom  168 type  1   force =     0.00026556    0.00068289   -0.00000001
     atom  169 type  1   force =    -0.00004565    0.00026177   -0.00017282
     atom  170 type  1   force =    -0.00012967   -0.00021142    0.00003880
     atom  171 type  1   force =     0.00006234   -0.00010199    0.00028209
     atom  172 type  1   force =     0.00012130    0.00009626    0.00006815
     atom  173 type  1   force =     0.00011408    0.00023614    0.00033617
     atom  174 type  1   force =     0.00086485   -0.00045355    0.00062074
     atom  175 type  1   force =     0.00001688    0.00002137    0.00003545
     atom  176 type  1   force =    -0.00014107   -0.00015335   -0.00032726
     atom  177 type  1   force =    -0.00096215    0.00144329    0.00033657
     atom  178 type  1   force =    -0.00031758    0.00053016    0.00003079
     atom  179 type  1   force =    -0.00006417    0.00017999    0.00008654
     atom  180 type  1   force =    -0.00014162    0.00015061   -0.00028198
     atom  181 type  1   force =    -0.00000097    0.00013779   -0.00020584
     atom  182 type  1   force =    -0.00005650    0.00005503    0.00004246
     atom  183 type  1   force =     0.00019937    0.00003338   -0.00019636
     atom  184 type  1   force =     0.00001966    0.00019276   -0.00025392
     atom  185 type  1   force =     0.00053550    0.00014566   -0.00005675
     atom  186 type  1   force =     0.00012647    0.00018450   -0.00019134
     atom  187 type  1   force =     0.00005088    0.00021189   -0.00001965
     atom  188 type  1   force =    -0.00028785    0.00025260    0.00022654
     atom  189 type  1   force =    -0.00042689   -0.00001733   -0.00165780
     atom  190 type  1   force =    -0.00016553    0.00011525   -0.00053510
     atom  191 type  1   force =     0.00160235    0.00047506    0.00037137
     atom  192 type  1   force =     0.00039581    0.00033493   -0.00047701
     atom  193 type  1   force =    -0.00005150    0.00027784   -0.00015095
     atom  194 type  1   force =     0.00048785    0.00027383    0.00011833
     atom  195 type  1   force =     0.00007969    0.00030968   -0.00001978
     atom  196 type  1   force =     0.00007536    0.00014519   -0.00011058
     atom  197 type  1   force =     0.00026061   -0.00017625   -0.00021786
     atom  198 type  1   force =     0.00086597   -0.00047917    0.00058408
     atom  199 type  1   force =     0.00001625    0.00002234    0.00003633
     atom  200 type  1   force =    -0.00042966   -0.00079348   -0.00071161
     atom  201 type  1   force =    -0.00083325    0.00186740    0.00038015
     atom  202 type  1   force =    -0.00020269    0.00020711   -0.00016680
     atom  203 type  1   force =    -0.00004009    0.00000868   -0.00002001
     atom  204 type  1   force =     0.00010745    0.00028233    0.00014330
     atom  205 type  1   force =    -0.00003646    0.00034420   -0.00004702
     atom  206 type  1   force =    -0.00017063   -0.00009548    0.00019378
     atom  207 type  1   force =     0.00011133   -0.00023327    0.00010340
     atom  208 type  1   force =     0.00014097    0.00004259   -0.00000454
     atom  209 type  1   force =    -0.00004229   -0.00027052   -0.00005023
     atom  210 type  1   force =    -0.00003942   -0.00012095    0.00006878
     atom  211 type  1   force =    -0.00002610    0.00035920    0.00012023
     atom  212 type  1   force =    -0.00000162    0.00000803   -0.00014711
     atom  213 type  1   force =    -0.00020219    0.00031649   -0.00005587
     atom  214 type  1   force =    -0.00005221    0.00027815   -0.00001524
     atom  215 type  2   force =     0.00668863    0.01732434   -0.01089237
     The Hubbard contrib.    to forces
     atom    1 type  1   force =     0.00000000    0.00000000    0.00000000
     atom    2 type  1   force =     0.00000000    0.00000000    0.00000000
     atom    3 type  1   force =     0.00000000    0.00000000    0.00000000
     atom    4 type  1   force =     0.00000000    0.00000000    0.00000000
     atom    5 type  1   force =     0.00000000    0.00000000    0.00000000
     atom    6 type  1   force =     0.00000000    0.00000000    0.00000000
     atom    7 type  1   force =     0.00000000    0.00000000    0.00000000
     atom    8 type  1   force =     0.00000000    0.00000000    0.00000000
     atom    9 type  1   force =     0.00000000    0.00000000    0.00000000
     atom   10 type  1   force =     0.00000000    0.00000000    0.00000000
     atom   11 type  1   force =     0.00000000    0.00000000    0.00000000
     atom   12 type  1   force =     0.00000000    0.00000000    0.00000000
     atom   13 type  1   force =     0.00000000    0.00000000    0.00000000
     atom   14 type  1   force =     0.00000000    0.00000000    0.00000000
     atom   15 type  1   force =     0.00000000    0.00000000    0.00000000
     atom   16 type  1   force =     0.00000000    0.00000000    0.00000000
     atom   17 type  1   force =     0.00000000    0.00000000    0.00000000
     atom   18 type  1   force =     0.00000000    0.00000000    0.00000000
     atom   19 type  1   force =     0.00000000    0.00000000    0.00000000
     atom   20 type  1   force =     0.00000000    0.00000000    0.00000000
     atom   21 type  1   force =     0.00000000    0.00000000    0.00000000
     atom   22 type  1   force =     0.00000000    0.00000000    0.00000000
     atom   23 type  1   force =     0.00000000    0.00000000    0.00000000
     atom   24 type  1   force =     0.00000000    0.00000000    0.00000000
     atom   25 type  1   force =     0.00000000    0.00000000    0.00000000
     atom   26 type  1   force =     0.00000000    0.00000000    0.00000000
     atom   27 type  1   force =     0.00000000    0.00000000    0.00000000
     atom   28 type  1   force =     0.00000000    0.00000000    0.00000000
     atom   29 type  1   force =     0.00000000    0.00000000    0.00000000
     atom   30 type  1   force =     0.00000000    0.00000000    0.00000000
     atom   31 type  1   force =     0.00000000    0.00000000    0.00000000
     atom   32 type  1   force =     0.00000000    0.00000000    0.00000000
     atom   33 type  1   force =     0.00000000    0.00000000    0.00000000
     atom   34 type  1   force =     0.00000000    0.00000000    0.00000000
     atom   35 type  1   force =     0.00000000    0.00000000    0.00000000
     atom   36 type  1   force =     0.00000000    0.00000000    0.00000000
     atom   37 type  1   force =     0.00000000    0.00000000    0.00000000
     atom   38 type  1   force =     0.00000000    0.00000000    0.00000000
     atom   39 type  1   force =     0.00000000    0.00000000    0.00000000
     atom   40 type  1   force =     0.00000000    0.00000000    0.00000000
     atom   41 type  1   force =     0.00000000    0.00000000    0.00000000
     atom   42 type  1   force =     0.00000000    0.00000000    0.00000000
     atom   43 type  1   force =     0.00000000    0.00000000    0.00000000
     atom   44 type  1   force =     0.00000000    0.00000000    0.00000000
     atom   45 type  1   force =     0.00000000    0.00000000    0.00000000
     atom   46 type  1   force =     0.00000000    0.00000000    0.00000000
     atom   47 type  1   force =     0.00000000    0.00000000    0.00000000
     atom   48 type  1   force =     0.00000000    0.00000000    0.00000000
     atom   49 type  1   force =     0.00000000    0.00000000    0.00000000
     atom   50 type  1   force =     0.00000000    0.00000000    0.00000000
     atom   51 type  1   force =     0.00000000    0.00000000    0.00000000
     atom   52 type  1   force =     0.00000000    0.00000000    0.00000000
     atom   53 type  1   force =     0.00000000    0.00000000    0.00000000
     atom   54 type  1   force =     0.00000000    0.00000000    0.00000000
     atom   55 type  1   force =     0.00000000    0.00000000    0.00000000
     atom   56 type  1   force =     0.00000000    0.00000000    0.00000000
     atom   57 type  1   force =     0.00000000    0.00000000    0.00000000
     atom   58 type  1   force =     0.00000000    0.00000000    0.00000000
     atom   59 type  1   force =     0.00000000    0.00000000    0.00000000
     atom   60 type  1   force =     0.00000000    0.00000000    0.00000000
     atom   61 type  1   force =     0.00000000    0.00000000    0.00000000
     atom   62 type  1   force =     0.00000000    0.00000000    0.00000000
     atom   63 type  1   force =     0.00000000    0.00000000    0.00000000
     atom   64 type  1   force =     0.00000000    0.00000000    0.00000000
     atom   65 type  1   force =     0.00000000    0.00000000    0.00000000
     atom   66 type  1   force =     0.00000000    0.00000000    0.00000000
     atom   67 type  1   force =     0.00000000    0.00000000    0.00000000
     atom   68 type  1   force =     0.00000000    0.00000000    0.00000000
     atom   69 type  1   force =     0.00000000    0.00000000    0.00000000
     atom   70 type  1   force =     0.00000000    0.00000000    0.00000000
     atom   71 type  1   force =     0.00000000    0.00000000    0.00000000
     atom   72 type  1   force =     0.00000000    0.00000000    0.00000000
     atom   73 type  1   force =     0.00000000    0.00000000    0.00000000
     atom   74 type  1   force =     0.00000000    0.00000000    0.00000000
     atom   75 type  1   force =     0.00000000    0.00000000    0.00000000
     atom   76 type  1   force =     0.00000000    0.00000000    0.00000000
     atom   77 type  1   force =     0.00000000    0.00000000    0.00000000
     atom   78 type  1   force =     0.00000000    0.00000000    0.00000000
     atom   79 type  1   force =     0.00000000    0.00000000    0.00000000
     atom   80 type  1   force =     0.00000000    0.00000000    0.00000000
     atom   81 type  1   force =     0.00000000    0.00000000    0.00000000
     atom   82 type  1   force =     0.00000000    0.00000000    0.00000000
     atom   83 type  1   force =     0.00000000    0.00000000    0.00000000
     atom   84 type  1   force =     0.00000000    0.00000000    0.00000000
     atom   85 type  1   force =     0.00000000    0.00000000    0.00000000
     atom   86 type  1   force =     0.00000000    0.00000000    0.00000000
     atom   87 type  1   force =     0.00000000    0.00000000    0.00000000
     atom   88 type  1   force =     0.00000000    0.00000000    0.00000000
     atom   89 type  1   force =     0.00000000    0.00000000    0.00000000
     atom   90 type  1   force =     0.00000000    0.00000000    0.00000000
     atom   91 type  1   force =     0.00000000    0.00000000    0.00000000
     atom   92 type  1   force =     0.00000000    0.00000000    0.00000000
     atom   93 type  1   force =     0.00000000    0.00000000    0.00000000
     atom   94 type  1   force =     0.00000000    0.00000000    0.00000000
     atom   95 type  1   force =     0.00000000    0.00000000    0.00000000
     atom   96 type  1   force =     0.00000000    0.00000000    0.00000000
     atom   97 type  1   force =     0.00000000    0.00000000    0.00000000
     atom   98 type  1   force =     0.00000000    0.00000000    0.00000000
     atom   99 type  1   force =     0.00000000    0.00000000    0.00000000
     atom  100 type  1   force =     0.00000000    0.00000000    0.00000000
     atom  101 type  1   force =     0.00000000    0.00000000    0.00000000
     atom  102 type  1   force =     0.00000000    0.00000000    0.00000000
     atom  103 type  1   force =     0.00000000    0.00000000    0.00000000
     atom  104 type  1   force =     0.00000000    0.00000000    0.00000000
     atom  105 type  1   force =     0.00000000    0.00000000    0.00000000
     atom  106 type  1   force =     0.00000000    0.00000000    0.00000000
     atom  107 type  1   force =     0.00000000    0.00000000    0.00000000
     atom  108 type  1   force =     0.00000000    0.00000000    0.00000000
     atom  109 type  1   force =     0.00000000    0.00000000    0.00000000
     atom  110 type  1   force =     0.00000000    0.00000000    0.00000000
     atom  111 type  1   force =     0.00000000    0.00000000    0.00000000
     atom  112 type  1   force =     0.00000000    0.00000000    0.00000000
     atom  113 type  1   force =     0.00000000    0.00000000    0.00000000
     atom  114 type  1   force =     0.00000000    0.00000000    0.00000000
     atom  115 type  1   force =     0.00000000    0.00000000    0.00000000
     atom  116 type  1   force =     0.00000000    0.00000000    0.00000000
     atom  117 type  1   force =     0.00000000    0.00000000    0.00000000
     atom  118 type  1   force =     0.00000000    0.00000000    0.00000000
     atom  119 type  1   force =     0.00000000    0.00000000    0.00000000
     atom  120 type  1   force =     0.00000000    0.00000000    0.00000000
     atom  121 type  1   force =     0.00000000    0.00000000    0.00000000
     atom  122 type  1   force =     0.00000000    0.00000000    0.00000000
     atom  123 type  1   force =     0.00000000    0.00000000    0.00000000
     atom  124 type  1   force =     0.00000000    0.00000000    0.00000000
     atom  125 type  1   force =     0.00000000    0.00000000    0.00000000
     atom  126 type  1   force =     0.00000000    0.00000000    0.00000000
     atom  127 type  1   force =     0.00000000    0.00000000    0.00000000
     atom  128 type  1   force =     0.00000000    0.00000000    0.00000000
     atom  129 type  1   force =     0.00000000    0.00000000    0.00000000
     atom  130 type  1   force =     0.00000000    0.00000000    0.00000000
     atom  131 type  1   force =     0.00000000    0.00000000    0.00000000
     atom  132 type  1   force =     0.00000000    0.00000000    0.00000000
     atom  133 type  1   force =     0.00000000    0.00000000    0.00000000
     atom  134 type  1   force =     0.00000000    0.00000000    0.00000000
     atom  135 type  1   force =     0.00000000    0.00000000    0.00000000
     atom  136 type  1   force =     0.00000000    0.00000000    0.00000000
     atom  137 type  1   force =     0.00000000    0.00000000    0.00000000
     atom  138 type  1   force =     0.00000000    0.00000000    0.00000000
     atom  139 type  1   force =     0.00000000    0.00000000    0.00000000
     atom  140 type  1   force =     0.00000000    0.00000000    0.00000000
     atom  141 type  1   force =     0.00000000    0.00000000    0.00000000
     atom  142 type  1   force =     0.00000000    0.00000000    0.00000000
     atom  143 type  1   force =     0.00000000    0.00000000    0.00000000
     atom  144 type  1   force =     0.00000000    0.00000000    0.00000000
     atom  145 type  1   force =     0.00000000    0.00000000    0.00000000
     atom  146 type  1   force =     0.00000000    0.00000000    0.00000000
     atom  147 type  1   force =     0.00000000    0.00000000    0.00000000
     atom  148 type  1   force =     0.00000000    0.00000000    0.00000000
     atom  149 type  1   force =     0.00000000    0.00000000    0.00000000
     atom  150 type  1   force =     0.00000000    0.00000000    0.00000000
     atom  151 type  1   force =     0.00000000    0.00000000    0.00000000
     atom  152 type  1   force =     0.00000000    0.00000000    0.00000000
     atom  153 type  1   force =     0.00000000    0.00000000    0.00000000
     atom  154 type  1   force =     0.00000000    0.00000000    0.00000000
     atom  155 type  1   force =     0.00000000    0.00000000    0.00000000
     atom  156 type  1   force =     0.00000000    0.00000000    0.00000000
     atom  157 type  1   force =     0.00000000    0.00000000    0.00000000
     atom  158 type  1   force =     0.00000000    0.00000000    0.00000000
     atom  159 type  1   force =     0.00000000    0.00000000    0.00000000
     atom  160 type  1   force =     0.00000000    0.00000000    0.00000000
     atom  161 type  1   force =     0.00000000    0.00000000    0.00000000
     atom  162 type  1   force =     0.00000000    0.00000000    0.00000000
     atom  163 type  1   force =     0.00000000    0.00000000    0.00000000
     atom  164 type  1   force =     0.00000000    0.00000000    0.00000000
     atom  165 type  1   force =     0.00000000    0.00000000    0.00000000
     atom  166 type  1   force =     0.00000000    0.00000000    0.00000000
     atom  167 type  1   force =     0.00000000    0.00000000    0.00000000
     atom  168 type  1   force =     0.00000000    0.00000000    0.00000000
     atom  169 type  1   force =     0.00000000    0.00000000    0.00000000
     atom  170 type  1   force =     0.00000000    0.00000000    0.00000000
     atom  171 type  1   force =     0.00000000    0.00000000    0.00000000
     atom  172 type  1   force =     0.00000000    0.00000000    0.00000000
     atom  173 type  1   force =     0.00000000    0.00000000    0.00000000
     atom  174 type  1   force =     0.00000000    0.00000000    0.00000000
     atom  175 type  1   force =     0.00000000    0.00000000    0.00000000
     atom  176 type  1   force =     0.00000000    0.00000000    0.00000000
     atom  177 type  1   force =     0.00000000    0.00000000    0.00000000
     atom  178 type  1   force =     0.00000000    0.00000000    0.00000000
     atom  179 type  1   force =     0.00000000    0.00000000    0.00000000
     atom  180 type  1   force =     0.00000000    0.00000000    0.00000000
     atom  181 type  1   force =     0.00000000    0.00000000    0.00000000
     atom  182 type  1   force =     0.00000000    0.00000000    0.00000000
     atom  183 type  1   force =     0.00000000    0.00000000    0.00000000
     atom  184 type  1   force =     0.00000000    0.00000000    0.00000000
     atom  185 type  1   force =     0.00000000    0.00000000    0.00000000
     atom  186 type  1   force =     0.00000000    0.00000000    0.00000000
     atom  187 type  1   force =     0.00000000    0.00000000    0.00000000
     atom  188 type  1   force =     0.00000000    0.00000000    0.00000000
     atom  189 type  1   force =     0.00000000    0.00000000    0.00000000
     atom  190 type  1   force =     0.00000000    0.00000000    0.00000000
     atom  191 type  1   force =     0.00000000    0.00000000    0.00000000
     atom  192 type  1   force =     0.00000000    0.00000000    0.00000000
     atom  193 type  1   force =     0.00000000    0.00000000    0.00000000
     atom  194 type  1   force =     0.00000000    0.00000000    0.00000000
     atom  195 type  1   force =     0.00000000    0.00000000    0.00000000
     atom  196 type  1   force =     0.00000000    0.00000000    0.00000000
     atom  197 type  1   force =     0.00000000    0.00000000    0.00000000
     atom  198 type  1   force =     0.00000000    0.00000000    0.00000000
     atom  199 type  1   force =     0.00000000    0.00000000    0.00000000
     atom  200 type  1   force =     0.00000000    0.00000000    0.00000000
     atom  201 type  1   force =     0.00000000    0.00000000    0.00000000
     atom  202 type  1   force =     0.00000000    0.00000000    0.00000000
     atom  203 type  1   force =     0.00000000    0.00000000    0.00000000
     atom  204 type  1   force =     0.00000000    0.00000000    0.00000000
     atom  205 type  1   force =     0.00000000    0.00000000    0.00000000
     atom  206 type  1   force =     0.00000000    0.00000000    0.00000000
     atom  207 type  1   force =     0.00000000    0.00000000    0.00000000
     atom  208 type  1   force =     0.00000000    0.00000000    0.00000000
     atom  209 type  1   force =     0.00000000    0.00000000    0.00000000
     atom  210 type  1   force =     0.00000000    0.00000000    0.00000000
     atom  211 type  1   force =     0.00000000    0.00000000    0.00000000
     atom  212 type  1   force =     0.00000000    0.00000000    0.00000000
     atom  213 type  1   force =     0.00000000    0.00000000    0.00000000
     atom  214 type  1   force =     0.00000000    0.00000000    0.00000000
     atom  215 type  2   force =     0.00000000    0.00000000    0.00000000
     The SCF correction term to forces
     atom    1 type  1   force =     0.00000363   -0.00000170    0.00000147
     atom    2 type  1   force =     0.00000701   -0.00000414    0.00000083
     atom    3 type  1   force =    -0.00000393    0.00000236   -0.00001306
     atom    4 type  1   force =    -0.00000240   -0.00001177   -0.00001314
     atom    5 type  1   force =     0.00000355   -0.00001614   -0.00000011
     atom    6 type  1   force =    -0.00000477   -0.00000728   -0.00001793
     atom    7 type  1   force =     0.00001078    0.00001088    0.00000528
     atom    8 type  1   force =    -0.00000132    0.00000740    0.00001401
     atom    9 type  1   force =    -0.00000069    0.00002035    0.00000937
     atom   10 type  1   force =     0.00000780   -0.00000038   -0.00000598
     atom   11 type  1   force =     0.00000596   -0.00001190   -0.00000123
     atom   12 type  1   force =    -0.00000633   -0.00000358   -0.00001622
     atom   13 type  1   force =    -0.00000388   -0.00001489   -0.00000845
     atom   14 type  1   force =     0.00000114   -0.00000030    0.00000299
     atom   15 type  1   force =    -0.00001485   -0.00000098    0.00000103
     atom   16 type  1   force =     0.00001595    0.00001048    0.00000438
     atom   17 type  1   force =     0.00000166    0.00000922   -0.00002089
     atom   18 type  1   force =     0.00000778    0.00000181    0.00001131
     atom   19 type  1   force =    -0.00000443    0.00000215    0.00001048
     atom   20 type  1   force =    -0.00000278   -0.00000180    0.00001085
     atom   21 type  1   force =    -0.00001542    0.00000223    0.00000393
     atom   22 type  1   force =    -0.00001283   -0.00001317    0.00000256
     atom   23 type  1   force =    -0.00000211   -0.00001650   -0.00000044
     atom   24 type  1   force =    -0.00001307   -0.00000356   -0.00000825
     atom   25 type  1   force =    -0.00000067    0.00000553    0.00001685
     atom   26 type  1   force =     0.00000713    0.00000969    0.00000548
     atom   27 type  1   force =     0.00000436    0.00001525   -0.00000132
     atom   28 type  1   force =    -0.00000330   -0.00002024   -0.00001394
     atom   29 type  1   force =     0.00000664   -0.00001812   -0.00000511
     atom   30 type  1   force =    -0.00001005   -0.00001246   -0.00002519
     atom   31 type  1   force =     0.00000848    0.00000332   -0.00000369
     atom   32 type  1   force =    -0.00000155    0.00001788    0.00001220
     atom   33 type  1   force =     0.00001000    0.00002561    0.00000635
     atom   34 type  1   force =     0.00001473    0.00001295    0.00000496
     atom   35 type  1   force =     0.00000169    0.00000069    0.00000103
     atom   36 type  1   force =     0.00000050    0.00000680   -0.00000475
     atom   37 type  1   force =    -0.00000891   -0.00001480   -0.00000380
     atom   38 type  1   force =    -0.00000183   -0.00001280    0.00000490
     atom   39 type  1   force =    -0.00001643   -0.00000539   -0.00000697
     atom   40 type  1   force =    -0.00000072   -0.00000359    0.00000729
     atom   41 type  1   force =     0.00000499    0.00000637   -0.00001278
     atom   42 type  1   force =     0.00001739    0.00001067    0.00000536
     atom   43 type  1   force =     0.00000906    0.00001253    0.00000878
     atom   44 type  1   force =     0.00000631    0.00000621    0.00000118
     atom   45 type  1   force =     0.00000176    0.00000320   -0.00000354
     atom   46 type  1   force =    -0.00000903   -0.00001474   -0.00000357
     atom   47 type  1   force =    -0.00000468   -0.00001892    0.00000017
     atom   48 type  1   force =    -0.00001794   -0.00001341   -0.00001235
     atom   49 type  1   force =    -0.00000139    0.00000020    0.00000282
     atom   50 type  1   force =     0.00000030   -0.00000629    0.00001130
     atom   51 type  1   force =    -0.00000661    0.00000994   -0.00000252
     atom   52 type  1   force =     0.00000403    0.00001025    0.00001449
     atom   53 type  1   force =     0.00000606    0.00001180    0.00001362
     atom   54 type  1   force =    -0.00000219    0.00002067    0.00000652
     atom   55 type  1   force =     0.00001235   -0.00001182    0.00000420
     atom   56 type  1   force =    -0.00000160   -0.00000701   -0.00001366
     atom   57 type  1   force =    -0.00000249    0.00000251   -0.00001470
     atom   58 type  1   force =     0.00000453   -0.00001310   -0.00000709
     atom   59 type  1   force =     0.00000858   -0.00001309    0.00000147
     atom   60 type  1   force =    -0.00000969   -0.00000426   -0.00001882
     atom   61 type  1   force =     0.00000797    0.00001212    0.00000150
     atom   62 type  1   force =    -0.00000256    0.00000405    0.00001605
     atom   63 type  1   force =     0.00001233    0.00001519    0.00000663
     atom   64 type  1   force =     0.00000685   -0.00000562    0.00000849
     atom   65 type  1   force =    -0.00000841   -0.00000483   -0.00000131
     atom   66 type  1   force =    -0.00000674    0.00000493   -0.00000389
     atom   67 type  1   force =    -0.00000637   -0.00001387   -0.00000125
     atom   68 type  1   force =     0.00000388   -0.00000079    0.00000131
     atom   69 type  1   force =    -0.00001343   -0.00000519   -0.00000410
     atom   70 type  1   force =     0.00000815    0.00000984    0.00000413
     atom   71 type  1   force =     0.00000722    0.00000738   -0.00002209
     atom   72 type  1   force =     0.00000924    0.00000572    0.00000658
     atom   73 type  1   force =     0.00000581   -0.00000410    0.00001275
     atom   74 type  1   force =    -0.00000632    0.00000456   -0.00000136
     atom   75 type  1   force =    -0.00000797    0.00000421    0.00000131
     atom   76 type  1   force =    -0.00000133   -0.00002011    0.00000436
     atom   77 type  1   force =    -0.00001011   -0.00001360   -0.00000517
     atom   78 type  1   force =    -0.00001372   -0.00000584   -0.00001342
     atom   79 type  1   force =     0.00000731    0.00000056    0.00001910
     atom   80 type  1   force =    -0.00000179    0.00001709    0.00000891
     atom   81 type  1   force =    -0.00000249    0.00001767    0.00000481
     atom   82 type  1   force =     0.00000474   -0.00002116   -0.00000319
     atom   83 type  1   force =    -0.00000220   -0.00001595   -0.00001637
     atom   84 type  1   force =    -0.00001176   -0.00001296   -0.00002078
     atom   85 type  1   force =     0.00000693   -0.00000307    0.00000350
     atom   86 type  1   force =     0.00000194    0.00000802    0.00000889
     atom   87 type  1   force =     0.00000139    0.00001265   -0.00000471
     atom   88 type  1   force =     0.00001258    0.00000451    0.00001416
     atom   89 type  1   force =    -0.00000398    0.00001268    0.00000277
     atom   90 type  1   force =     0.00000337    0.00001509    0.00000377
     atom   91 type  1   force =     0.00000299   -0.00002184   -0.00000244
     atom   92 type  1   force =    -0.00000380   -0.00001123   -0.00000436
     atom   93 type  1   force =    -0.00001413   -0.00000838   -0.00001979
     atom   94 type  1   force =     0.00000252    0.00000678   -0.00000700
     atom   95 type  1   force =     0.00000512    0.00000904    0.00000425
     atom   96 type  1   force =     0.00001580    0.00000825    0.00000244
     atom   97 type  1   force =    -0.00000030   -0.00000169   -0.00001132
     atom   98 type  1   force =     0.00001135    0.00000785   -0.00000344
     atom   99 type  1   force =    -0.00000582   -0.00001838    0.00000739
     atom  100 type  1   force =    -0.00001529   -0.00001340   -0.00000054
     atom  101 type  1   force =    -0.00002017   -0.00000758   -0.00000519
     atom  102 type  1   force =    -0.00000107   -0.00000922    0.00001151
     atom  103 type  1   force =     0.00000536    0.00000536   -0.00000761
     atom  104 type  1   force =    -0.00000715    0.00000561    0.00000015
     atom  105 type  1   force =     0.00000765    0.00000841    0.00001906
     atom  106 type  1   force =    -0.00000028    0.00001557    0.00000401
     atom  107 type  1   force =    -0.00000337    0.00001362    0.00001089
     atom  108 type  1   force =     0.00000475   -0.00001786   -0.00000180
     atom  109 type  1   force =     0.00000361   -0.00001227   -0.00001104
     atom  110 type  1   force =    -0.00000779   -0.00000511   -0.00002196
     atom  111 type  1   force =     0.00000586   -0.00000605   -0.00000709
     atom  112 type  1   force =     0.00000686   -0.00000062    0.00000830
     atom  113 type  1   force =    -0.00000173    0.00000688   -0.00001510
     atom  114 type  1   force =     0.00001414    0.00001168    0.00000744
     atom  115 type  1   force =    -0.00000474    0.00000758    0.00000775
     atom  116 type  1   force =     0.00000317    0.00001322    0.00000648
     atom  117 type  1   force =     0.00000324   -0.00001389   -0.00000131
     atom  118 type  1   force =    -0.00000183   -0.00001085    0.00000013
     atom  119 type  1   force =    -0.00001261   -0.00000248   -0.00001463
     atom  120 type  1   force =    -0.00000305   -0.00000826   -0.00000255
     atom  121 type  1   force =    -0.00000298    0.00000651    0.00000419
     atom  122 type  1   force =     0.00001508    0.00001299    0.00000489
     atom  123 type  1   force =     0.00000335    0.00000387   -0.00001528
     atom  124 type  1   force =     0.00001054    0.00000355    0.00000083
     atom  125 type  1   force =    -0.00000395   -0.00001044    0.00000826
     atom  126 type  1   force =    -0.00000987   -0.00000906    0.00000266
     atom  127 type  1   force =    -0.00001863   -0.00000587   -0.00000204
     atom  128 type  1   force =    -0.00000499   -0.00001314    0.00000784
     atom  129 type  1   force =    -0.00000204   -0.00000995   -0.00000054
     atom  130 type  1   force =    -0.00001148    0.00000311   -0.00000801
     atom  131 type  1   force =     0.00000465    0.00000518    0.00002105
     atom  132 type  1   force =     0.00000340    0.00001706    0.00000841
     atom  133 type  1   force =    -0.00000149    0.00002008    0.00000610
     atom  134 type  1   force =     0.00000040   -0.00002257   -0.00000921
     atom  135 type  1   force =     0.00000200   -0.00001206    0.00000199
     atom  136 type  1   force =    -0.00001525   -0.00000831   -0.00002333
     atom  137 type  1   force =     0.00001077    0.00000938   -0.00000159
     atom  138 type  1   force =    -0.00000200    0.00001346    0.00000882
     atom  139 type  1   force =     0.00000962    0.00001913    0.00001010
     atom  140 type  1   force =     0.00001550    0.00000462    0.00000277
     atom  141 type  1   force =     0.00000163   -0.00000567   -0.00000748
     atom  142 type  1   force =     0.00000078    0.00000271   -0.00001165
     atom  143 type  1   force =    -0.00001087   -0.00001799    0.00000185
     atom  144 type  1   force =    -0.00000238   -0.00001235    0.00000128
     atom  145 type  1   force =    -0.00001764   -0.00000513   -0.00000739
     atom  146 type  1   force =     0.00000138   -0.00000065    0.00001369
     atom  147 type  1   force =     0.00000871    0.00000874   -0.00001326
     atom  148 type  1   force =     0.00000657    0.00000938    0.00000165
     atom  149 type  1   force =     0.00000605    0.00000678    0.00001457
     atom  150 type  1   force =    -0.00000264    0.00000497    0.00000421
     atom  151 type  1   force =    -0.00000717    0.00000763    0.00000481
     atom  152 type  1   force =    -0.00000120   -0.00001968   -0.00000509
     atom  153 type  1   force =    -0.00000464   -0.00001906   -0.00000645
     atom  154 type  1   force =    -0.00001432   -0.00001346   -0.00001914
     atom  155 type  1   force =     0.00000743    0.00000229    0.00000739
     atom  156 type  1   force =    -0.00000193    0.00000730    0.00001324
     atom  157 type  1   force =    -0.00000266    0.00001746    0.00000316
     atom  158 type  1   force =     0.00000920    0.00000317    0.00001349
     atom  159 type  1   force =     0.00000153    0.00000960    0.00000360
     atom  160 type  1   force =    -0.00000068    0.00001376    0.00000016
     atom  161 type  1   force =     0.00000872   -0.00002012   -0.00000105
     atom  162 type  1   force =    -0.00000650   -0.00001025   -0.00001775
     atom  163 type  1   force =    -0.00000426   -0.00000641   -0.00001668
     atom  164 type  1   force =     0.00000070    0.00000519   -0.00000100
     atom  165 type  1   force =     0.00000374    0.00000701    0.00001014
     atom  166 type  1   force =    -0.00000021   -0.00000175   -0.00000752
     atom  167 type  1   force =     0.00000620    0.00000869   -0.00000345
     atom  168 type  1   force =     0.00000138    0.00000345    0.00000015
     atom  169 type  1   force =     0.00001677    0.00001139    0.00000418
     atom  170 type  1   force =    -0.00000102   -0.00001114    0.00001018
     atom  171 type  1   force =    -0.00001775   -0.00000687   -0.00000088
     atom  172 type  1   force =    -0.00001278   -0.00000337   -0.00000114
     atom  173 type  1   force =    -0.00000204   -0.00001073   -0.00000251
     atom  174 type  1   force =     0.00000608    0.00000382   -0.00000417
     atom  175 type  1   force =    -0.00000949   -0.00000491    0.00000292
     atom  176 type  1   force =     0.00000855    0.00001054    0.00000743
     atom  177 type  1   force =     0.00000474    0.00001100   -0.00000577
     atom  178 type  1   force =     0.00000186    0.00001001    0.00001275
     atom  179 type  1   force =     0.00000502   -0.00001405    0.00000230
     atom  180 type  1   force =    -0.00000766   -0.00000607   -0.00001352
     atom  181 type  1   force =    -0.00000760   -0.00000762   -0.00000651
     atom  182 type  1   force =     0.00000245   -0.00001320    0.00000683
     atom  183 type  1   force =    -0.00000537   -0.00000092   -0.00000481
     atom  184 type  1   force =    -0.00000440   -0.00000020   -0.00000998
     atom  185 type  1   force =     0.00000793    0.00000490    0.00001752
     atom  186 type  1   force =    -0.00000460    0.00001993    0.00000891
     atom  187 type  1   force =     0.00000436    0.00001577    0.00000595
     atom  188 type  1   force =     0.00000607   -0.00001855   -0.00000487
     atom  189 type  1   force =    -0.00000310   -0.00001509   -0.00002213
     atom  190 type  1   force =    -0.00000923   -0.00001582   -0.00001986
     atom  191 type  1   force =     0.00000227    0.00000874    0.00000749
     atom  192 type  1   force =     0.00000632    0.00001927    0.00001312
     atom  193 type  1   force =     0.00000982    0.00001191    0.00000208
     atom  194 type  1   force =     0.00001099   -0.00000291    0.00000825
     atom  195 type  1   force =    -0.00000345    0.00000349   -0.00000865
     atom  196 type  1   force =     0.00000526    0.00001122   -0.00000054
     atom  197 type  1   force =    -0.00000245   -0.00001240    0.00000131
     atom  198 type  1   force =    -0.00000714   -0.00000651    0.00000054
     atom  199 type  1   force =    -0.00001152   -0.00001323   -0.00001089
     atom  200 type  1   force =     0.00000382    0.00001118   -0.00001281
     atom  201 type  1   force =     0.00001534    0.00000700    0.00000413
     atom  202 type  1   force =     0.00000958    0.00000469    0.00000697
     atom  203 type  1   force =     0.00001130   -0.00000130    0.00000289
     atom  204 type  1   force =    -0.00000389   -0.00000200   -0.00000958
     atom  205 type  1   force =     0.00000735    0.00000951   -0.00000249
     atom  206 type  1   force =    -0.00000373   -0.00002261    0.00000353
     atom  207 type  1   force =    -0.00001806   -0.00001400   -0.00000737
     atom  208 type  1   force =    -0.00001699   -0.00001113   -0.00000621
     atom  209 type  1   force =     0.00000349   -0.00000277    0.00001571
     atom  210 type  1   force =    -0.00000006    0.00001415   -0.00000089
     atom  211 type  1   force =    -0.00000406    0.00000899    0.00000566
     atom  212 type  1   force =     0.00000598    0.00000566    0.00001715
     atom  213 type  1   force =    -0.00000590    0.00001442    0.00000464
     atom  214 type  1   force =    -0.00000393    0.00001030    0.00001191
     atom  215 type  2   force =     0.00000852    0.00000978    0.00000213

     Total force =     0.003205     Total SCF correction =     0.000244


     Computing stress (Cartesian axis) and pressure

          total   stress  (Ry/bohr**3)                   (kbar)     P=      -22.71
  -0.00019088   0.00003854  -0.00002417          -28.08        5.67       -3.56
   0.00003854  -0.00010603  -0.00006273            5.67      -15.60       -9.23
  -0.00002417  -0.00006273  -0.00016630           -3.56       -9.23      -24.46

     kinetic stress (kbar)  18876.78     14.46     -9.13
                               14.46  18908.79    -23.59
                               -9.13    -23.59  18886.01

     local   stress (kbar)  -3515.56    -16.31      9.95
                              -16.31  -3550.50     26.24
                                9.95     26.24  -3525.88

     nonloc. stress (kbar)   4202.69      0.38     -0.23
                                0.38   4203.48     -0.60
                               -0.23     -0.60   4202.92

     hartree stress (kbar)   1291.69     -4.71      3.00
                               -4.71   1281.16      7.71
                                3.00      7.71   1288.68

     exc-cor stress (kbar)   -446.42      0.30     -0.19
                                0.30   -445.77     -0.49
                               -0.19     -0.49   -446.23

     corecor stress (kbar)  -4253.35     -0.58      0.37
                               -0.58  -4254.64      0.95
                                0.37      0.95  -4253.72

     ewald   stress (kbar) -16183.90     12.13     -7.33
                               12.13 -16158.11    -19.46
                               -7.33    -19.46 -16176.24

     hubbard stress (kbar)      0.00      0.00      0.00
                                0.00      0.00      0.00
                                0.00      0.00      0.00

     DFT-D   stress (kbar)      0.00      0.00      0.00
                                0.00      0.00      0.00
                                0.00      0.00      0.00

     XDM     stress (kbar)      0.00      0.00      0.00
                                0.00      0.00      0.00
                                0.00      0.00      0.00

     dft-nl  stress (kbar)      0.00      0.00      0.00
                                0.00      0.00      0.00
                                0.00      0.00      0.00

     TS-vdW  stress (kbar)      0.00      0.00      0.00
                                0.00      0.00      0.00
                                0.00      0.00      0.00

     MDB     stress (kbar)      0.00      0.00      0.00
                                0.00      0.00      0.00
                                0.00      0.00      0.00

     3D-RISM stress (kbar)      0.00      0.00      0.00
                                0.00      0.00      0.00
                                0.00      0.00      0.00


     Writing all to output data dir ../tmp/diamond_pd.save/ :
     XML data file, charge density, pseudopotentials, collected wavefunctions
 
     init_run     :      5.85s CPU      6.24s WALL (       1 calls)
     electrons    :    399.04s CPU    405.76s WALL (       1 calls)
     forces       :      4.07s CPU      4.21s WALL (       1 calls)
     stress       :     14.28s CPU     14.40s WALL (       1 calls)

     Called by init_run:
     wfcinit      :      4.92s CPU      5.11s WALL (       1 calls)
     wfcinit:wfcr :      4.64s CPU      4.78s WALL (       2 calls)
     potinit      :      0.63s CPU      0.77s WALL (       1 calls)
     hinit0       :      0.10s CPU      0.11s WALL (       1 calls)

     Called by electrons:
     c_bands      :    357.81s CPU    363.89s WALL (      17 calls)
     sum_band     :     26.39s CPU     26.71s WALL (      17 calls)
     v_of_rho     :      0.65s CPU      0.66s WALL (      18 calls)
     v_h          :      0.04s CPU      0.04s WALL (      18 calls)
     v_xc         :      0.68s CPU      0.69s WALL (      20 calls)
     newd         :      2.45s CPU      2.52s WALL (      18 calls)
     PAW_pot      :     11.91s CPU     12.13s WALL (      18 calls)
     mix_rho      :      0.48s CPU      0.49s WALL (      17 calls)

     Called by c_bands:
     init_us_2    :      5.35s CPU      5.47s WALL (      74 calls)
     cegterg      :    351.52s CPU    357.46s WALL (      34 calls)

     Called by sum_band:
     sum_band:wei :      0.00s CPU      0.00s WALL (      17 calls)
     sum_band:loo :     23.91s CPU     24.19s WALL (      17 calls)
     sum_band:buf :      0.92s CPU      0.93s WALL (      34 calls)
     sum_band:ini :      2.44s CPU      2.48s WALL (      34 calls)
     sum_band:cal :     12.84s CPU     12.93s WALL (      34 calls)
     sum_band:bec :      0.60s CPU      0.60s WALL (      34 calls)
     addusdens    :      1.94s CPU      1.96s WALL (      17 calls)
                                        0.00s GPU  (      17 calls)
     addusd:skk   :      0.63s CPU      0.64s WALL (      34 calls)
                                        0.00s GPU  (      34 calls)

     Called by *egterg:
     cdiaghg      :     60.10s CPU     61.04s WALL (     195 calls)
     cegterg:over :     41.61s CPU     41.97s WALL (     161 calls)
     cegterg:upda :     32.93s CPU     33.28s WALL (     161 calls)
     cegterg:last :     73.40s CPU     74.07s WALL (      78 calls)
     cdiaghg:chol :      4.13s CPU      4.16s WALL (     195 calls)
     cdiaghg:inve :      1.40s CPU      1.41s WALL (     195 calls)
     cdiaghg:para :     21.17s CPU     21.40s WALL (     390 calls)
     h_psi        :    100.89s CPU    103.39s WALL (     197 calls)
     s_psi        :     31.69s CPU     31.90s WALL (     197 calls)
     g_psi        :      0.83s CPU      0.84s WALL (     161 calls)

     Called by h_psi:
     h_psi:calbec :     33.63s CPU     33.90s WALL (     197 calls)
     vloc_psi     :     33.07s CPU     33.69s WALL (     197 calls)
     add_vuspsi   :     32.45s CPU     33.36s WALL (     197 calls)

     General routines
     calbec       :     59.31s CPU     59.77s WALL (     265 calls)
     fft          :      0.25s CPU      0.26s WALL (     420 calls)
     ffts         :      0.02s CPU      0.02s WALL (      34 calls)
     fftw         :     35.12s CPU     35.78s WALL (  173128 calls)
 
     Parallel routines

     PAW routines
     PAW_pot      :     11.91s CPU     12.13s WALL (      18 calls)
 
     PWSCF        :   7m 4.08s CPU   7m22.48s WALL

 
   This run was terminated on:   4:21:51   3Aug2026            

=------------------------------------------------------------------------------=
   JOB DONE.
=------------------------------------------------------------------------------=
