
     Program PWSCF v.7.4.1 starts on  1Aug2026 at 16:57:18 

     This program is part of the open-source Quantum ESPRESSO suite
     for quantum simulation of materials; please cite
         "P. Giannozzi et al., J. Phys.:Condens. Matter 21 395502 (2009);
         "P. Giannozzi et al., J. Phys.:Condens. Matter 29 465901 (2017);
         "P. Giannozzi et al., J. Chem. Phys. 152 154105 (2020);
          URL http://www.quantum-espresso.org", 
     in publications or presentations arising from this work. More details at
     http://www.quantum-espresso.org/quote

     Parallel version (MPI), running on    36 processors

     MPI processes distributed on     1 nodes
     114780 MiB available memory on the printing compute node when the environment starts
 
     Reading input from diamond_pd_nscf.in

     Current dimensions of program PWSCF are:
     Max number of different atomic species (ntypx) = 10
     Max number of k-points (npk) =  40000
     Max angular momentum in pseudopotentials (lmaxx) =  4
     file C.pbe-n-kjpaw_psl.1.0.0.UPF: wavefunction(s)  2S 2P renormalized
     file N.pbe-n-kjpaw_psl.1.0.0.UPF: wavefunction(s)  2S renormalized

     Atomic positions and unit cell read from directory:
     ../tmp/diamond_pd.save/
 
 
     R & G space division:  proc/nbgrp/npool/nimage =      36
     Subspace diagonalization in iterative solution of the eigenvalue problem:
     one sub-group per band group will be used
     scalapack distributed-memory algorithm (size of sub-group:  6*  6 procs)

 
     Parallelization info
     --------------------
     sticks:   dense  smooth     PW     G-vecs:    dense   smooth      PW
     Min         163     163     40                 9409     9409    1174
     Max         164     164     41                 9414     9414    1179
     Sum        5877    5877   1473               338755   338755   42379
 
     Using Slab Decomposition
 


     bravais-lattice index     =            0
     lattice parameter (alat)  =      20.2515  a.u.
     unit-cell volume          =    8305.5769 (a.u.)^3
     number of atoms/cell      =          215
     number of atomic types    =            2
     number of electrons       =       861.00 (up: 431.00, down: 430.00)
     number of Kohn-Sham states=          861
     kinetic-energy cutoff     =      45.0000  Ry
     charge density cutoff     =     180.0000  Ry
     Exchange-correlation= SLA  PW   PBX  PBC
                           (   1   4   3   4   0   0   0)

     celldm(1)=  20.251472  celldm(2)=   0.000000  celldm(3)=   0.000000
     celldm(4)=   0.000000  celldm(5)=   0.000000  celldm(6)=   0.000000

     crystal axes: (cart. coord. in units of alat)
               a(1) = (  -0.707107   0.000000   0.707107 )  
               a(2) = (   0.408248   0.816497   0.408248 )  
               a(3) = (  -0.577350   0.577350  -0.577350 )  

     reciprocal axes: (cart. coord. in units 2 pi/alat)
               b(1) = ( -0.707107  0.000000  0.707107 )  
               b(2) = (  0.408248  0.816497  0.408248 )  
               b(3) = ( -0.577350  0.577350 -0.577350 )  


     PseudoPot. # 1 for C  read from file:
     ../../../pseudos/C.pbe-n-kjpaw_psl.1.0.0.UPF
     MD5 check sum: 5f16ad9a65e90284d1d834d4ab3b0f7d
     Pseudo is Projector augmented-wave + core cor, Zval =  4.0
     Generated using &quot;atomic&quot; code by A. Dal Corso  v.6.3
     Shape of augmentation charge: PSQ
     Using radial grid of 1073 points,  4 beta functions with: 
                l(1) =   0
                l(2) =   0
                l(3) =   1
                l(4) =   1
     Q(r) pseudized with 0 coefficients 


     PseudoPot. # 2 for N  read from file:
     ../../../pseudos/N.pbe-n-kjpaw_psl.1.0.0.UPF
     MD5 check sum: a6186d50559fdcbe4b2d0187dd61a119
     Pseudo is Projector augmented-wave + core cor, Zval =  5.0
     Generated using &quot;atomic&quot; code by A. Dal Corso  v.6.3
     Shape of augmentation charge: PSQ
     Using radial grid of 1085 points,  4 beta functions with: 
                l(1) =   0
                l(2) =   0
                l(3) =   1
                l(4) =   1
     Q(r) pseudized with 0 coefficients 


     atomic species   valence    mass     pseudopotential
     C                 4.00    12.01070     C ( 1.00)
     N                 5.00    14.00670     N ( 1.00)

     Starting magnetic structure 
     atomic species   magnetization
     C               0.000
     N               0.000

     No symmetry found


                                    s                        frac. trans.

      isym =  1     identity                                     

 cryst.   s( 1) = (     1          0          0      )
                  (     0          1          0      )
                  (     0          0          1      )

 cart.    s( 1) = (  1.0000000  0.0000000 -0.0000000 )
                  (  0.0000000  1.0000000  0.0000000 )
                  ( -0.0000000  0.0000000  1.0000000 )


   Cartesian axes

     site n.     atom                  positions (alat units)
         1        C      tau(   1) = (  -0.0000733   0.0002112   0.0000220  )
         2        C      tau(   2) = (  -0.1924986   0.1928377  -0.1921736  )
         3        C      tau(   3) = (  -0.3848159   0.3851817  -0.3849568  )
         4        C      tau(   4) = (   0.1357214   0.2724772   0.1360465  )
         5        C      tau(   5) = (  -0.0572329   0.4654932  -0.0557147  )
         6        C      tau(   6) = (  -0.2489669   0.6574594  -0.2487641  )
         7        C      tau(   7) = (   0.2721566   0.5445900   0.2720156  )
         8        C      tau(   8) = (   0.0795665   0.7371750   0.0797694  )
         9        C      tau(   9) = (  -0.1128983   0.9292687  -0.1125801  )
        10        C      tau(  10) = (  -0.2357753  -0.0000108   0.2357779  )
        11        C      tau(  11) = (  -0.4282415   0.1925427   0.0434084  )
        12        C      tau(  12) = (  -0.6205342   0.3851574  -0.1490879  )
        13        C      tau(  13) = (  -0.0997957   0.2722370   0.3718543  )
        14        C      tau(  14) = (  -0.2949390   0.4640277   0.1823470  )
        15        C      tau(  15) = (  -0.4839816   0.6577025  -0.0131160  )
        16        C      tau(  16) = (   0.0362977   0.5445316   0.5077440  )
        17        C      tau(  17) = (  -0.1561207   0.7372549   0.3147449  )
        18        C      tau(  18) = (  -0.3478055   0.9293829   0.1222994  )
        19        C      tau(  19) = (  -0.4714682  -0.0001129   0.4714956  )
        20        C      tau(  20) = (  -0.6641565   0.1921520   0.2790846  )
        21        C      tau(  21) = (  -0.8562113   0.3849268   0.0865249  )
        22        C      tau(  22) = (  -0.3353866   0.2719250   0.6078545  )
        23        C      tau(  23) = (  -0.5282945   0.4638684   0.4157412  )
        24        C      tau(  24) = (  -0.7188340   0.6567055   0.2224805  )
        25        C      tau(  25) = (  -0.1992626   0.5443293   0.7434737  )
        26        C      tau(  26) = (  -0.3914609   0.7361395   0.5498536  )
        27        C      tau(  27) = (  -0.5836816   0.9289841   0.3582723  )
        28        C      tau(  28) = (  -0.0500168   0.1363756   0.1858441  )
        29        C      tau(  29) = (  -0.2427793   0.3295333  -0.0055455  )
        30        C      tau(  30) = (  -0.4349898   0.5212500  -0.1990283  )
        31        C      tau(  31) = (   0.0860050   0.4085821   0.3218727  )
        32        C      tau(  32) = (  -0.1092085   0.6025875   0.1303418  )
        33        C      tau(  33) = (  -0.2993442   0.7935696  -0.0629092  )
        34        C      tau(  34) = (   0.2223759   0.6807121   0.4580117  )
        35        C      tau(  35) = (   0.0301666   0.8733160   0.2657910  )
        36        C      tau(  36) = (  -0.1623930   1.0657723   0.0731374  )
        37        C      tau(  37) = (  -0.2856036   0.1357870   0.4218963  )
        38        C      tau(  38) = (  -0.4784741   0.3274458   0.2296512  )
        39        C      tau(  39) = (  -0.6696240   0.5211830   0.0374430  )
        40        C      tau(  40) = (  -0.1495034   0.4082204   0.5577514  )
        41        C      tau(  41) = (  -0.3432508   0.5972405   0.3636874  )
        42        C      tau(  42) = (  -0.5308876   0.7917367   0.1714899  )
        43        C      tau(  43) = (  -0.0135702   0.6803819   0.6936446  )
        44        C      tau(  44) = (  -0.2058777   0.8728276   0.5009704  )
        45        C      tau(  45) = (  -0.3980519   1.0654173   0.3085768  )
        46        C      tau(  46) = (  -0.5213186   0.1361259   0.6574850  )
        47        C      tau(  47) = (  -0.7140751   0.3285868   0.4652918  )
        48        C      tau(  48) = (  -0.9059344   0.5211602   0.2724513  )
        49        C      tau(  49) = (  -0.3851711   0.4082356   0.7933801  )
        50        C      tau(  50) = (  -0.5778556   0.6008268   0.6009969  )
        51        C      tau(  51) = (  -0.7697952   0.7931473   0.4084553  )
        52        C      tau(  52) = (  -0.2490886   0.6804623   0.9293869  )
        53        C      tau(  53) = (  -0.4414818   0.8727630   0.7367073  )
        54        C      tau(  54) = (  -0.6338786   1.0653069   0.5444270  )
        55        C      tau(  55) = (  -0.2141040   0.0965613   0.0217569  )
        56        C      tau(  56) = (  -0.4065129   0.2890772  -0.1706453  )
        57        C      tau(  57) = (  -0.5990011   0.4814126  -0.3633653  )
        58        C      tau(  58) = (  -0.0792272   0.3692176   0.1580066  )
        59        C      tau(  59) = (  -0.2717688   0.5631438  -0.0322183  )
        60        C      tau(  60) = (  -0.4631705   0.7536124  -0.2275461  )
        61        C      tau(  61) = (   0.0580384   0.6408787   0.2939999  )
        62        C      tau(  62) = (  -0.1344957   0.8335685   0.1019393  )
        63        C      tau(  63) = (  -0.3268946   1.0258575  -0.0913642  )
        64        C      tau(  64) = (  -0.4500042   0.0958967   0.2574956  )
        65        C      tau(  65) = (  -0.6422958   0.2886489   0.0649590  )
        66        C      tau(  66) = (  -0.8345651   0.4811751  -0.1273503  )
        67        C      tau(  67) = (  -0.3139461   0.3673670   0.3941792  )
        68        C      tau(  68) = (  -0.5038739   0.5582667   0.2030642  )
        69        C      tau(  69) = (  -0.6982596   0.7533557   0.0085886  )
        70        C      tau(  70) = (  -0.1783645   0.6403826   0.5287024  )
        71        C      tau(  71) = (  -0.3683812   0.8311674   0.3339963  )
        72        C      tau(  72) = (  -0.5622567   1.0255745   0.1443721  )
        73        C      tau(  73) = (  -0.6856764   0.0962460   0.4931272  )
        74        C      tau(  74) = (  -0.8779292   0.2886724   0.3006220  )
        75        C      tau(  75) = (  -1.0703200   0.4811981   0.1081556  )
        76        C      tau(  76) = (  -0.5498545   0.3684333   0.6295124  )
        77        C      tau(  77) = (  -0.7419514   0.5610104   0.4369011  )
        78        C      tau(  78) = (  -0.9339774   0.7532635   0.2442117  )
        79        C      tau(  79) = (  -0.4134047   0.6406679   0.7649811  )
        80        C      tau(  80) = (  -0.6057346   0.8329551   0.5725159  )
        81        C      tau(  81) = (  -0.7980802   1.0254649   0.3802255  )
        82        C      tau(  82) = (  -0.0285745   0.2327342  -0.0278963  )
        83        C      tau(  83) = (  -0.2208315   0.4251350  -0.2203046  )
        84        C      tau(  84) = (  -0.4130986   0.6174382  -0.4131082  )
        85        C      tau(  85) = (   0.1074848   0.5047978   0.1080117  )
        86        C      tau(  86) = (  -0.0850946   0.6974145  -0.0841266  )
        87        C      tau(  87) = (  -0.2770302   0.8898371  -0.2776187  )
        88        C      tau(  88) = (   0.2439508   0.7768651   0.2439412  )
        89        C      tau(  89) = (   0.0520217   0.9696784   0.0514331  )
        90        C      tau(  90) = (  -0.1408762   1.1616937  -0.1409980  )
        91        C      tau(  91) = (  -0.2641250   0.2314956   0.2079547  )
        92        C      tau(  92) = (  -0.4564423   0.4249642   0.0154523  )
        93        C      tau(  93) = (  -0.6491827   0.6172778  -0.1776845  )
        94        C      tau(  94) = (  -0.1282277   0.5046025   0.3436670  )
        95        C      tau(  95) = (  -0.5126356   0.8896567  -0.0415056  )
        96        C      tau(  96) = (   0.0085460   0.7768695   0.4800443  )
        97        C      tau(  97) = (  -0.1840344   0.9693887   0.2870956  )
        98        C      tau(  98) = (  -0.3765735   1.1621854   0.0945800  )
        99        C      tau(  99) = (  -0.4999000   0.2319734   0.4436139  )
       100        C      tau( 100) = (  -0.6924902   0.4241731   0.2512014  )
       101        C      tau( 101) = (  -0.8842089   0.6171554   0.0585385  )
       102        C      tau( 102) = (  -0.3637988   0.5039270   0.5798928  )
       103        C      tau( 103) = (  -0.5554821   0.6966461   0.3864474  )
       104        C      tau( 104) = (  -0.7479284   0.8891233   0.1942729  )
       105        C      tau( 105) = (  -0.2276138   0.7764721   0.7151335  )
       106        C      tau( 106) = (  -0.4196733   0.9687713   0.5225280  )
       107        C      tau( 107) = (  -0.6122632   1.1615264   0.3304296  )
       108        C      tau( 108) = (  -0.0731883   0.1165038   0.0449197  )
       109        C      tau( 109) = (  -0.2657126   0.3092760  -0.1470835  )
       110        C      tau( 110) = (  -0.4579651   0.5012769  -0.3402273  )
       111        C      tau( 111) = (   0.0623823   0.3888852   0.1810114  )
       112        C      tau( 112) = (  -0.1306717   0.5821549  -0.0105827  )
       113        C      tau( 113) = (  -0.3219949   0.7741741  -0.2053954  )
       114        C      tau( 114) = (   0.1992505   0.6607442   0.3169883  )
       115        C      tau( 115) = (   0.0078398   0.8542054   0.1244393  )
       116        C      tau( 116) = (  -0.1857443   1.0456540  -0.0679739  )
       117        C      tau( 117) = (  -0.3088702   0.1156688   0.2808043  )
       118        C      tau( 118) = (  -0.5013597   0.3084264   0.0883810  )
       119        C      tau( 119) = (  -0.6932941   0.5012211  -0.1040553  )
       120        C      tau( 120) = (  -0.1728871   0.3881272   0.4168536  )
       121        C      tau( 121) = (  -0.5571732   0.7733514   0.0312565  )
       122        C      tau( 122) = (  -0.0368842   0.6604929   0.5523546  )
       123        C      tau( 123) = (  -0.2285761   0.8530824   0.3598537  )
       124        C      tau( 124) = (  -0.4214993   1.0468868   0.1674820  )
       125        C      tau( 125) = (  -0.5446045   0.1160169   0.5164541  )
       126        C      tau( 126) = (  -0.7372519   0.3083714   0.3240966  )
       127        C      tau( 127) = (  -0.9291758   0.5011162   0.1314287  )
       128        C      tau( 128) = (  -0.4085948   0.3881170   0.6527537  )
       129        C      tau( 129) = (  -0.6008721   0.5805854   0.4599985  )
       130        C      tau( 130) = (  -0.7924471   0.7730359   0.2674284  )
       131        C      tau( 131) = (  -0.2723549   0.6604877   0.7882497  )
       132        C      tau( 132) = (  -0.4646478   0.8525733   0.5952276  )
       133        C      tau( 133) = (  -0.6570270   1.0454192   0.4033658  )
       134        C      tau( 134) = (  -0.1232463   0.2524290   0.2308912  )
       135        C      tau( 135) = (  -0.3165667   0.4462739   0.0400094  )
       136        C      tau( 136) = (  -0.5087989   0.6371524  -0.1552059  )
       137        C      tau( 137) = (   0.0130191   0.5246190   0.3667790  )
       138        C      tau( 138) = (  -0.1687766   0.7216962   0.1772274  )
       139        C      tau( 139) = (  -0.3717648   0.9099851  -0.0187028  )
       140        C      tau( 140) = (   0.1494640   0.7968249   0.5031056  )
       141        C      tau( 141) = (  -0.0429905   0.9893797   0.3105707  )
       142        C      tau( 142) = (  -0.2354675   1.1819169   0.1179655  )
       143        C      tau( 143) = (  -0.3587204   0.2516456   0.4669856  )
       144        C      tau( 144) = (  -0.5520635   0.4431599   0.2747540  )
       145        C      tau( 145) = (  -0.7428255   0.6371365   0.0817260  )
       146        C      tau( 146) = (  -0.2227000   0.5242726   0.6024275  )
       147        C      tau( 147) = (  -0.4146419   0.7155167   0.4076176  )
       148        C      tau( 148) = (  -0.6068527   0.9095341   0.2174154  )
       149        C      tau( 149) = (  -0.0865687   0.7963803   0.7385509  )
       150        C      tau( 150) = (  -0.2788800   0.9888887   0.5460761  )
       151        C      tau( 151) = (  -0.4712357   1.1816169   0.3537567  )
       152        C      tau( 152) = (  -0.5945886   0.2524522   0.7023412  )
       153        C      tau( 153) = (  -0.7870646   0.4451033   0.5101393  )
       154        C      tau( 154) = (  -0.9790467   0.6372791   0.3171764  )
       155        C      tau( 155) = (  -0.4582129   0.5246333   0.8381449  )
       156        C      tau( 156) = (  -0.6508470   0.7170322   0.6458248  )
       157        C      tau( 157) = (  -0.8429698   0.9093859   0.4532253  )
       158        C      tau( 158) = (  -0.3221231   0.7966882   0.9743154  )
       159        C      tau( 159) = (  -0.5143165   0.9893197   0.7817662  )
       160        C      tau( 160) = (  -0.7069076   1.1815693   0.5893245  )
       161        C      tau( 161) = (  -0.2873111   0.2126202   0.0668264  )
       162        C      tau( 162) = (  -0.4795724   0.4050963  -0.1258124  )
       163        C      tau( 163) = (  -0.6722585   0.5974415  -0.3186169  )
       164        C      tau( 164) = (  -0.1531055   0.4859362   0.2034707  )
       165        C      tau( 165) = (  -0.3470912   0.6784299  -0.0010871  )
       166        C      tau( 166) = (  -0.5361182   0.8697269  -0.1825569  )
       167        C      tau( 167) = (  -0.0139599   0.7572205   0.3396331  )
       168        C      tau( 168) = (  -0.2069484   0.9499763   0.1461136  )
       169        C      tau( 169) = (  -0.3999060   1.1420174  -0.0464730  )
       170        C      tau( 170) = (  -0.5232031   0.2117354   0.3025028  )
       171        C      tau( 171) = (  -0.7151413   0.4047863   0.1099862  )
       172        C      tau( 172) = (  -0.9076158   0.5971608  -0.0824962  )
       173        C      tau( 173) = (  -0.3871376   0.4831777   0.4396799  )
       174        C      tau( 174) = (  -0.5764674   0.6762513   0.2457921  )
       175        C      tau( 175) = (  -0.7715188   0.8693545   0.0534373  )
       176        C      tau( 176) = (  -0.2508050   0.7565207   0.5737466  )
       177        C      tau( 177) = (  -0.4429308   0.9493082   0.3813373  )
       178        C      tau( 178) = (  -0.6356259   1.1417292   0.1893666  )
       179        C      tau( 179) = (  -0.7587635   0.2126167   0.5381663  )
       180        C      tau( 180) = (  -0.9509378   0.4050782   0.3454200  )
       181        C      tau( 181) = (  -1.1434468   0.5974017   0.1529917  )
       182        C      tau( 182) = (  -0.6229700   0.4849193   0.6742340  )
       183        C      tau( 183) = (  -0.8149745   0.6772082   0.4816973  )
       184        C      tau( 184) = (  -1.0073032   0.8697010   0.2887795  )
       185        C      tau( 185) = (  -0.4863110   0.7568368   0.8099121  )
       186        C      tau( 186) = (  -0.6787146   0.9492409   0.6174806  )
       187        C      tau( 187) = (  -0.8711854   1.1417088   0.4250467  )
       188        C      tau( 188) = (  -0.1018668   0.3492211   0.0171315  )
       189        C      tau( 189) = (  -0.2941300   0.5412605  -0.1758802  )
       190        C      tau( 190) = (  -0.4863601   0.7336618  -0.3684939  )
       191        C      tau( 191) = (   0.0348638   0.6210878   0.1531135  )
       192        C      tau( 192) = (  -0.1580090   0.8131837  -0.0393025  )
       193        C      tau( 193) = (  -0.3501209   1.0059042  -0.2324920  )
       194        C      tau( 194) = (   0.1711232   0.8931940   0.2889894  )
       195        C      tau( 195) = (  -0.0212620   1.0856988   0.0963669  )
       196        C      tau( 196) = (  -0.2139361   1.2778908  -0.0961322  )
       197        C      tau( 197) = (  -0.3372622   0.3464143   0.2532080  )
       198        C      tau( 198) = (  -0.5276504   0.5410359   0.0608490  )
       199        C      tau( 199) = (  -0.7218921   0.7333584  -0.1324914  )
       200        C      tau( 200) = (  -0.2017208   0.6201197   0.3867787  )
       201        C      tau( 201) = (  -0.3950030   0.8214589   0.1956836  )
       202        C      tau( 202) = (  -0.5858029   1.0056916   0.0033637  )
       203        C      tau( 203) = (  -0.0647944   0.8927970   0.5246064  )
       204        C      tau( 204) = (  -0.2570626   1.0854574   0.3321040  )
       205        C      tau( 205) = (  -0.4497004   1.2779556   0.1396164  )
       206        C      tau( 206) = (  -0.5731013   0.3481516   0.4886256  )
       207        C      tau( 207) = (  -0.7647494   0.5408581   0.2957820  )
       208        C      tau( 208) = (  -0.9573863   0.7332664   0.1033780  )
       209        C      tau( 209) = (  -0.4366738   0.6204626   0.6238576  )
       210        C      tau( 210) = (  -0.6286751   0.8128959   0.4314334  )
       211        C      tau( 211) = (  -0.8212569   1.0055501   0.2392257  )
       212        C      tau( 212) = (  -0.3006313   0.8926219   0.7601330  )
       213        C      tau( 213) = (  -0.4928796   1.0852278   0.5676030  )
       214        C      tau( 214) = (  -0.6853668   1.2777273   0.3753382  )
       215        N      tau( 215) = (  -0.3686238   0.5704673   0.2302053  )

   Crystallographic axes

     site n.     atom                  positions (cryst. coord.)
         1        C      tau(   1) = (  0.0000674  0.0001516  0.0001516  )
         2        C      tau(   2) = (  0.0002298  0.0004095  0.3334255  )
         3        C      tau(   3) = ( -0.0000996  0.0002412  0.6668132  )
         4        C      tau(   4) = (  0.0002298  0.3334255  0.0004095  )
         5        C      tau(   5) = (  0.0010735  0.3339629  0.3339629  )
         6        C      tau(   6) = (  0.0001434  0.3336155  0.6669495  )
         7        C      tau(   7) = ( -0.0000996  0.6668132  0.0002412  )
         8        C      tau(   8) = (  0.0001434  0.6669495  0.3336155  )
         9        C      tau(   9) = (  0.0002250  0.6666935  0.6666935  )
        10        C      tau(  10) = (  0.3334385 -0.0000077 -0.0000077  )
        11        C      tau(  11) = (  0.3335069  0.0001030  0.3333481  )
        12        C      tau(  12) = (  0.3333629  0.0002829  0.6667122  )
        13        C      tau(  13) = (  0.3335069  0.3333481  0.0001030  )
        14        C      tau(  14) = (  0.3374921  0.3329116  0.3329115  )
        15        C      tau(  15) = (  0.3329522  0.3340727  0.6667241  )
        16        C      tau(  16) = (  0.3333629  0.6667122  0.0002828  )
        17        C      tau(  17) = (  0.3329522  0.6667241  0.3340726  )
        18        C      tau(  18) = (  0.3324144  0.6667755  0.6667755  )
        19        C      tau(  19) = (  0.6667762 -0.0000810 -0.0000810  )
        20        C      tau(  20) = (  0.6669722 -0.0003135  0.3332604  )
        21        C      tau(  21) = (  0.6666152  0.0000682  0.6666162  )
        22        C      tau(  22) = (  0.6669722  0.3332604 -0.0003135  )
        23        C      tau(  23) = (  0.6675341  0.3327972  0.3327972  )
        24        C      tau(  24) = (  0.6656099  0.3335623  0.6657189  )
        25        C      tau(  25) = (  0.6666152  0.6666162  0.0000682  )
        26        C      tau(  26) = (  0.6656099  0.6657189  0.3335623  )
        27        C      tau(  27) = (  0.6660620  0.6664894  0.6664894  )
        28        C      tau(  28) = (  0.1667788  0.1668014  0.0003166  )
        29        C      tau(  29) = (  0.1677496  0.1676846  0.3336265  )
        30        C      tau(  30) = (  0.1668500  0.1667621  0.6669944  )
        31        C      tau(  31) = (  0.1667836  0.5001212  0.0004067  )
        32        C      tau(  32) = (  0.1693877  0.5006382  0.3357027  )
        33        C      tau(  33) = (  0.1671848  0.5000575  0.6673147  )
        34        C      tau(  34) = (  0.1666196  0.8335662  0.0001873  )
        35        C      tau(  35) = (  0.1666116  0.8338837  0.3333381  )
        36        C      tau(  36) = (  0.1665452  0.8337610  0.6668557  )
        37        C      tau(  37) = (  0.5002779  0.1665109 -0.0002920  )
        38        C      tau(  38) = (  0.5007202  0.1657768  0.3327089  )
        39        C      tau(  39) = (  0.4999718  0.1674574  0.6658950  )
        40        C      tau(  40) = (  0.5001047  0.4999771 -0.0000160  )
        41        C      tau(  41) = (  0.4998808  0.4959880  0.3330178  )
        42        C      tau(  42) = (  0.4966559  0.4997268  0.6646078  )
        43        C      tau(  43) = (  0.5000764  0.8331687  0.0001775  )
        44        C      tau(  44) = (  0.4998171  0.8331318  0.3335554  )
        45        C      tau(  45) = (  0.4996620  0.8333815  0.6667774  )
        46        C      tau(  46) = (  0.8335400  0.1667360 -0.0000234  )
        47        C      tau(  47) = (  0.8339383  0.1667246  0.3333447  )
        48        C      tau(  48) = (  0.8332445  0.1669071  0.6666336  )
        49        C      tau(  49) = (  0.8333615  0.4999736  0.0000153  )
        50        C      tau(  50) = (  0.8335746  0.5000204  0.3335268  )
        51        C      tau(  51) = (  0.8331489  0.5000856  0.6665435  )
        52        C      tau(  52) = (  0.8333080  0.8333257  0.0000946  )
        53        C      tau(  53) = (  0.8331055  0.8331333  0.3334414  )
        54        C      tau(  54) = (  0.8331879  0.8333010  0.6667002  )
        55        C      tau(  55) = (  0.1667788  0.0003166  0.1668014  )
        56        C      tau(  56) = (  0.1667836  0.0004067  0.5001212  )
        57        C      tau(  57) = (  0.1666196  0.0001873  0.8335662  )
        58        C      tau(  58) = (  0.1677496  0.3336265  0.1676846  )
        59        C      tau(  59) = (  0.1693877  0.3357028  0.5006383  )
        60        C      tau(  60) = (  0.1666116  0.3333381  0.8338837  )
        61        C      tau(  61) = (  0.1668500  0.6669944  0.1667621  )
        62        C      tau(  62) = (  0.1671848  0.6673147  0.5000575  )
        63        C      tau(  63) = (  0.1665451  0.6668557  0.8337610  )
        64        C      tau(  64) = (  0.5002779 -0.0002920  0.1665109  )
        65        C      tau(  65) = (  0.5001047 -0.0000160  0.4999771  )
        66        C      tau(  66) = (  0.5000764  0.0001775  0.8331687  )
        67        C      tau(  67) = (  0.5007202  0.3327089  0.1657768  )
        68        C      tau(  68) = (  0.4998808  0.3330178  0.4959880  )
        69        C      tau(  69) = (  0.4998171  0.3335554  0.8331319  )
        70        C      tau(  70) = (  0.4999718  0.6658950  0.1674574  )
        71        C      tau(  71) = (  0.4966559  0.6646077  0.4997268  )
        72        C      tau(  72) = (  0.4996620  0.6667775  0.8333815  )
        73        C      tau(  73) = (  0.8335400 -0.0000234  0.1667360  )
        74        C      tau(  74) = (  0.8333615  0.0000153  0.4999736  )
        75        C      tau(  75) = (  0.8333080  0.0000947  0.8333257  )
        76        C      tau(  76) = (  0.8339383  0.3333447  0.1667246  )
        77        C      tau(  77) = (  0.8335746  0.3335268  0.5000204  )
        78        C      tau(  78) = (  0.8331055  0.3334414  0.8331333  )
        79        C      tau(  79) = (  0.8332445  0.6666337  0.1669071  )
        80        C      tau(  80) = (  0.8331489  0.6665435  0.5000856  )
        81        C      tau(  81) = (  0.8331879  0.6667002  0.8333010  )
        82        C      tau(  82) = (  0.0004795  0.1669726  0.1669726  )
        83        C      tau(  83) = (  0.0003726  0.1670282  0.5001418  )
        84        C      tau(  84) = ( -0.0000068  0.1668387  0.8334888  )
        85        C      tau(  85) = (  0.0003726  0.5001418  0.1670282  )
        86        C      tau(  86) = (  0.0006845  0.5003523  0.5003523  )
        87        C      tau(  87) = ( -0.0004162  0.5001144  0.8339744  )
        88        C      tau(  88) = ( -0.0000068  0.8334888  0.1668387  )
        89        C      tau(  89) = ( -0.0004162  0.8339743  0.5001144  )
        90        C      tau(  90) = ( -0.0000862  0.8334443  0.8334443  )
        91        C      tau(  91) = (  0.3338107  0.1660840  0.1660840  )
        92        C      tau(  92) = (  0.3336799  0.1669484  0.4999589  )
        93        C      tau(  93) = (  0.3333996  0.1664381  0.8337775  )
        94        C      tau(  94) = (  0.3336799  0.4999589  0.1669484  )
        95        C      tau(  95) = (  0.3331392  0.5001744  0.8335771  )
        96        C      tau(  96) = (  0.3333996  0.8337775  0.1664381  )
        97        C      tau(  97) = (  0.3331392  0.8335771  0.5001744  )
        98        C      tau(  98) = (  0.3331559  0.8337971  0.8337971  )
        99        C      tau(  99) = (  0.6671651  0.1664267  0.1664267  )
       100        C      tau( 100) = (  0.6672907  0.1661805  0.4996746  )
       101        C      tau( 101) = (  0.6666230  0.1668268  0.8330159  )
       102        C      tau( 102) = (  0.6672907  0.4996747  0.1661805  )
       103        C      tau( 103) = (  0.6660447  0.4998011  0.4998011  )
       104        C      tau( 104) = (  0.6662369  0.4999372  0.8329887  )
       105        C      tau( 105) = (  0.6666230  0.8330159  0.1668268  )
       106        C      tau( 106) = (  0.6662369  0.8329887  0.4999372  )
       107        C      tau( 107) = (  0.6665844  0.8333243  0.8333243  )
       108        C      tau( 108) = (  0.0835150  0.0835843  0.0835843  )
       109        C      tau( 109) = (  0.0838834  0.0839995  0.4168885  )
       110        C      tau( 110) = (  0.0832532  0.0834303  0.7502489  )
       111        C      tau( 111) = (  0.0838834  0.4168885  0.0839995  )
       112        C      tau( 112) = (  0.0849157  0.4176606  0.4176606  )
       113        C      tau( 113) = (  0.0824483  0.4168043  0.7514585  )
       114        C      tau( 114) = (  0.0832532  0.7502489  0.0834302  )
       115        C      tau( 115) = (  0.0824483  0.7514585  0.4168043  )
       116        C      tau( 116) = (  0.0832763  0.7501929  0.7501929  )
       117        C      tau( 117) = (  0.4169628  0.0829853  0.0829853  )
       118        C      tau( 118) = (  0.4170096  0.0832313  0.4165034  )
       119        C      tau( 119) = (  0.4166547  0.0837288  0.7497300  )
       120        C      tau( 120) = (  0.4170096  0.4165034  0.0832313  )
       121        C      tau( 121) = (  0.4160827  0.4167342  0.7501328  )
       122        C      tau( 122) = (  0.4166547  0.7497300  0.0837288  )
       123        C      tau( 123) = (  0.4160827  0.7501328  0.4167342  )
       124        C      tau( 124) = (  0.4164727  0.7510774  0.7510774  )
       125        C      tau( 125) = (  0.7502817  0.0832350  0.0832350  )
       126        C      tau( 126) = (  0.7504867  0.0831143  0.4165736  )
       127        C      tau( 127) = (  0.7499606  0.0834807  0.7498991  )
       128        C      tau( 128) = (  0.7504867  0.4165736  0.0831143  )
       129        C      tau( 129) = (  0.7501488  0.4165346  0.4165346  )
       130        C      tau( 130) = (  0.7494451  0.4168431  0.7494322  )
       131        C      tau( 131) = (  0.7499607  0.7498991  0.0834807  )
       132        C      tau( 132) = (  0.7494451  0.7494322  0.4168431  )
       133        C      tau( 133) = (  0.7498109  0.7500244  0.7500244  )
       134        C      tau( 134) = (  0.2504130  0.2500532  0.0835911  )
       135        C      tau( 135) = (  0.2521374  0.2514771  0.4173268  )
       136        C      tau( 136) = (  0.2500280  0.2491539  0.7512235  )
       137        C      tau( 137) = (  0.2501461  0.5834015  0.0836124  )
       138        C      tau( 138) = (  0.2446618  0.5927125  0.4117924  )
       139        C      tau( 139) = (  0.2496525  0.5835920  0.7508168  )
       140        C      tau( 140) = (  0.2500624  0.9170152  0.0832858  )
       141        C      tau( 141) = (  0.2500056  0.9170643  0.4167312  )
       142        C      tau( 142) = (  0.2499149  0.9170611  0.7502198  )
       143        C      tau( 143) = (  0.5838623  0.2496669  0.0827807  )
       144        C      tau( 144) = (  0.5846483  0.2486274  0.4159632  )
       145        C      tau( 145) = (  0.5830460  0.2503270  0.7495370  )
       146        C      tau( 146) = (  0.5834533  0.5830899  0.0834531  )
       147        C      tau( 147) = (  0.5814252  0.5813493  0.4171592  )
       148        C      tau( 148) = (  0.5828456  0.5836444  0.7499615  )
       149        C      tau( 149) = (  0.5834477  0.9164124  0.0833683  )
       150        C      tau( 150) = (  0.5833320  0.9165066  0.4166694  )
       151        C      tau( 151) = (  0.5833578  0.9168256  0.7500334  )
       152        C      tau( 152) = (  0.9170678  0.2501162  0.0835423  )
       153        C      tau( 153) = (  0.9172617  0.2503710  0.4168634  )
       154        C      tau( 154) = (  0.9165681  0.2501288  0.7500643  )
       155        C      tau( 155) = (  0.9166634  0.5834679  0.0835433  )
       156        C      tau( 156) = (  0.9168854  0.5834040  0.4168783  )
       157        C      tau( 157) = (  0.9165484  0.5833980  0.7500533  )
       158        C      tau( 158) = (  0.9167204  0.9167496  0.0834248  )
       159        C      tau( 159) = (  0.9164689  0.9169620  0.4167718  )
       160        C      tau( 160) = (  0.9165745  0.9167442  0.7500660  )
       161        C      tau( 161) = (  0.2504130  0.0835911  0.2500532  )
       162        C      tau( 162) = (  0.2501461  0.0836124  0.5834015  )
       163        C      tau( 163) = (  0.2500623  0.0832858  0.9170152  )
       164        C      tau( 164) = (  0.2521374  0.4173268  0.2514770  )
       165        C      tau( 165) = (  0.2446619  0.4117925  0.5927125  )
       166        C      tau( 166) = (  0.2500056  0.4167311  0.9170643  )
       167        C      tau( 167) = (  0.2500280  0.7512235  0.2491539  )
       168        C      tau( 168) = (  0.2496525  0.7508167  0.5835920  )
       169        C      tau( 169) = (  0.2499149  0.7502198  0.9170611  )
       170        C      tau( 170) = (  0.5838623  0.0827807  0.2496669  )
       171        C      tau( 171) = (  0.5834533  0.0834531  0.5830899  )
       172        C      tau( 172) = (  0.5834477  0.0833683  0.9164124  )
       173        C      tau( 173) = (  0.5846483  0.4159632  0.2486274  )
       174        C      tau( 174) = (  0.5814252  0.4171592  0.5813493  )
       175        C      tau( 175) = (  0.5833320  0.4166694  0.9165066  )
       176        C      tau( 176) = (  0.5830460  0.7495370  0.2503270  )
       177        C      tau( 177) = (  0.5828456  0.7499615  0.5836444  )
       178        C      tau( 178) = (  0.5833578  0.7500334  0.9168256  )
       179        C      tau( 179) = (  0.9170678  0.0835423  0.2501161  )
       180        C      tau( 180) = (  0.9166634  0.0835434  0.5834679  )
       181        C      tau( 181) = (  0.9167204  0.0834248  0.9167496  )
       182        C      tau( 182) = (  0.9172617  0.4168634  0.2503710  )
       183        C      tau( 183) = (  0.9168854  0.4168783  0.5834040  )
       184        C      tau( 184) = (  0.9164689  0.4167718  0.9169620  )
       185        C      tau( 185) = (  0.9165681  0.7500643  0.2501288  )
       186        C      tau( 186) = (  0.9165484  0.7500533  0.5833980  )
       187        C      tau( 187) = (  0.9165745  0.7500660  0.9167442  )
       188        C      tau( 188) = (  0.0841445  0.2505448  0.2505448  )
       189        C      tau( 189) = (  0.0836152  0.2500565  0.5838574  )
       190        C      tau( 190) = (  0.0833440  0.2500397  0.9171300  )
       191        C      tau( 191) = (  0.0836152  0.5838574  0.2500565  )
       192        C      tau( 192) = (  0.0839382  0.5834096  0.5834097  )
       193        C      tau( 193) = (  0.0831762  0.5834666  0.9171308  )
       194        C      tau( 194) = (  0.0833440  0.9171300  0.2500397  )
       195        C      tau( 195) = (  0.0831762  0.9171308  0.5834666  )
       196        C      tau( 196) = (  0.0832999  0.9168086  0.9168086  )
       197        C      tau( 197) = (  0.4175255  0.2485311  0.2485311  )
       198        C      tau( 198) = (  0.4161319  0.2511831  0.5818752  )
       199        C      tau( 199) = (  0.4167693  0.2499840  0.9166832  )
       200        C      tau( 200) = (  0.4161319  0.5818752  0.2511831  )
       201        C      tau( 201) = (  0.4176784  0.5893466  0.5893466  )
       202        C      tau( 202) = (  0.4166037  0.5833639  0.9169078  )
       203        C      tau( 203) = (  0.4167693  0.9166832  0.2499840  )
       204        C      tau( 204) = (  0.4166037  0.9169078  0.5833639  )
       205        C      tau( 205) = (  0.4167099  0.9168551  0.9168551  )
       206        C      tau( 206) = (  0.7507543  0.2497775  0.2497775  )
       207        C      tau( 207) = (  0.7499089  0.2501537  0.5830231  )
       208        C      tau( 208) = (  0.7500737  0.2500620  0.9164135  )
       209        C      tau( 209) = (  0.7499089  0.5830231  0.2501537  )
       210        C      tau( 210) = (  0.7496099  0.5832032  0.5832032  )
       211        C      tau( 211) = (  0.7498744  0.5834150  0.9165905  )
       212        C      tau( 212) = (  0.7500737  0.9164135  0.2500620  )
       213        C      tau( 213) = (  0.7498744  0.9165905  0.5834150  )
       214        C      tau( 214) = (  0.7500317  0.9166914  0.9166913  )
       215        N      tau( 215) = (  0.4234361  0.4092754  0.4092754  )

     number of k points=     1
                       cart. coord. in units 2pi/alat
        k(    1) = (   0.0000000   0.0000000   0.0000000), wk =   1.0000000

                       cryst. coord.
        k(    1) = (   0.0000000   0.0000000   0.0000000), wk =   1.0000000

     Dense  grid:   338755 G-vectors     FFT dimensions: (  90,  90,  90)

     Dynamical RAM for                 wfc:      15.45 MB

     Dynamical RAM for     wfc (w. buffer):      46.35 MB

     Dynamical RAM for           str. fact:       0.29 MB

     Dynamical RAM for           local pot:       0.00 MB

     Dynamical RAM for          nlocal pot:      30.86 MB

     Dynamical RAM for                qrad:       0.62 MB

     Dynamical RAM for          rho,v,vnew:       1.97 MB

     Dynamical RAM for           G-vectors:       0.61 MB

     Dynamical RAM for          h,s,v(r/c):       3.77 MB

     Dynamical RAM for          <psi|beta>:      22.60 MB

     Dynamical RAM for                 psi:      30.90 MB

     Dynamical RAM for                hpsi:      30.90 MB

     Dynamical RAM for                spsi:      30.90 MB

     Dynamical RAM for      wfcinit/wfcrot:      47.87 MB

     Dynamical RAM for           addusdens:      37.06 MB

     Estimated static dynamical RAM per process >      82.25 MB

     Estimated max dynamical RAM per process >     201.31 MB

     Estimated total dynamical RAM >       7.08 GB

     Check: negative core charge=   -0.000075
     Generating pointlists ...
     new r_m :   0.0569 (alat units)  1.1530 (a.u.) for type    1
     new r_m :   0.0569 (alat units)  1.1530 (a.u.) for type    2

     The potential is recalculated from file :
     ../tmp/diamond_pd.save/charge-density

     Starting wfcs are random
     Checking if some PAW data can be deallocated... 
       PAW data deallocated on   35 nodes for type:  2

     Band Structure Calculation
     Davidson diagonalization with overlap

     Computing kpt #:     1  of     2
     total cpu time spent up to now is      165.7 secs

     Computing kpt #:     2  of     2
     total cpu time spent up to now is      340.6 secs

     ethr =  1.16E-12,  avg # of iterations = 81.5

     total cpu time spent up to now is      340.6 secs

     End of band structure calculation

 ------ SPIN UP ------------


          k = 0.0000 0.0000 0.0000 ( 42379 PWs)   bands (ev):

    -8.2615  -7.4657  -7.2361  -7.2356  -7.2248  -7.2201  -7.1506  -6.6074
    -6.2366  -6.2366  -6.2331  -6.2328  -6.2307  -6.2305  -6.2205  -6.2057
    -6.2027  -6.1886  -6.0330  -5.4797  -5.2516  -5.2430  -5.2429  -5.2315
    -5.2290  -5.2218  -5.0921  -4.4739  -4.2479  -4.2441  -4.2294  -4.2236
    -4.1497  -3.8574  -3.3613  -3.3583  -3.3307  -3.3275  -3.3221  -3.3218
    -3.3177  -3.3165  -3.3159  -3.3133  -3.3111  -3.3078  -3.3063  -3.3038
    -3.3024  -3.3005  -3.2949  -3.2928  -3.2809  -3.2647  -3.2321  -3.2192
    -2.9968  -2.8035  -2.5656  -2.5648  -2.5424  -2.5387  -2.5357  -2.5324
    -2.5320  -2.5252  -2.5244  -2.5222  -2.5161  -2.5143  -2.5128  -2.5109
    -2.5062  -2.5036  -2.5011  -2.4908  -2.4836  -2.4750  -2.4318  -2.4304
    -1.7415  -1.0564  -0.8890  -0.8842  -0.8602  -0.8586  -0.8557  -0.8513
    -0.8418  -0.8397  -0.8133  -0.8087  -0.4975   0.3387   0.4204   0.4207
     0.4508   0.4538   0.5119   0.6969   0.8699   0.8718   0.9446   0.9482
     0.9580   0.9583   0.9618   0.9668   0.9685   0.9695   0.9707   0.9720
     0.9751   0.9776   0.9783   0.9839   0.9906   0.9967   1.0007   1.0010
     1.0034   1.0141   1.0966   1.1419   1.1568   1.1569   1.1742   1.1800
     1.1809   1.1827   1.1848   1.1885   1.1905   1.1905   1.1929   1.1967
     1.1982   1.1995   1.2001   1.2036   1.2064   1.2091   1.2105   1.3710
     1.4820   1.5113   1.9657   2.2031   2.2036   2.2055   2.2445   2.2534
     2.2608   2.2660   2.2751   2.2755   2.3623   2.3681   3.3181   3.7360
     3.7373   3.7419   3.7993   3.8201   3.8229   3.8241   3.8266   3.8270
     3.8300   3.8318   3.8355   3.8357   3.8378   3.8515   3.8520   3.9789
     3.9871   3.9911   4.0074   4.3744   4.3751   4.3898   4.4635   4.4703
     4.4706   4.4754   4.4821   4.4835   4.4920   4.4930   4.4942   4.4947
     4.4971   4.4973   4.4989   4.5006   4.5119   4.5120   4.5146   4.5312
     4.6861   4.6921   5.2531   5.2562   5.2984   5.3689   5.3708   5.3789
     5.3817   5.3820   5.3823   5.3827   5.3846   5.3874   5.3899   5.3920
     5.3990   5.3995   5.4056   5.4084   5.4210   5.4408   5.4439   5.5462
     5.5568   5.5669   5.6086   5.7760   5.7797   5.8290   5.8668   5.8691
     5.8704   5.8709   5.8729   5.8745   5.8784   5.8806   5.8812   5.8895
     5.8909   5.8930   5.9007   5.9033   5.9191   5.9213   5.9282   5.9305
     5.9375   5.9564   5.9594   6.0032   6.0109   6.2794   6.3126   6.3366
     6.8582   6.8585   6.9115   6.9298   6.9340   6.9436   7.0121   7.3901
     7.3966   7.4488   7.4757   7.4781   7.4834   7.4857   7.4930   7.5024
     7.5615   7.5626   7.7374   7.7412   7.8287   7.8546   7.8599   7.8702
     7.8718   7.8807   7.8825   7.9062   7.9318   7.9321   7.9375   8.0491
     8.0563   8.1230   8.1557   8.1566   8.1752   8.1811   8.1811   8.1834
     8.1840   8.1912   8.1921   8.1934   8.1948   8.1991   8.2123   8.2130
     8.2164   8.2190   8.2264   8.2430   8.2526   8.2528   8.2791   8.2848
     8.3156   8.3336   8.3423   8.3491   8.3515   8.3516   8.3594   8.3613
     8.3695   8.3707   8.3722   8.3723   8.3752   8.3764   8.3803   8.3803
     8.3809   8.3826   8.3857   8.3865   8.3871   8.3900   8.3906   8.3911
     8.3948   8.4013   8.4034   8.4047   8.4171   8.4512   8.4541   8.4687
     8.4693   8.4763   8.4769   8.4794   8.4835   8.5103   8.5161   8.5223
     8.5371   8.5465   8.5763   8.9408   8.9546   8.9625   9.1141   9.1170
     9.1740   9.1760   9.1869   9.2015   9.2016   9.2052   9.2061   9.2078
     9.2094   9.2125   9.2180   9.2203   9.2251   9.2307   9.2330   9.2413
     9.2606   9.2612   9.3060   9.9520  10.0428  10.0827  10.3571  10.5398
    10.5411  10.5769  10.5904  10.5938  10.5947  10.6052  10.6106  10.6212
    10.6893  10.6990  10.7036  10.7810  10.7816  10.8305  10.8315  10.8425
    10.8428  10.8471  10.8604  10.8633  10.8661  10.8689  10.8703  10.8946
    10.9009  10.9095  10.9117  10.9222  10.9365  11.5052  11.5508  11.5574
    11.6311  11.7548  11.7554  11.7807  11.7870  11.7885  11.7902  11.8018
    11.8040  11.8233  12.8508  12.9878  13.0273  13.6153  14.3343  14.9811
    17.3293  17.3398  17.3458  17.3919  17.3930  17.4165  17.8827  17.9564
    17.9577  17.9746  17.9809  18.0210  18.0977  18.1129  18.1370  18.2144
    18.2162  18.2315  18.8048  18.8069  18.8364  19.3929  19.5019  19.5055
    19.5112  19.5388  19.5443  19.5632  19.5702  19.5775  19.5880  19.5973
    19.6429  20.0294  20.2053  20.2141  20.2388  20.2451  20.2500  20.2545
    20.2560  20.2577  20.2608  20.2663  20.2664  20.2705  20.2860  20.2864
    20.2931  20.2961  20.2995  20.3560  20.3562  20.3746  20.3944  20.4030
    20.4167  20.6582  20.6719  20.6840  20.7528  20.7829  20.7841  20.7846
    20.7913  20.7916  20.7941  20.7961  20.7999  20.8218  20.8221  20.8330
    20.8357  20.8368  20.8376  20.8410  20.8417  20.8461  20.8536  20.8581
    20.8588  20.8647  20.8665  20.8666  20.8785  20.8830  20.9058  20.9063
    20.9223  20.9233  20.9315  20.9336  20.9506  21.0319  21.0366  21.0489
    21.0962  21.0971  21.1223  21.2289  21.2940  21.2998  21.3309  21.3569
    21.3607  21.3656  21.3666  21.3724  21.3785  21.3792  21.3803  21.3820
    21.3882  21.3915  21.3926  21.4015  21.4063  21.4133  21.4251  21.4262
    21.4302  21.4408  21.4415  21.4486  21.4487  21.4503  21.4595  21.4643
    21.4649  21.4708  21.4767  21.4794  21.4851  21.4892  21.6145  21.6161
    21.6297  21.6681  21.6858  21.6975  21.7009  21.7033  21.7036  21.7246
    21.7252  21.7302  21.7445  21.7695  21.7762  21.7825  21.7887  21.8207
    21.8260  21.9365  21.9575  21.9936  21.9959  22.0291  22.1402  22.1456
    22.1509  22.1825  22.1951  22.2073  22.2212  22.2248  22.2392  22.3474
    22.3641  22.3670  22.4173  22.4757  22.4769  22.4833  22.4988  22.4993
    22.6188  22.6195  22.6345  22.7149  22.8826  22.8963  22.9188  23.1306
    23.1314  23.1410  23.1475  23.1493  23.1563  23.1637  23.1659  23.1695
    23.1701  23.1737  23.1754  23.1775  23.1847  23.1866  23.1931  23.2518
    23.2934  23.3017  23.3539  23.3569  23.4122  23.4266  23.4437  23.7654
    23.8008  23.8117  23.8119  23.8362  23.8369  23.8400  23.8548  23.8615
    23.8619  23.8634  23.8674  23.8747  23.8933  23.8967  23.9050  23.9326
    23.9568  23.9665  23.9666  24.1080  24.1145  24.1707  24.1864  24.2431
    24.2518  24.2754  24.2828  24.3270  24.3273  24.3301  24.3327  24.3369
    24.3513  24.3520  24.3530  24.3587  24.3877  24.3877  24.4015  24.4024
    24.4199  24.4215  24.4281  24.4536  24.4637  24.4707  24.4902  24.5056
    24.5118  24.5148  24.5240  24.5269  24.5308  24.5421  24.5474  24.5498
    24.5571  24.5681  24.5690  24.5725  24.5841  24.6020  24.6193  24.6388
    24.6527  24.7719  24.8203  25.4026  25.4300  25.4602  25.5186  25.7980
    25.8041  25.8085  25.8264  25.8330  25.9919  26.0209  26.0230  26.0242
    26.0663  26.0723  26.1382  26.1422  26.1443  26.1487  26.2273  26.2604
    26.2673  26.4633  26.5947  26.5983  26.5989  26.6518  26.6592  26.6608
    26.6740  26.7082  26.7104  26.7189  26.7213  26.7357  26.7556  26.7623
    26.7807  26.7896  26.8107  26.8243  26.8555  26.8580  26.8644  26.9149
    26.9220  27.0862  27.0883  27.1168  27.1240  27.1466  27.1516  27.1603
    27.1797  27.1837  27.1906  27.1926  27.1955  27.1963  27.2007  27.2149
    27.2357  27.2540  27.2546  27.2608  27.2614  27.2677  27.2722  27.2748
    27.2841  27.2877  27.2904  27.3000  27.3030  27.3037  27.3212  27.3260
    27.3264  27.3377  27.3438  27.3450  27.3530  27.3698  27.3796  27.3901
    27.3917  27.3988  27.4049  27.4049  27.4145  27.4152  27.4234  27.4333
    27.4398  27.4475  27.4736  27.4750  27.4798  27.5055  27.5056  27.5287
    27.5324  27.5429  27.5539  27.5554  27.5592  27.5660  27.5814  27.5823
    27.5956  27.6051  27.6129  27.6144  27.6185  27.6198  27.6278  27.6535
    27.6563  27.6634  27.6972  27.7139  27.7268  27.7387  27.7936  27.9038
    27.9043  27.9197  27.9203  27.9890  28.0377  28.0448  28.0623  28.0659
    28.1142  28.1168  28.1313  28.2220  28.2270  28.2861  28.3104  28.3432
    28.3483  28.3503  28.3533  28.4277  28.4394  28.4593  29.5807  29.7943
    29.8046  29.8070  29.9154  29.9160  29.9484

     occupation numbers 
     1.0000   1.0000   1.0000   1.0000   1.0000   1.0000   1.0000   1.0000
     1.0000   1.0000   1.0000   1.0000   1.0000   1.0000   1.0000   1.0000
     1.0000   1.0000   1.0000   1.0000   1.0000   1.0000   1.0000   1.0000
     1.0000   1.0000   1.0000   1.0000   1.0000   1.0000   1.0000   1.0000
     1.0000   1.0000   1.0000   1.0000   1.0000   1.0000   1.0000   1.0000
     1.0000   1.0000   1.0000   1.0000   1.0000   1.0000   1.0000   1.0000
     1.0000   1.0000   1.0000   1.0000   1.0000   1.0000   1.0000   1.0000
     1.0000   1.0000   1.0000   1.0000   1.0000   1.0000   1.0000   1.0000
     1.0000   1.0000   1.0000   1.0000   1.0000   1.0000   1.0000   1.0000
     1.0000   1.0000   1.0000   1.0000   1.0000   1.0000   1.0000   1.0000
     1.0000   1.0000   1.0000   1.0000   1.0000   1.0000   1.0000   1.0000
     1.0000   1.0000   1.0000   1.0000   1.0000   1.0000   1.0000   1.0000
     1.0000   1.0000   1.0000   1.0000   1.0000   1.0000   1.0000   1.0000
     1.0000   1.0000   1.0000   1.0000   1.0000   1.0000   1.0000   1.0000
     1.0000   1.0000   1.0000   1.0000   1.0000   1.0000   1.0000   1.0000
     1.0000   1.0000   1.0000   1.0000   1.0000   1.0000   1.0000   1.0000
     1.0000   1.0000   1.0000   1.0000   1.0000   1.0000   1.0000   1.0000
     1.0000   1.0000   1.0000   1.0000   1.0000   1.0000   1.0000   1.0000
     1.0000   1.0000   1.0000   1.0000   1.0000   1.0000   1.0000   1.0000
     1.0000   1.0000   1.0000   1.0000   1.0000   1.0000   1.0000   1.0000
     1.0000   1.0000   1.0000   1.0000   1.0000   1.0000   1.0000   1.0000
     1.0000   1.0000   1.0000   1.0000   1.0000   1.0000   1.0000   1.0000
     1.0000   1.0000   1.0000   1.0000   1.0000   1.0000   1.0000   1.0000
     1.0000   1.0000   1.0000   1.0000   1.0000   1.0000   1.0000   1.0000
     1.0000   1.0000   1.0000   1.0000   1.0000   1.0000   1.0000   1.0000
     1.0000   1.0000   1.0000   1.0000   1.0000   1.0000   1.0000   1.0000
     1.0000   1.0000   1.0000   1.0000   1.0000   1.0000   1.0000   1.0000
     1.0000   1.0000   1.0000   1.0000   1.0000   1.0000   1.0000   1.0000
     1.0000   1.0000   1.0000   1.0000   1.0000   1.0000   1.0000   1.0000
     1.0000   1.0000   1.0000   1.0000   1.0000   1.0000   1.0000   1.0000
     1.0000   1.0000   1.0000   1.0000   1.0000   1.0000   1.0000   1.0000
     1.0000   1.0000   1.0000   1.0000   1.0000   1.0000   1.0000   1.0000
     1.0000   1.0000   1.0000   1.0000   1.0000   1.0000   1.0000   1.0000
     1.0000   1.0000   1.0000   1.0000   1.0000   1.0000   1.0000   1.0000
     1.0000   1.0000   1.0000   1.0000   1.0000   1.0000   1.0000   1.0000
     1.0000   1.0000   1.0000   1.0000   1.0000   1.0000   1.0000   1.0000
     1.0000   1.0000   1.0000   1.0000   1.0000   1.0000   1.0000   1.0000
     1.0000   1.0000   1.0000   1.0000   1.0000   1.0000   1.0000   1.0000
     1.0000   1.0000   1.0000   1.0000   1.0000   1.0000   1.0000   1.0000
     1.0000   1.0000   1.0000   1.0000   1.0000   1.0000   1.0000   1.0000
     1.0000   1.0000   1.0000   1.0000   1.0000   1.0000   1.0000   1.0000
     1.0000   1.0000   1.0000   1.0000   1.0000   1.0000   1.0000   1.0000
     1.0000   1.0000   1.0000   1.0000   1.0000   1.0000   1.0000   1.0000
     1.0000   1.0000   1.0000   1.0000   1.0000   1.0000   1.0000   1.0000
     1.0000   1.0000   1.0000   1.0000   1.0000   1.0000   1.0000   1.0000
     1.0000   1.0000   1.0000   1.0000   1.0000   1.0000   1.0000   1.0000
     1.0000   1.0000   1.0000   1.0000   1.0000   1.0000   1.0000   1.0000
     1.0000   1.0000   1.0000   1.0000   1.0000   1.0000   1.0000   1.0000
     1.0000   1.0000   1.0000   1.0000   1.0000   1.0000   1.0000   1.0000
     1.0000   1.0000   1.0000   1.0000   1.0000   1.0000   1.0000   1.0000
     1.0000   1.0000   1.0000   1.0000   1.0000   1.0000   1.0000   1.0000
     1.0000   1.0000   1.0000   1.0000   1.0000   1.0000   1.0000   1.0000
     1.0000   1.0000   1.0000   1.0000   1.0000   1.0000   1.0000   1.0000
     1.0000   1.0000   1.0000   1.0000   1.0000   1.0000   1.0000   0.0000
     0.0000   0.0000   0.0000   0.0000   0.0000   0.0000   0.0000   0.0000
     0.0000   0.0000   0.0000   0.0000   0.0000   0.0000   0.0000   0.0000
     0.0000   0.0000   0.0000   0.0000   0.0000   0.0000   0.0000   0.0000
     0.0000   0.0000   0.0000   0.0000   0.0000   0.0000   0.0000   0.0000
     0.0000   0.0000   0.0000   0.0000   0.0000   0.0000   0.0000   0.0000
     0.0000   0.0000   0.0000   0.0000   0.0000   0.0000   0.0000   0.0000
     0.0000   0.0000   0.0000   0.0000   0.0000   0.0000   0.0000   0.0000
     0.0000   0.0000   0.0000   0.0000   0.0000   0.0000   0.0000   0.0000
     0.0000   0.0000   0.0000   0.0000   0.0000   0.0000   0.0000   0.0000
     0.0000   0.0000   0.0000   0.0000   0.0000   0.0000   0.0000   0.0000
     0.0000   0.0000   0.0000   0.0000   0.0000   0.0000   0.0000   0.0000
     0.0000   0.0000   0.0000   0.0000   0.0000   0.0000   0.0000   0.0000
     0.0000   0.0000   0.0000   0.0000   0.0000   0.0000   0.0000   0.0000
     0.0000   0.0000   0.0000   0.0000   0.0000   0.0000   0.0000   0.0000
     0.0000   0.0000   0.0000   0.0000   0.0000   0.0000   0.0000   0.0000
     0.0000   0.0000   0.0000   0.0000   0.0000   0.0000   0.0000   0.0000
     0.0000   0.0000   0.0000   0.0000   0.0000   0.0000   0.0000   0.0000
     0.0000   0.0000   0.0000   0.0000   0.0000   0.0000   0.0000   0.0000
     0.0000   0.0000   0.0000   0.0000   0.0000   0.0000   0.0000   0.0000
     0.0000   0.0000   0.0000   0.0000   0.0000   0.0000   0.0000   0.0000
     0.0000   0.0000   0.0000   0.0000   0.0000   0.0000   0.0000   0.0000
     0.0000   0.0000   0.0000   0.0000   0.0000   0.0000   0.0000   0.0000
     0.0000   0.0000   0.0000   0.0000   0.0000   0.0000   0.0000   0.0000
     0.0000   0.0000   0.0000   0.0000   0.0000   0.0000   0.0000   0.0000
     0.0000   0.0000   0.0000   0.0000   0.0000   0.0000   0.0000   0.0000
     0.0000   0.0000   0.0000   0.0000   0.0000   0.0000   0.0000   0.0000
     0.0000   0.0000   0.0000   0.0000   0.0000   0.0000   0.0000   0.0000
     0.0000   0.0000   0.0000   0.0000   0.0000   0.0000   0.0000   0.0000
     0.0000   0.0000   0.0000   0.0000   0.0000   0.0000   0.0000   0.0000
     0.0000   0.0000   0.0000   0.0000   0.0000   0.0000   0.0000   0.0000
     0.0000   0.0000   0.0000   0.0000   0.0000   0.0000   0.0000   0.0000
     0.0000   0.0000   0.0000   0.0000   0.0000   0.0000   0.0000   0.0000
     0.0000   0.0000   0.0000   0.0000   0.0000   0.0000   0.0000   0.0000
     0.0000   0.0000   0.0000   0.0000   0.0000   0.0000   0.0000   0.0000
     0.0000   0.0000   0.0000   0.0000   0.0000   0.0000   0.0000   0.0000
     0.0000   0.0000   0.0000   0.0000   0.0000   0.0000   0.0000   0.0000
     0.0000   0.0000   0.0000   0.0000   0.0000   0.0000   0.0000   0.0000
     0.0000   0.0000   0.0000   0.0000   0.0000   0.0000   0.0000   0.0000
     0.0000   0.0000   0.0000   0.0000   0.0000   0.0000   0.0000   0.0000
     0.0000   0.0000   0.0000   0.0000   0.0000   0.0000   0.0000   0.0000
     0.0000   0.0000   0.0000   0.0000   0.0000   0.0000   0.0000   0.0000
     0.0000   0.0000   0.0000   0.0000   0.0000   0.0000   0.0000   0.0000
     0.0000   0.0000   0.0000   0.0000   0.0000   0.0000   0.0000   0.0000
     0.0000   0.0000   0.0000   0.0000   0.0000   0.0000   0.0000   0.0000
     0.0000   0.0000   0.0000   0.0000   0.0000   0.0000   0.0000   0.0000
     0.0000   0.0000   0.0000   0.0000   0.0000   0.0000   0.0000   0.0000
     0.0000   0.0000   0.0000   0.0000   0.0000   0.0000   0.0000   0.0000
     0.0000   0.0000   0.0000   0.0000   0.0000   0.0000   0.0000   0.0000
     0.0000   0.0000   0.0000   0.0000   0.0000   0.0000   0.0000   0.0000
     0.0000   0.0000   0.0000   0.0000   0.0000   0.0000   0.0000   0.0000
     0.0000   0.0000   0.0000   0.0000   0.0000   0.0000   0.0000   0.0000
     0.0000   0.0000   0.0000   0.0000   0.0000   0.0000   0.0000   0.0000
     0.0000   0.0000   0.0000   0.0000   0.0000   0.0000   0.0000   0.0000
     0.0000   0.0000   0.0000   0.0000   0.0000

 ------ SPIN DOWN ----------


          k = 0.0000 0.0000 0.0000 ( 42379 PWs)   bands (ev):

    -8.2575  -7.4613  -7.2350  -7.2342  -7.2215  -7.2145  -7.1413  -6.6032
    -6.2367  -6.2342  -6.2335  -6.2309  -6.2301  -6.2228  -6.2131  -6.2032
    -6.1891  -6.1887  -6.0166  -5.4756  -5.2456  -5.2423  -5.2371  -5.2272
    -5.2211  -5.2179  -5.0801  -4.4665  -4.2443  -4.2408  -4.2235  -4.2160
    -4.1455  -3.8502  -3.3574  -3.3538  -3.3300  -3.3214  -3.3213  -3.3167
    -3.3160  -3.3140  -3.3133  -3.3113  -3.3074  -3.3061  -3.3030  -3.3005
    -3.2995  -3.2972  -3.2930  -3.2875  -3.2742  -3.2617  -3.2205  -3.2017
    -2.9895  -2.8011  -2.5647  -2.5599  -2.5413  -2.5332  -2.5320  -2.5274
    -2.5273  -2.5239  -2.5212  -2.5204  -2.5129  -2.5119  -2.5115  -2.5098
    -2.5034  -2.4996  -2.4971  -2.4865  -2.4790  -2.4705  -2.4344  -2.3758
    -1.7028  -1.0516  -0.8853  -0.8831  -0.8586  -0.8524  -0.8502  -0.8466
    -0.8375  -0.8361  -0.8075  -0.7889  -0.4682   0.3475   0.4223   0.4246
     0.4540   0.4617   0.5149   0.7049   0.8728   0.8733   0.9456   0.9540
     0.9592   0.9597   0.9626   0.9680   0.9701   0.9717   0.9719   0.9730
     0.9764   0.9808   0.9831   0.9885   0.9939   1.0025   1.0049   1.0082
     1.0094   1.0369   1.1071   1.1483   1.1582   1.1590   1.1781   1.1796
     1.1829   1.1847   1.1875   1.1903   1.1929   1.1933   1.1956   1.1995
     1.2013   1.2029   1.2061   1.2078   1.2110   1.2121   1.2122   1.3802
     1.5145   1.5412   1.9772   2.2034   2.2083   2.2146   2.2495   2.2545
     2.2635   2.2668   2.2786   2.2792   2.3700   2.4123   3.3571   3.7383
     3.7442   3.7485   3.8046   3.8230   3.8262   3.8275   3.8284   3.8314
     3.8317   3.8334   3.8370   3.8387   3.8416   3.8549   3.8571   3.9904
     3.9912   3.9962   4.0193   4.3773   4.3801   4.3982   4.4642   4.4771
     4.4772   4.4794   4.4840   4.4898   4.4949   4.4952   4.4963   4.4972
     4.4995   4.5002   4.5020   4.5030   4.5151   4.5168   4.5187   4.5352
     4.6928   4.7439   5.2574   5.2590   5.3091   5.3718   5.3719   5.3794
     5.3827   5.3827   5.3835   5.3851   5.3866   5.3900   5.3918   5.3939
     5.4038   5.4040   5.4087   5.4137   5.4240   5.4425   5.4585   5.5496
     5.5676   5.5677   5.6284   5.7774   5.7859   5.8345   5.8706   5.8716
     5.8719   5.8738   5.8768   5.8777   5.8824   5.8837   5.8853   5.8925
     5.8928   5.8984   5.9017   5.9057   5.9229   5.9297   5.9335   5.9392
     5.9461   5.9652   5.9661   6.0079   6.0143   6.2908   6.3419   6.3591
     6.8600   6.8638   6.9171   6.9331   6.9448   6.9485   7.0549   7.3976
     7.4057   7.4552   7.4772   7.4810   7.4874   7.4892   7.4970   7.5071
     7.5642   7.5757   7.7422   7.7434   7.8413   7.8623   7.8693   7.8741
     7.8764   7.8838   7.8854   7.9105   7.9365   7.9395   7.9395   8.0520
     8.0653   8.1257   8.1585   8.1649   8.1770   8.1832   8.1855   8.1856
     8.1884   8.1935   8.1956   8.1971   8.1977   8.1995   8.2128   8.2207
     8.2207   8.2240   8.2304   8.2453   8.2534   8.2581   8.2835   8.2867
     8.3232   8.3408   8.3436   8.3505   8.3552   8.3621   8.3632   8.3677
     8.3709   8.3720   8.3741   8.3757   8.3782   8.3783   8.3813   8.3815
     8.3842   8.3850   8.3872   8.3878   8.3890   8.3922   8.3931   8.3933
     8.3965   8.4035   8.4108   8.4136   8.4250   8.4548   8.4574   8.4711
     8.4714   8.4792   8.4801   8.4836   8.4873   8.5120   8.5224   8.5286
     8.5497   8.5601   8.6002   8.9499   8.9621   8.9747   9.1176   9.1213
     9.1757   9.1858   9.1921   9.2044   9.2047   9.2063   9.2071   9.2088
     9.2124   9.2173   9.2200   9.2227   9.2265   9.2315   9.2397   9.2449
     9.2619   9.2795   9.3224   9.9672  10.0724  10.1247  10.4533  10.5493
    10.5561  10.5883  10.5944  10.5990  10.6010  10.6089  10.6131  10.6227
    10.6929  10.7035  10.7048  10.7841  10.7867  10.8311  10.8390  10.8461
    10.8477  10.8500  10.8649  10.8675  10.8704  10.8728  10.8747  10.9010
    10.9044  10.9140  10.9152  10.9245  10.9422  11.5138  11.5554  11.5827
    11.7545  11.7610  11.7708  11.7851  11.7881  11.7927  11.7936  11.8056
    11.8060  11.8321  12.8948  13.0336  13.0481  13.6974  15.0992  15.6148
    17.3318  17.3421  17.3526  17.3969  17.3985  17.4221  17.8857  17.9586
    17.9657  17.9782  17.9836  18.0257  18.1004  18.1154  18.1520  18.2207
    18.2244  18.2364  18.8108  18.8141  18.8423  19.3990  19.5044  19.5073
    19.5122  19.5461  19.5485  19.5660  19.5773  19.5795  19.5911  19.5999
    19.6468  20.0327  20.2060  20.2179  20.2438  20.2450  20.2520  20.2561
    20.2599  20.2609  20.2617  20.2680  20.2691  20.2729  20.2891  20.2911
    20.2937  20.3062  20.3068  20.3582  20.3612  20.3775  20.3990  20.4075
    20.4210  20.6609  20.6781  20.6856  20.7544  20.7842  20.7857  20.7868
    20.7923  20.7926  20.7954  20.7991  20.8026  20.8255  20.8265  20.8345
    20.8378  20.8394  20.8416  20.8433  20.8441  20.8490  20.8588  20.8598
    20.8622  20.8668  20.8682  20.8756  20.8797  20.8924  20.9074  20.9134
    20.9242  20.9306  20.9356  20.9411  20.9574  21.0383  21.0441  21.0522
    21.0993  21.1010  21.1258  21.2322  21.2974  21.3038  21.3343  21.3576
    21.3639  21.3673  21.3694  21.3734  21.3797  21.3817  21.3820  21.3847
    21.3914  21.3962  21.3993  21.4056  21.4087  21.4172  21.4251  21.4300
    21.4346  21.4444  21.4501  21.4522  21.4528  21.4545  21.4625  21.4669
    21.4731  21.4747  21.4816  21.4918  21.4999  21.5064  21.6167  21.6255
    21.6338  21.6715  21.6924  21.6994  21.7016  21.7073  21.7083  21.7245
    21.7287  21.7313  21.7520  21.7726  21.7802  21.7858  21.7930  21.8252
    21.8602  21.9519  21.9606  22.0005  22.0016  22.0388  22.1418  22.1464
    22.1530  22.1919  22.1952  22.2115  22.2239  22.2365  22.2468  22.3542
    22.3688  22.3727  22.4223  22.4756  22.4831  22.4882  22.5009  22.5012
    22.6117  22.6544  22.6551  22.7536  22.8906  22.9140  22.9316  23.1325
    23.1340  23.1432  23.1489  23.1521  23.1575  23.1664  23.1676  23.1700
    23.1723  23.1774  23.1790  23.1797  23.1921  23.1999  23.2080  23.2649
    23.3045  23.3284  23.3657  23.3657  23.4113  23.4563  23.4714  23.7713
    23.8014  23.8187  23.8230  23.8388  23.8394  23.8420  23.8556  23.8622
    23.8632  23.8650  23.8752  23.8762  23.8961  23.8990  23.9090  23.9388
    23.9603  23.9718  23.9839  24.1218  24.1237  24.1943  24.2031  24.2456
    24.2557  24.2785  24.2862  24.3298  24.3306  24.3318  24.3347  24.3384
    24.3517  24.3579  24.3586  24.3637  24.3891  24.3936  24.4050  24.4221
    24.4247  24.4316  24.4328  24.4535  24.4757  24.4773  24.5032  24.5085
    24.5215  24.5248  24.5273  24.5285  24.5357  24.5433  24.5516  24.5530
    24.5625  24.5688  24.5725  24.5787  24.5993  24.6054  24.6407  24.6704
    24.7254  24.8051  24.8456  25.4331  25.4508  25.4888  25.5434  25.7942
    25.8104  25.8221  25.8379  25.8382  25.9949  26.0241  26.0247  26.0265
    26.0691  26.0790  26.1436  26.1492  26.1522  26.1590  26.2372  26.2773
    26.2792  26.4724  26.5990  26.6040  26.6082  26.6554  26.6621  26.6643
    26.6775  26.7120  26.7140  26.7229  26.7264  26.7422  26.7601  26.7701
    26.7834  26.8007  26.8125  26.8284  26.8590  26.8627  26.8733  26.9146
    26.9486  27.0874  27.0937  27.1265  27.1278  27.1519  27.1526  27.1627
    27.1822  27.1871  27.1918  27.1951  27.1972  27.1998  27.2068  27.2189
    27.2379  27.2552  27.2585  27.2617  27.2648  27.2721  27.2738  27.2793
    27.2866  27.2900  27.2918  27.3068  27.3077  27.3099  27.3226  27.3279
    27.3287  27.3427  27.3444  27.3585  27.3715  27.3821  27.3831  27.3928
    27.3936  27.4086  27.4103  27.4116  27.4165  27.4199  27.4292  27.4356
    27.4515  27.4535  27.4746  27.4780  27.4890  27.5073  27.5105  27.5326
    27.5384  27.5487  27.5554  27.5584  27.5623  27.5705  27.5852  27.5854
    27.5987  27.6080  27.6187  27.6203  27.6214  27.6274  27.6311  27.6504
    27.6789  27.6808  27.7060  27.7297  27.7473  27.7661  27.8303  27.9109
    27.9267  27.9332  27.9374  27.9971  28.0508  28.0636  28.0704  28.0729
    28.1221  28.1233  28.1437  28.2214  28.2732  28.3014  28.3326  28.3451
    28.3492  28.3692  28.3744  28.4485  28.4787  28.5552  29.6585  29.8128
    29.8138  29.8160  29.9192  29.9264  29.9686

     occupation numbers 
     1.0000   1.0000   1.0000   1.0000   1.0000   1.0000   1.0000   1.0000
     1.0000   1.0000   1.0000   1.0000   1.0000   1.0000   1.0000   1.0000
     1.0000   1.0000   1.0000   1.0000   1.0000   1.0000   1.0000   1.0000
     1.0000   1.0000   1.0000   1.0000   1.0000   1.0000   1.0000   1.0000
     1.0000   1.0000   1.0000   1.0000   1.0000   1.0000   1.0000   1.0000
     1.0000   1.0000   1.0000   1.0000   1.0000   1.0000   1.0000   1.0000
     1.0000   1.0000   1.0000   1.0000   1.0000   1.0000   1.0000   1.0000
     1.0000   1.0000   1.0000   1.0000   1.0000   1.0000   1.0000   1.0000
     1.0000   1.0000   1.0000   1.0000   1.0000   1.0000   1.0000   1.0000
     1.0000   1.0000   1.0000   1.0000   1.0000   1.0000   1.0000   1.0000
     1.0000   1.0000   1.0000   1.0000   1.0000   1.0000   1.0000   1.0000
     1.0000   1.0000   1.0000   1.0000   1.0000   1.0000   1.0000   1.0000
     1.0000   1.0000   1.0000   1.0000   1.0000   1.0000   1.0000   1.0000
     1.0000   1.0000   1.0000   1.0000   1.0000   1.0000   1.0000   1.0000
     1.0000   1.0000   1.0000   1.0000   1.0000   1.0000   1.0000   1.0000
     1.0000   1.0000   1.0000   1.0000   1.0000   1.0000   1.0000   1.0000
     1.0000   1.0000   1.0000   1.0000   1.0000   1.0000   1.0000   1.0000
     1.0000   1.0000   1.0000   1.0000   1.0000   1.0000   1.0000   1.0000
     1.0000   1.0000   1.0000   1.0000   1.0000   1.0000   1.0000   1.0000
     1.0000   1.0000   1.0000   1.0000   1.0000   1.0000   1.0000   1.0000
     1.0000   1.0000   1.0000   1.0000   1.0000   1.0000   1.0000   1.0000
     1.0000   1.0000   1.0000   1.0000   1.0000   1.0000   1.0000   1.0000
     1.0000   1.0000   1.0000   1.0000   1.0000   1.0000   1.0000   1.0000
     1.0000   1.0000   1.0000   1.0000   1.0000   1.0000   1.0000   1.0000
     1.0000   1.0000   1.0000   1.0000   1.0000   1.0000   1.0000   1.0000
     1.0000   1.0000   1.0000   1.0000   1.0000   1.0000   1.0000   1.0000
     1.0000   1.0000   1.0000   1.0000   1.0000   1.0000   1.0000   1.0000
     1.0000   1.0000   1.0000   1.0000   1.0000   1.0000   1.0000   1.0000
     1.0000   1.0000   1.0000   1.0000   1.0000   1.0000   1.0000   1.0000
     1.0000   1.0000   1.0000   1.0000   1.0000   1.0000   1.0000   1.0000
     1.0000   1.0000   1.0000   1.0000   1.0000   1.0000   1.0000   1.0000
     1.0000   1.0000   1.0000   1.0000   1.0000   1.0000   1.0000   1.0000
     1.0000   1.0000   1.0000   1.0000   1.0000   1.0000   1.0000   1.0000
     1.0000   1.0000   1.0000   1.0000   1.0000   1.0000   1.0000   1.0000
     1.0000   1.0000   1.0000   1.0000   1.0000   1.0000   1.0000   1.0000
     1.0000   1.0000   1.0000   1.0000   1.0000   1.0000   1.0000   1.0000
     1.0000   1.0000   1.0000   1.0000   1.0000   1.0000   1.0000   1.0000
     1.0000   1.0000   1.0000   1.0000   1.0000   1.0000   1.0000   1.0000
     1.0000   1.0000   1.0000   1.0000   1.0000   1.0000   1.0000   1.0000
     1.0000   1.0000   1.0000   1.0000   1.0000   1.0000   1.0000   1.0000
     1.0000   1.0000   1.0000   1.0000   1.0000   1.0000   1.0000   1.0000
     1.0000   1.0000   1.0000   1.0000   1.0000   1.0000   1.0000   1.0000
     1.0000   1.0000   1.0000   1.0000   1.0000   1.0000   1.0000   1.0000
     1.0000   1.0000   1.0000   1.0000   1.0000   1.0000   1.0000   1.0000
     1.0000   1.0000   1.0000   1.0000   1.0000   1.0000   1.0000   1.0000
     1.0000   1.0000   1.0000   1.0000   1.0000   1.0000   1.0000   1.0000
     1.0000   1.0000   1.0000   1.0000   1.0000   1.0000   1.0000   1.0000
     1.0000   1.0000   1.0000   1.0000   1.0000   1.0000   1.0000   1.0000
     1.0000   1.0000   1.0000   1.0000   1.0000   1.0000   1.0000   1.0000
     1.0000   1.0000   1.0000   1.0000   1.0000   1.0000   1.0000   1.0000
     1.0000   1.0000   1.0000   1.0000   1.0000   1.0000   1.0000   1.0000
     1.0000   1.0000   1.0000   1.0000   1.0000   1.0000   1.0000   1.0000
     1.0000   1.0000   1.0000   1.0000   1.0000   1.0000   1.0000   1.0000
     1.0000   1.0000   1.0000   1.0000   1.0000   1.0000   0.0000   0.0000
     0.0000   0.0000   0.0000   0.0000   0.0000   0.0000   0.0000   0.0000
     0.0000   0.0000   0.0000   0.0000   0.0000   0.0000   0.0000   0.0000
     0.0000   0.0000   0.0000   0.0000   0.0000   0.0000   0.0000   0.0000
     0.0000   0.0000   0.0000   0.0000   0.0000   0.0000   0.0000   0.0000
     0.0000   0.0000   0.0000   0.0000   0.0000   0.0000   0.0000   0.0000
     0.0000   0.0000   0.0000   0.0000   0.0000   0.0000   0.0000   0.0000
     0.0000   0.0000   0.0000   0.0000   0.0000   0.0000   0.0000   0.0000
     0.0000   0.0000   0.0000   0.0000   0.0000   0.0000   0.0000   0.0000
     0.0000   0.0000   0.0000   0.0000   0.0000   0.0000   0.0000   0.0000
     0.0000   0.0000   0.0000   0.0000   0.0000   0.0000   0.0000   0.0000
     0.0000   0.0000   0.0000   0.0000   0.0000   0.0000   0.0000   0.0000
     0.0000   0.0000   0.0000   0.0000   0.0000   0.0000   0.0000   0.0000
     0.0000   0.0000   0.0000   0.0000   0.0000   0.0000   0.0000   0.0000
     0.0000   0.0000   0.0000   0.0000   0.0000   0.0000   0.0000   0.0000
     0.0000   0.0000   0.0000   0.0000   0.0000   0.0000   0.0000   0.0000
     0.0000   0.0000   0.0000   0.0000   0.0000   0.0000   0.0000   0.0000
     0.0000   0.0000   0.0000   0.0000   0.0000   0.0000   0.0000   0.0000
     0.0000   0.0000   0.0000   0.0000   0.0000   0.0000   0.0000   0.0000
     0.0000   0.0000   0.0000   0.0000   0.0000   0.0000   0.0000   0.0000
     0.0000   0.0000   0.0000   0.0000   0.0000   0.0000   0.0000   0.0000
     0.0000   0.0000   0.0000   0.0000   0.0000   0.0000   0.0000   0.0000
     0.0000   0.0000   0.0000   0.0000   0.0000   0.0000   0.0000   0.0000
     0.0000   0.0000   0.0000   0.0000   0.0000   0.0000   0.0000   0.0000
     0.0000   0.0000   0.0000   0.0000   0.0000   0.0000   0.0000   0.0000
     0.0000   0.0000   0.0000   0.0000   0.0000   0.0000   0.0000   0.0000
     0.0000   0.0000   0.0000   0.0000   0.0000   0.0000   0.0000   0.0000
     0.0000   0.0000   0.0000   0.0000   0.0000   0.0000   0.0000   0.0000
     0.0000   0.0000   0.0000   0.0000   0.0000   0.0000   0.0000   0.0000
     0.0000   0.0000   0.0000   0.0000   0.0000   0.0000   0.0000   0.0000
     0.0000   0.0000   0.0000   0.0000   0.0000   0.0000   0.0000   0.0000
     0.0000   0.0000   0.0000   0.0000   0.0000   0.0000   0.0000   0.0000
     0.0000   0.0000   0.0000   0.0000   0.0000   0.0000   0.0000   0.0000
     0.0000   0.0000   0.0000   0.0000   0.0000   0.0000   0.0000   0.0000
     0.0000   0.0000   0.0000   0.0000   0.0000   0.0000   0.0000   0.0000
     0.0000   0.0000   0.0000   0.0000   0.0000   0.0000   0.0000   0.0000
     0.0000   0.0000   0.0000   0.0000   0.0000   0.0000   0.0000   0.0000
     0.0000   0.0000   0.0000   0.0000   0.0000   0.0000   0.0000   0.0000
     0.0000   0.0000   0.0000   0.0000   0.0000   0.0000   0.0000   0.0000
     0.0000   0.0000   0.0000   0.0000   0.0000   0.0000   0.0000   0.0000
     0.0000   0.0000   0.0000   0.0000   0.0000   0.0000   0.0000   0.0000
     0.0000   0.0000   0.0000   0.0000   0.0000   0.0000   0.0000   0.0000
     0.0000   0.0000   0.0000   0.0000   0.0000   0.0000   0.0000   0.0000
     0.0000   0.0000   0.0000   0.0000   0.0000   0.0000   0.0000   0.0000
     0.0000   0.0000   0.0000   0.0000   0.0000   0.0000   0.0000   0.0000
     0.0000   0.0000   0.0000   0.0000   0.0000   0.0000   0.0000   0.0000
     0.0000   0.0000   0.0000   0.0000   0.0000   0.0000   0.0000   0.0000
     0.0000   0.0000   0.0000   0.0000   0.0000   0.0000   0.0000   0.0000
     0.0000   0.0000   0.0000   0.0000   0.0000   0.0000   0.0000   0.0000
     0.0000   0.0000   0.0000   0.0000   0.0000   0.0000   0.0000   0.0000
     0.0000   0.0000   0.0000   0.0000   0.0000   0.0000   0.0000   0.0000
     0.0000   0.0000   0.0000   0.0000   0.0000   0.0000   0.0000   0.0000
     0.0000   0.0000   0.0000   0.0000   0.0000   0.0000   0.0000   0.0000
     0.0000   0.0000   0.0000   0.0000   0.0000   0.0000   0.0000   0.0000
     0.0000   0.0000   0.0000   0.0000   0.0000

     highest occupied, lowest unoccupied level (ev):    14.33432727   14.98114404

     Writing all to output data dir ../tmp/diamond_pd.save/ :
     XML data file, pseudopotentials, collected wavefunctions
 
     init_run     :      1.00s CPU      1.16s WALL (       1 calls)
     electrons    :    334.78s CPU    339.12s WALL (       1 calls)

     Called by init_run:
     wfcinit      :      0.00s CPU      0.00s WALL (       1 calls)
     wfcinit:wfcr :      4.65s CPU      4.80s WALL (       2 calls)
     potinit      :      0.69s CPU      0.80s WALL (       1 calls)
     hinit0       :      0.11s CPU      0.11s WALL (       1 calls)

     Called by electrons:
     c_bands      :    334.78s CPU    339.10s WALL (       1 calls)
     v_of_rho     :      0.03s CPU      0.04s WALL (       1 calls)
     v_h          :      0.00s CPU      0.00s WALL (       1 calls)
     v_xc         :      0.03s CPU      0.04s WALL (       1 calls)
     newd         :      0.13s CPU      0.16s WALL (       1 calls)
     PAW_pot      :      0.62s CPU      0.71s WALL (       1 calls)

     Called by c_bands:
     init_us_2    :      0.13s CPU      0.16s WALL (       2 calls)
     cegterg      :    329.74s CPU    333.85s WALL (       9 calls)

     Called by sum_band:

     Called by *egterg:
     cdiaghg      :     57.67s CPU     58.61s WALL (     165 calls)
     cegterg:over :     46.03s CPU     46.44s WALL (     163 calls)
     cegterg:upda :     36.92s CPU     37.31s WALL (     163 calls)
     cegterg:last :     79.32s CPU     80.05s WALL (      63 calls)
     cdiaghg:chol :      4.06s CPU      4.09s WALL (     165 calls)
     cdiaghg:inve :      1.37s CPU      1.38s WALL (     165 calls)
     cdiaghg:para :     21.11s CPU     21.35s WALL (     330 calls)
     h_psi        :     81.05s CPU     82.32s WALL (     174 calls)
     s_psi        :     25.88s CPU     26.05s WALL (     174 calls)
     g_psi        :      0.93s CPU      0.95s WALL (     163 calls)

     Called by h_psi:
     h_psi:calbec :     27.33s CPU     27.54s WALL (     174 calls)
     vloc_psi     :     25.81s CPU     26.28s WALL (     174 calls)
     add_vuspsi   :     26.28s CPU     26.66s WALL (     174 calls)

     General routines
     calbec       :     27.32s CPU     27.54s WALL (     174 calls)
     fft          :      0.01s CPU      0.02s WALL (      21 calls)
     fftw         :     22.95s CPU     23.36s WALL (  111928 calls)
 
     Parallel routines

     PAW routines
     PAW_pot      :      0.62s CPU      0.71s WALL (       1 calls)
 
     PWSCF        :   5m36.83s CPU   5m52.63s WALL

 
   This run was terminated on:  17: 3:10   1Aug2026            

=------------------------------------------------------------------------------=
   JOB DONE.
=------------------------------------------------------------------------------=
