C8                                      
   1.00000000000000     
    10.7211360931000002    0.0000000000000000    0.0000000000000000
     0.0000000000000000   10.7211360931000002    0.0000000000000000
     0.0000000000000000    0.0000000000000000   10.7211360931000002
   C    N 
   214     1
Direct
     0.0832193083197310    0.0834774787185671    0.0834473576802666
     0.0834874704148373    0.0834835776750620    0.4167835832270854
     0.0826967159276520    0.0833055283483917    0.7500117507509863
     0.0836204462406812    0.4168745104043599    0.0830462197593164
     0.0833694206938996    0.4169783583280862    0.4166840462522958
     0.0828120367623640    0.4166205272147820    0.7498447321421559
     0.0835541903613451    0.7500825747254253    0.0831124756386525
     0.0838026939378461    0.7502257042571282    0.4164214502273365
     0.0834917726738962    0.7498024154123856    0.7496832521225241
     0.4166549162490148    0.0833055283483917    0.0839699500723455
     0.4167656745799144    0.0834947902196699    0.4172473318818063
     0.4160388995268060    0.0823583751704088    0.7506277674731954
     0.4168219348578454    0.4166205272147820    0.0838546292376336
     0.4186110507310239    0.4174447775527312    0.4186657256241368
     0.4150050672779419    0.4157498345462465    0.7516615997220590
     0.4169834148774772    0.7498024154123856    0.0831748933261014
     0.4167014642898211    0.7503119514734069    0.4168622657602430
     0.4172215858979264    0.7489852132900212    0.7494450811020749
     0.7498830837729153    0.0834835776750620    0.0831791955851603
     0.7499104842279453    0.0839064337380388    0.4167561827720562
     0.7494193351181949    0.0834947902196699    0.7499009924200867
     0.7499826207477056    0.4169783583280862    0.0832972453060980
     0.7562180981905613    0.4133806820709237    0.4104485688094398
     0.7480009413758644    0.4174447775527312    0.7480556162689775
     0.7502452167726650    0.7502257042571282    0.0828639720621515
     0.7503385921296069    0.7499342257679138    0.4163280748703944
     0.7498044012397584    0.7503119514734069    0.7499652027101802
     0.2499721953483929    0.2499882492490136    0.0839699500723455
     0.2501614572196711    0.2500990075799132    0.4172473318818063
     0.2490250421704100    0.2493722325268049    0.7506277674731954
     0.2501502446750632    0.5832164167729141    0.0831791955851603
     0.2505731007380400    0.5832438172279441    0.4167561827720562
     0.2501614572196711    0.5827526681181937    0.7499009924200867
     0.2501441457185682    0.9165526423197334    0.0834473576802666
     0.2501502446750632    0.9168208044148396    0.4167835832270854
     0.2499721953483929    0.9160300499276541    0.7500117507509863
     0.5832871932147797    0.2501552678578442    0.0838546292376336
     0.5841114435527289    0.2519443837310227    0.4186657256241368
     0.5824165005462439    0.2483384002779408    0.7516615997220590
     0.5836450243280839    0.5833159537477044    0.0832972453060980
     0.5800473480709214    0.5895514311905601    0.4104485688094398
     0.5841114435527289    0.5813342743758632    0.7480556162689775
     0.5835411764043575    0.9169537802406834    0.0830462197593164
     0.5836450243280839    0.9167027546939019    0.4166840462522958
     0.5832871932147797    0.9161453707623662    0.7498447321421559
     0.9164690824123868    0.2503167478774760    0.0831748933261014
     0.9169786184734081    0.2500347972898199    0.4168622657602430
     0.9156518802900224    0.2505549188979252    0.7494450811020749
     0.9168923712571294    0.5835785497726638    0.0828639720621515
     0.9166008927679150    0.5836719251296056    0.4163280748703944
     0.9169786184734081    0.5831377342397572    0.7499652027101802
     0.9167492417254265    0.9168875243613475    0.0831124756386525
     0.9168923712571294    0.9171360279378484    0.4164214502273365
     0.9164690824123868    0.9168251066738988    0.7496832521225241
     0.2502157250748001    0.0835490580747989    0.2503762814645340
     0.2494593712504309    0.0827927042504298    0.5836698112005505
     0.2495979464571165    0.0829312794571153    0.9170687205428846
     0.2507090869945643    0.4168993533621793    0.2506976327990516
     0.2498312161973538    0.4163574721721945    0.5836425278278057
     0.2494593712504309    0.4163301887994493    0.9172072957495704
     0.2504298236767353    0.7500438592005187    0.2499561407994810
     0.2507090869945643    0.7493023672009483    0.5831006466378206
     0.2502157250748001    0.7496237185354661    0.9164509419252010
     0.5835660193621770    0.0840424199945631    0.2506976327990516
     0.5830241381721919    0.0831645491973526    0.5836425278278057
     0.5829968547994471    0.0827927042504298    0.9172072957495704
     0.5841207118284978    0.4174540458285003    0.2510203801977506
     0.5830241381721919    0.4163574721721945    0.9168354508026471
     0.5841732246387097    0.7511602714350020    0.2488397285649982
     0.5841207118284978    0.7489796198022493    0.5825459541714998
     0.5835660193621770    0.7493023672009483    0.9159575800054369
     0.9167105262005200    0.0837631566767342    0.2499561407994810
     0.9159690342009496    0.0840424199945631    0.5831006466378206
     0.9162903855354673    0.0835490580747989    0.9164509419252010
     0.9178269384350032    0.4175065586387120    0.2488397285649982
     0.9156462868022505    0.4174540458285003    0.5825459541714998
     0.9159690342009496    0.4168993533621793    0.9159575800054369
     0.9169427192517003    0.7502760522516991    0.2497239477483008
     0.9178269384350032    0.7511602714350020    0.5824934413612879
     0.9167105262005200    0.7500438592005187    0.9162368433232662
     0.0834917726738962    0.2503167478774760    0.2501975845876145
     0.0828120367623640    0.2501552678578442    0.5833794727852178
     0.0826967159276520    0.2499882492490136    0.9166944716516081
     0.0838026939378460    0.5835785497726638    0.2497742957428716
     0.0833694206938996    0.5833159537477044    0.5830216416719137
     0.0834874704148373    0.5832164167729141    0.9165164223249382
     0.0835541903613451    0.9168875243613475    0.2499174252745749
     0.0836204462406812    0.9169537802406834    0.5831254895956400
     0.0832193083197310    0.9165526423197334    0.9165225212814330
     0.4172215858979264    0.2505549188979252    0.2510147867099789
     0.4150050672779419    0.2483384002779408    0.5842501654537536
     0.4160388995268060    0.2493722325268049    0.9176416248295914
     0.4167014642898211    0.5831377342397572    0.2496880485265930
     0.4186110507310239    0.5813342743758632    0.5825552224472687
     0.4167656745799144    0.5827526681181937    0.9165052097803299
     0.4169834148774772    0.9168251066738988    0.2501975845876145
     0.4168219348578454    0.9161453707623662    0.5833794727852178
     0.4166549162490148    0.9160300499276541    0.9166944716516081
     0.7498044012397584    0.2500347972898199    0.2496880485265930
     0.7480009413758644    0.2519443837310227    0.5825552224472687
     0.7494193351181949    0.2500990075799132    0.9165052097803299
     0.7503385921296069    0.5836719251296056    0.2500657742320864
     0.7562180981905613    0.5895514311905601    0.5866193179290762
     0.7499104842279453    0.5832438172279441    0.9160935662619613
     0.7502452167726650    0.9171360279378484    0.2497742957428716
     0.7499826207477056    0.9167027546939019    0.5830216416719137
     0.7498830837729153    0.9168208044148396    0.9165164223249382
     0.9998965619768416    0.0001673449859471    0.9998326550140529
     0.0001549673007291    0.0003821312669351    0.3331856533219874
     0.9995599260533961    0.0003050703028363    0.6665185133613725
     0.9995599260533961    0.3334814866386277    0.9996949296971637
     0.0001205645661041    0.3337978690671485    0.3332220260141294
     0.9990070680498354    0.3339234380256464    0.6660765619743533
     0.0001549673007291    0.6668143466780125    0.9996178687330650
     0.0001916786567052    0.6668043499189545    0.3331956500810453
     0.0001205645661041    0.6667779739858708    0.6662021309328515
     0.3333113613665246    0.9996952298297851    0.0003047701702148
     0.3336246832228388    0.0001792561701918    0.3335708769855570
     0.3330891455361757    0.9992691484479495    0.6669220816785109
     0.3330891455361757    0.3330779183214891    0.0007308515520506
     0.3345633613920934    0.3337036732436401    0.3347473811761301
     0.3321646312831623    0.3324387138475678    0.6675612861524320
     0.3336246832228388    0.6664291230144431    0.9998207438298081
     0.3338643191317406    0.6666423513545412    0.3333576486454589
     0.3345633613920934    0.6652526188238700    0.6662963267563597
     0.6665996109609976    0.0000113030446065    0.9999886969553934
     0.6668385556122695    0.0004221716366354    0.3335044864823369
     0.6664766049044133    0.9998102987177487    0.6665555620308478
     0.6664766049044133    0.3334444379691523    0.0001897012822513
     0.6678113279426057    0.3355665919457839    0.3348938460430911
     0.6621639313575797    0.3333059426942490    0.6666940573057512
     0.6668385556122695    0.6664955135176631    0.9995778283633650
     0.6664863412146326    0.6667330736268983    0.3332669263731020
     0.6678113279426057    0.6651061539569090    0.6644334080542161
     0.1663618968297863    0.1666446953665270    0.0003047701702148
     0.1668459231701931    0.1669580172228414    0.3335708769855570
     0.1659358154479506    0.1664224795361782    0.6669220816785109
     0.1666779700446077    0.4999329439609962    0.9999886969553934
     0.1670888386366365    0.5001718886122680    0.3335044864823369
     0.1664769657177499    0.4998099379044122    0.6665555620308478
     0.1668340119859483    0.8332298949768404    0.9998326550140529
     0.1670487982669364    0.8334883003007280    0.3331856533219874
     0.1669717373028375    0.8328932590533948    0.6665185133613725
     0.4997445853214905    0.1664224795361782    0.0007308515520506
     0.5003703402436415    0.1678966953920957    0.3347473811761301
     0.4991053808475691    0.1654979652831647    0.6675612861524320
     0.5001111049691535    0.4998099379044122    0.0001897012822513
     0.5022332589457851    0.5011446609426045    0.3348938460430911
     0.4999726096942501    0.4954972643575783    0.6666940573057512
     0.5001481536386287    0.8328932590533948    0.9996949296971637
     0.5004645360671497    0.8334538975661029    0.3332220260141294
     0.5005901050256479    0.8323404010498342    0.6660765619743533
     0.8330957890144407    0.1669580172228414    0.9998207438298081
     0.8333090173545388    0.1671976531317431    0.3333576486454589
     0.8319192848238676    0.1678966953920957    0.6662963267563597
     0.8331621795176607    0.5001718886122680    0.9995778283633650
     0.8333997396268958    0.4998196742146313    0.3332669263731020
     0.8317728199569066    0.5011446609426045    0.6644334080542161
     0.8334810126780101    0.8334883003007280    0.9996178687330650
     0.8334710159189521    0.8335250116567040    0.3331956500810453
     0.8334446399858684    0.8334538975661029    0.6662021309328515
     0.1668340119859483    0.0001673449859471    0.1667701050231593
     0.1666779700446077    0.0000113030446065    0.5000670560390037
     0.1663618968297863    0.9996952298297851    0.8333553046334728
     0.1669717373028375    0.3334814866386277    0.1671067409466052
     0.1664769657177499    0.3334444379691523    0.5001900620955879
     0.1659358154479506    0.3330779183214891    0.8335775204638216
     0.1670487982669364    0.6668143466780125    0.1665116996992721
     0.1670888386366365    0.6664955135176631    0.4998281113877320
     0.1668459231701931    0.6664291230144431    0.8330419827771585
     0.5001481536386287    0.0003050703028363    0.1671067409466052
     0.5001111049691535    0.9998102987177487    0.5001900620955879
     0.4997445853214905    0.9992691484479495    0.8335775204638216
     0.5005901050256479    0.3339234380256464    0.1676595989501659
     0.4999726096942501    0.3333059426942490    0.5045027356424215
     0.4991053808475691    0.3324387138475678    0.8345020347168353
     0.5004645360671497    0.6667779739858708    0.1665461024338971
     0.5022332589457851    0.6651061539569090    0.4988553390573955
     0.5003703402436415    0.6652526188238700    0.8321033046079042
     0.8334810126780101    0.0003821312669351    0.1665116996992721
     0.8331621795176607    0.0004221716366354    0.4998281113877320
     0.8330957890144407    0.0001792561701918    0.8330419827771585
     0.8334446399858684    0.3337978690671485    0.1665461024338971
     0.8317728199569066    0.3355665919457839    0.4988553390573955
     0.8319192848238676    0.3337036732436401    0.8321033046079042
     0.8334710159189521    0.6668043499189545    0.1664749883432960
     0.8333997396268958    0.6667330736268983    0.5001803257853686
     0.8333090173545388    0.6666423513545412    0.8328023468682567
     0.9999588693578734    0.1670697719441943    0.1667077976421280
     0.9999290116189874    0.1668177238566133    0.4998515572184593
     0.9992330938735732    0.1669107174400453    0.8330892825599545
     0.0007595408647816    0.5002188840416047    0.1659071261352197
     0.9996160556488671    0.5003941689650503    0.4996058310349497
     0.9999290116189874    0.5001484427815408    0.8331822761433867
     0.0002328176336689    0.8335661506336676    0.1664338493663323
     0.0007595408647816    0.8340928738647803    0.4997811159583950
     0.9999588693578734    0.8332922023578723    0.8329302280558060
     0.3335773834400430    0.1669107174400453    0.1674335731264279
     0.3325839076191104    0.1659172416191129    0.5007043672979874
     0.3327050084043135    0.1660383424043159    0.8339616575956841
     0.3334843898566108    0.5001484427815408    0.1667376553810139
     0.3340139876484376    0.4996976653008312    0.5003023346991686
     0.3325839076191104    0.4992956327020124    0.8340827583808872
     0.3337364379441918    0.8332922023578723    0.1667077976421280
     0.3334843898566108    0.8332623446189863    0.4998515572184593
     0.3335773834400430    0.8325664268735720    0.8330892825599545
     0.6668151097815420    0.1668177238566133    0.1667376553810139
     0.6663643323008327    0.1673473216484400    0.5003023346991686
     0.6659622997020139    0.1659172416191129    0.8340827583808872
     0.6670608359650515    0.5003941689650503    0.1670506113511340
     0.6663643323008327    0.4996976653008312    0.8326526783515599
     0.6668855510416060    0.8340928738647803    0.1659071261352197
     0.6670608359650515    0.8329493886488659    0.4996058310349497
     0.6668151097815420    0.8332623446189863    0.8331822761433867
     0.5751246561854629    0.4084579901854651    0.5915420098145346
 
  0.00000000E+00  0.00000000E+00  0.00000000E+00
  0.00000000E+00  0.00000000E+00  0.00000000E+00
  0.00000000E+00  0.00000000E+00  0.00000000E+00
  0.00000000E+00  0.00000000E+00  0.00000000E+00
  0.00000000E+00  0.00000000E+00  0.00000000E+00
  0.00000000E+00  0.00000000E+00  0.00000000E+00
  0.00000000E+00  0.00000000E+00  0.00000000E+00
  0.00000000E+00  0.00000000E+00  0.00000000E+00
  0.00000000E+00  0.00000000E+00  0.00000000E+00
  0.00000000E+00  0.00000000E+00  0.00000000E+00
  0.00000000E+00  0.00000000E+00  0.00000000E+00
  0.00000000E+00  0.00000000E+00  0.00000000E+00
  0.00000000E+00  0.00000000E+00  0.00000000E+00
  0.00000000E+00  0.00000000E+00  0.00000000E+00
  0.00000000E+00  0.00000000E+00  0.00000000E+00
  0.00000000E+00  0.00000000E+00  0.00000000E+00
  0.00000000E+00  0.00000000E+00  0.00000000E+00
  0.00000000E+00  0.00000000E+00  0.00000000E+00
  0.00000000E+00  0.00000000E+00  0.00000000E+00
  0.00000000E+00  0.00000000E+00  0.00000000E+00
  0.00000000E+00  0.00000000E+00  0.00000000E+00
  0.00000000E+00  0.00000000E+00  0.00000000E+00
  0.00000000E+00  0.00000000E+00  0.00000000E+00
  0.00000000E+00  0.00000000E+00  0.00000000E+00
  0.00000000E+00  0.00000000E+00  0.00000000E+00
  0.00000000E+00  0.00000000E+00  0.00000000E+00
  0.00000000E+00  0.00000000E+00  0.00000000E+00
  0.00000000E+00  0.00000000E+00  0.00000000E+00
  0.00000000E+00  0.00000000E+00  0.00000000E+00
  0.00000000E+00  0.00000000E+00  0.00000000E+00
  0.00000000E+00  0.00000000E+00  0.00000000E+00
  0.00000000E+00  0.00000000E+00  0.00000000E+00
  0.00000000E+00  0.00000000E+00  0.00000000E+00
  0.00000000E+00  0.00000000E+00  0.00000000E+00
  0.00000000E+00  0.00000000E+00  0.00000000E+00
  0.00000000E+00  0.00000000E+00  0.00000000E+00
  0.00000000E+00  0.00000000E+00  0.00000000E+00
  0.00000000E+00  0.00000000E+00  0.00000000E+00
  0.00000000E+00  0.00000000E+00  0.00000000E+00
  0.00000000E+00  0.00000000E+00  0.00000000E+00
  0.00000000E+00  0.00000000E+00  0.00000000E+00
  0.00000000E+00  0.00000000E+00  0.00000000E+00
  0.00000000E+00  0.00000000E+00  0.00000000E+00
  0.00000000E+00  0.00000000E+00  0.00000000E+00
  0.00000000E+00  0.00000000E+00  0.00000000E+00
  0.00000000E+00  0.00000000E+00  0.00000000E+00
  0.00000000E+00  0.00000000E+00  0.00000000E+00
  0.00000000E+00  0.00000000E+00  0.00000000E+00
  0.00000000E+00  0.00000000E+00  0.00000000E+00
  0.00000000E+00  0.00000000E+00  0.00000000E+00
  0.00000000E+00  0.00000000E+00  0.00000000E+00
  0.00000000E+00  0.00000000E+00  0.00000000E+00
  0.00000000E+00  0.00000000E+00  0.00000000E+00
  0.00000000E+00  0.00000000E+00  0.00000000E+00
  0.00000000E+00  0.00000000E+00  0.00000000E+00
  0.00000000E+00  0.00000000E+00  0.00000000E+00
  0.00000000E+00  0.00000000E+00  0.00000000E+00
  0.00000000E+00  0.00000000E+00  0.00000000E+00
  0.00000000E+00  0.00000000E+00  0.00000000E+00
  0.00000000E+00  0.00000000E+00  0.00000000E+00
  0.00000000E+00  0.00000000E+00  0.00000000E+00
  0.00000000E+00  0.00000000E+00  0.00000000E+00
  0.00000000E+00  0.00000000E+00  0.00000000E+00
  0.00000000E+00  0.00000000E+00  0.00000000E+00
  0.00000000E+00  0.00000000E+00  0.00000000E+00
  0.00000000E+00  0.00000000E+00  0.00000000E+00
  0.00000000E+00  0.00000000E+00  0.00000000E+00
  0.00000000E+00  0.00000000E+00  0.00000000E+00
  0.00000000E+00  0.00000000E+00  0.00000000E+00
  0.00000000E+00  0.00000000E+00  0.00000000E+00
  0.00000000E+00  0.00000000E+00  0.00000000E+00
  0.00000000E+00  0.00000000E+00  0.00000000E+00
  0.00000000E+00  0.00000000E+00  0.00000000E+00
  0.00000000E+00  0.00000000E+00  0.00000000E+00
  0.00000000E+00  0.00000000E+00  0.00000000E+00
  0.00000000E+00  0.00000000E+00  0.00000000E+00
  0.00000000E+00  0.00000000E+00  0.00000000E+00
  0.00000000E+00  0.00000000E+00  0.00000000E+00
  0.00000000E+00  0.00000000E+00  0.00000000E+00
  0.00000000E+00  0.00000000E+00  0.00000000E+00
  0.00000000E+00  0.00000000E+00  0.00000000E+00
  0.00000000E+00  0.00000000E+00  0.00000000E+00
  0.00000000E+00  0.00000000E+00  0.00000000E+00
  0.00000000E+00  0.00000000E+00  0.00000000E+00
  0.00000000E+00  0.00000000E+00  0.00000000E+00
  0.00000000E+00  0.00000000E+00  0.00000000E+00
  0.00000000E+00  0.00000000E+00  0.00000000E+00
  0.00000000E+00  0.00000000E+00  0.00000000E+00
  0.00000000E+00  0.00000000E+00  0.00000000E+00
  0.00000000E+00  0.00000000E+00  0.00000000E+00
  0.00000000E+00  0.00000000E+00  0.00000000E+00
  0.00000000E+00  0.00000000E+00  0.00000000E+00
  0.00000000E+00  0.00000000E+00  0.00000000E+00
  0.00000000E+00  0.00000000E+00  0.00000000E+00
  0.00000000E+00  0.00000000E+00  0.00000000E+00
  0.00000000E+00  0.00000000E+00  0.00000000E+00
  0.00000000E+00  0.00000000E+00  0.00000000E+00
  0.00000000E+00  0.00000000E+00  0.00000000E+00
  0.00000000E+00  0.00000000E+00  0.00000000E+00
  0.00000000E+00  0.00000000E+00  0.00000000E+00
  0.00000000E+00  0.00000000E+00  0.00000000E+00
  0.00000000E+00  0.00000000E+00  0.00000000E+00
  0.00000000E+00  0.00000000E+00  0.00000000E+00
  0.00000000E+00  0.00000000E+00  0.00000000E+00
  0.00000000E+00  0.00000000E+00  0.00000000E+00
  0.00000000E+00  0.00000000E+00  0.00000000E+00
  0.00000000E+00  0.00000000E+00  0.00000000E+00
  0.00000000E+00  0.00000000E+00  0.00000000E+00
  0.00000000E+00  0.00000000E+00  0.00000000E+00
  0.00000000E+00  0.00000000E+00  0.00000000E+00
  0.00000000E+00  0.00000000E+00  0.00000000E+00
  0.00000000E+00  0.00000000E+00  0.00000000E+00
  0.00000000E+00  0.00000000E+00  0.00000000E+00
  0.00000000E+00  0.00000000E+00  0.00000000E+00
  0.00000000E+00  0.00000000E+00  0.00000000E+00
  0.00000000E+00  0.00000000E+00  0.00000000E+00
  0.00000000E+00  0.00000000E+00  0.00000000E+00
  0.00000000E+00  0.00000000E+00  0.00000000E+00
  0.00000000E+00  0.00000000E+00  0.00000000E+00
  0.00000000E+00  0.00000000E+00  0.00000000E+00
  0.00000000E+00  0.00000000E+00  0.00000000E+00
  0.00000000E+00  0.00000000E+00  0.00000000E+00
  0.00000000E+00  0.00000000E+00  0.00000000E+00
  0.00000000E+00  0.00000000E+00  0.00000000E+00
  0.00000000E+00  0.00000000E+00  0.00000000E+00
  0.00000000E+00  0.00000000E+00  0.00000000E+00
  0.00000000E+00  0.00000000E+00  0.00000000E+00
  0.00000000E+00  0.00000000E+00  0.00000000E+00
  0.00000000E+00  0.00000000E+00  0.00000000E+00
  0.00000000E+00  0.00000000E+00  0.00000000E+00
  0.00000000E+00  0.00000000E+00  0.00000000E+00
  0.00000000E+00  0.00000000E+00  0.00000000E+00
  0.00000000E+00  0.00000000E+00  0.00000000E+00
  0.00000000E+00  0.00000000E+00  0.00000000E+00
  0.00000000E+00  0.00000000E+00  0.00000000E+00
  0.00000000E+00  0.00000000E+00  0.00000000E+00
  0.00000000E+00  0.00000000E+00  0.00000000E+00
  0.00000000E+00  0.00000000E+00  0.00000000E+00
  0.00000000E+00  0.00000000E+00  0.00000000E+00
  0.00000000E+00  0.00000000E+00  0.00000000E+00
  0.00000000E+00  0.00000000E+00  0.00000000E+00
  0.00000000E+00  0.00000000E+00  0.00000000E+00
  0.00000000E+00  0.00000000E+00  0.00000000E+00
  0.00000000E+00  0.00000000E+00  0.00000000E+00
  0.00000000E+00  0.00000000E+00  0.00000000E+00
  0.00000000E+00  0.00000000E+00  0.00000000E+00
  0.00000000E+00  0.00000000E+00  0.00000000E+00
  0.00000000E+00  0.00000000E+00  0.00000000E+00
  0.00000000E+00  0.00000000E+00  0.00000000E+00
  0.00000000E+00  0.00000000E+00  0.00000000E+00
  0.00000000E+00  0.00000000E+00  0.00000000E+00
  0.00000000E+00  0.00000000E+00  0.00000000E+00
  0.00000000E+00  0.00000000E+00  0.00000000E+00
  0.00000000E+00  0.00000000E+00  0.00000000E+00
  0.00000000E+00  0.00000000E+00  0.00000000E+00
  0.00000000E+00  0.00000000E+00  0.00000000E+00
  0.00000000E+00  0.00000000E+00  0.00000000E+00
  0.00000000E+00  0.00000000E+00  0.00000000E+00
  0.00000000E+00  0.00000000E+00  0.00000000E+00
  0.00000000E+00  0.00000000E+00  0.00000000E+00
  0.00000000E+00  0.00000000E+00  0.00000000E+00
  0.00000000E+00  0.00000000E+00  0.00000000E+00
  0.00000000E+00  0.00000000E+00  0.00000000E+00
  0.00000000E+00  0.00000000E+00  0.00000000E+00
  0.00000000E+00  0.00000000E+00  0.00000000E+00
  0.00000000E+00  0.00000000E+00  0.00000000E+00
  0.00000000E+00  0.00000000E+00  0.00000000E+00
  0.00000000E+00  0.00000000E+00  0.00000000E+00
  0.00000000E+00  0.00000000E+00  0.00000000E+00
  0.00000000E+00  0.00000000E+00  0.00000000E+00
  0.00000000E+00  0.00000000E+00  0.00000000E+00
  0.00000000E+00  0.00000000E+00  0.00000000E+00
  0.00000000E+00  0.00000000E+00  0.00000000E+00
  0.00000000E+00  0.00000000E+00  0.00000000E+00
  0.00000000E+00  0.00000000E+00  0.00000000E+00
  0.00000000E+00  0.00000000E+00  0.00000000E+00
  0.00000000E+00  0.00000000E+00  0.00000000E+00
  0.00000000E+00  0.00000000E+00  0.00000000E+00
  0.00000000E+00  0.00000000E+00  0.00000000E+00
  0.00000000E+00  0.00000000E+00  0.00000000E+00
  0.00000000E+00  0.00000000E+00  0.00000000E+00
  0.00000000E+00  0.00000000E+00  0.00000000E+00
  0.00000000E+00  0.00000000E+00  0.00000000E+00
  0.00000000E+00  0.00000000E+00  0.00000000E+00
  0.00000000E+00  0.00000000E+00  0.00000000E+00
  0.00000000E+00  0.00000000E+00  0.00000000E+00
  0.00000000E+00  0.00000000E+00  0.00000000E+00
  0.00000000E+00  0.00000000E+00  0.00000000E+00
  0.00000000E+00  0.00000000E+00  0.00000000E+00
  0.00000000E+00  0.00000000E+00  0.00000000E+00
  0.00000000E+00  0.00000000E+00  0.00000000E+00
  0.00000000E+00  0.00000000E+00  0.00000000E+00
  0.00000000E+00  0.00000000E+00  0.00000000E+00
  0.00000000E+00  0.00000000E+00  0.00000000E+00
  0.00000000E+00  0.00000000E+00  0.00000000E+00
  0.00000000E+00  0.00000000E+00  0.00000000E+00
  0.00000000E+00  0.00000000E+00  0.00000000E+00
  0.00000000E+00  0.00000000E+00  0.00000000E+00
  0.00000000E+00  0.00000000E+00  0.00000000E+00
  0.00000000E+00  0.00000000E+00  0.00000000E+00
  0.00000000E+00  0.00000000E+00  0.00000000E+00
  0.00000000E+00  0.00000000E+00  0.00000000E+00
  0.00000000E+00  0.00000000E+00  0.00000000E+00
  0.00000000E+00  0.00000000E+00  0.00000000E+00
  0.00000000E+00  0.00000000E+00  0.00000000E+00
  0.00000000E+00  0.00000000E+00  0.00000000E+00
  0.00000000E+00  0.00000000E+00  0.00000000E+00
  0.00000000E+00  0.00000000E+00  0.00000000E+00
  0.00000000E+00  0.00000000E+00  0.00000000E+00
  0.00000000E+00  0.00000000E+00  0.00000000E+00
  0.00000000E+00  0.00000000E+00  0.00000000E+00
  0.00000000E+00  0.00000000E+00  0.00000000E+00
  0.00000000E+00  0.00000000E+00  0.00000000E+00
  0.00000000E+00  0.00000000E+00  0.00000000E+00
  0.00000000E+00  0.00000000E+00  0.00000000E+00
