
     Program PWSCF v.7.4.1 starts on 23Aug2026 at  0:41:49 

     This program is part of the open-source Quantum ESPRESSO suite
     for quantum simulation of materials; please cite
         "P. Giannozzi et al., J. Phys.:Condens. Matter 21 395502 (2009);
         "P. Giannozzi et al., J. Phys.:Condens. Matter 29 465901 (2017);
         "P. Giannozzi et al., J. Chem. Phys. 152 154105 (2020);
          URL http://www.quantum-espresso.org", 
     in publications or presentations arising from this work. More details at
     http://www.quantum-espresso.org/quote

     Parallel version (MPI), running on    24 processors

     MPI processes distributed on     1 nodes
     123537 MiB available memory on the printing compute node when the environment starts
 
     Reading input from scf.in

     Current dimensions of program PWSCF are:
     Max number of different atomic species (ntypx) = 10
     Max number of k-points (npk) =  40000
     Max angular momentum in pseudopotentials (lmaxx) =  4
     file C.pbe-n-kjpaw_psl.1.0.0.UPF: wavefunction(s)  2S 2P renormalized
     file N.pbe-n-kjpaw_psl.1.0.0.UPF: wavefunction(s)  2S renormalized
 
     R & G space division:  proc/nbgrp/npool/nimage =      24
     Subspace diagonalization in iterative solution of the eigenvalue problem:
     one sub-group per band group will be used
     scalapack distributed-memory algorithm (size of sub-group:  4*  4 procs)

 
     Parallelization info
     --------------------
     sticks:   dense  smooth     PW     G-vecs:    dense   smooth      PW
     Min         244     244     61                14112    14112    1765
     Max         245     245     62                14117    14117    1768
     Sum        5877    5877   1473               338755   338755   42379
 
     Using Slab Decomposition
 


     bravais-lattice index     =            0
     lattice parameter (alat)  =      20.2515  a.u.
     unit-cell volume          =    8305.5769 (a.u.)^3
     number of atoms/cell      =          215
     number of atomic types    =            2
     number of electrons       =       862.00 (up: 432.00, down: 430.00)
     number of Kohn-Sham states=          862
     kinetic-energy cutoff     =      45.0000  Ry
     charge density cutoff     =     180.0000  Ry
     scf convergence threshold =      1.0E-08
     mixing beta               =       0.7000
     number of iterations used =            8  plain     mixing
     Exchange-correlation= SLA  PW   PBX  PBC
                           (   1   4   3   4   0   0   0)

     celldm(1)=  20.251472  celldm(2)=   0.000000  celldm(3)=   0.000000
     celldm(4)=   0.000000  celldm(5)=   0.000000  celldm(6)=   0.000000

     crystal axes: (cart. coord. in units of alat)
               a(1) = (  -0.707107   0.000000   0.707107 )  
               a(2) = (   0.408248   0.816497   0.408248 )  
               a(3) = (  -0.577350   0.577350  -0.577350 )  

     reciprocal axes: (cart. coord. in units 2 pi/alat)
               b(1) = ( -0.707107  0.000000  0.707107 )  
               b(2) = (  0.408248  0.816497  0.408248 )  
               b(3) = ( -0.577350  0.577350 -0.577350 )  


     PseudoPot. # 1 for C  read from file:
     ../../pseudos/C.pbe-n-kjpaw_psl.1.0.0.UPF
     MD5 check sum: 5f16ad9a65e90284d1d834d4ab3b0f7d
     Pseudo is Projector augmented-wave + core cor, Zval =  4.0
     Generated using &quot;atomic&quot; code by A. Dal Corso  v.6.3
     Shape of augmentation charge: PSQ
     Using radial grid of 1073 points,  4 beta functions with: 
                l(1) =   0
                l(2) =   0
                l(3) =   1
                l(4) =   1
     Q(r) pseudized with 0 coefficients 


     PseudoPot. # 2 for N  read from file:
     ../../pseudos/N.pbe-n-kjpaw_psl.1.0.0.UPF
     MD5 check sum: a6186d50559fdcbe4b2d0187dd61a119
     Pseudo is Projector augmented-wave + core cor, Zval =  5.0
     Generated using &quot;atomic&quot; code by A. Dal Corso  v.6.3
     Shape of augmentation charge: PSQ
     Using radial grid of 1085 points,  4 beta functions with: 
                l(1) =   0
                l(2) =   0
                l(3) =   1
                l(4) =   1
     Q(r) pseudized with 0 coefficients 


     atomic species   valence    mass     pseudopotential
     C                 4.00    12.01070     C ( 1.00)
     N                 5.00    14.00670     N ( 1.00)

     Starting magnetic structure 
     atomic species   magnetization
     C               0.000
     N               0.000

     No symmetry found



   Cartesian axes

     site n.     atom                  positions (alat units)
         1        C      tau(   1) = (  -0.0000895   0.0000968   0.0000660  )
         2        C      tau(   2) = (  -0.1925216   0.1926934  -0.1922139  )
         3        C      tau(   3) = (  -0.3850032   0.3849039  -0.3849202  )
         4        C      tau(   4) = (   0.1357940   0.2723561   0.1361016  )
         5        C      tau(   5) = (  -0.0569069   0.4653319  -0.0560015  )
         6        C      tau(   6) = (  -0.2488258   0.6571000  -0.2489599  )
         7        C      tau(   7) = (   0.2721811   0.5443636   0.2722642  )
         8        C      tau(   8) = (   0.0798455   0.7368491   0.0797114  )
         9        C      tau(   9) = (  -0.1130349   0.9287793  -0.1123248  )
        10        C      tau(  10) = (  -0.2357527   0.0002427   0.2356939  )
        11        C      tau(  11) = (  -0.4282886   0.1925437   0.0432140  )
        12        C      tau(  12) = (  -0.6205766   0.3849215  -0.1490583  )
        13        C      tau(  13) = (  -0.0996083   0.2722949   0.3718942  )
        14        C      tau(  14) = (  -0.2942080   0.4657697   0.1811933  )
        15        C      tau(  15) = (  -0.4827905   0.6573930  -0.0133871  )
        16        C      tau(  16) = (   0.0363234   0.5443122   0.5078417  )
        17        C      tau(  17) = (  -0.1557503   0.7367462   0.3136531  )
        18        C      tau(  18) = (  -0.3490728   0.9282460   0.1238426  )
        19        C      tau(  19) = (  -0.4714243   0.0000376   0.4714152  )
        20        C      tau(  20) = (  -0.6639433   0.1924078   0.2788980  )
        21        C      tau(  21) = (  -0.8562484   0.3851149   0.0865877  )
        22        C      tau(  22) = (  -0.3352595   0.2721599   0.6075817  )
        23        C      tau(  23) = (  -0.5280983   0.4643887   0.4154187  )
        24        C      tau(  24) = (  -0.7191120   0.6569275   0.2225800  )
        25        C      tau(  25) = (  -0.1993690   0.5445006   0.7434672  )
        26        C      tau(  26) = (  -0.3916179   0.7363909   0.5500741  )
        27        C      tau(  27) = (  -0.5843967   0.9294833   0.3588662  )
        28        C      tau(  28) = (  -0.0499598   0.1363080   0.1858663  )
        29        C      tau(  29) = (  -0.2426768   0.3294768  -0.0057793  )
        30        C      tau(  30) = (  -0.4348564   0.5209316  -0.1992254  )
        31        C      tau(  31) = (   0.0860933   0.4083383   0.3220982  )
        32        C      tau(  32) = (  -0.1065966   0.6024566   0.1302108  )
        33        C      tau(  33) = (  -0.2991941   0.7919745  -0.0623095  )
        34        C      tau(  34) = (   0.2223718   0.6804456   0.4581557  )
        35        C      tau(  35) = (   0.0299998   0.8730289   0.2657361  )
        36        C      tau(  36) = (  -0.1628305   1.0648235   0.0735157  )
        37        C      tau(  37) = (  -0.2854641   0.1361170   0.4217436  )
        38        C      tau(  38) = (  -0.4782264   0.3281360   0.2292954  )
        39        C      tau(  39) = (  -0.6694768   0.5213209   0.0373369  )
        40        C      tau(  40) = (  -0.1493903   0.4083016   0.5576825  )
        41        C      tau(  41) = (  -0.3429641   0.5989728   0.3631488  )
        42        C      tau(  42) = (  -0.5328026   0.7940321   0.1732663  )
        43        C      tau(  43) = (  -0.0135960   0.6804970   0.6936315  )
        44        C      tau(  44) = (  -0.2060305   0.8727440   0.5005329  )
        45        C      tau(  45) = (  -0.3983323   1.0655598   0.3090062  )
        46        C      tau(  46) = (  -0.5212588   0.1361876   0.6573999  )
        47        C      tau(  47) = (  -0.7138133   0.3286557   0.4650158  )
        48        C      tau(  48) = (  -0.9060223   0.5210995   0.2723465  )
        49        C      tau(  49) = (  -0.3851604   0.4084314   0.7932900  )
        50        C      tau(  50) = (  -0.5777348   0.6008381   0.6009542  )
        51        C      tau(  51) = (  -0.7699957   0.7931415   0.4085809  )
        52        C      tau(  52) = (  -0.2491240   0.6804712   0.9294747  )
        53        C      tau(  53) = (  -0.4414650   0.8728192   0.7368552  )
        54        C      tau(  54) = (  -0.6340881   1.0654157   0.5446762  )
        55        C      tau(  55) = (  -0.2141081   0.0964789   0.0217180  )
        56        C      tau(  56) = (  -0.4066720   0.2887734  -0.1706672  )
        57        C      tau(  57) = (  -0.5990783   0.4811283  -0.3632944  )
        58        C      tau(  58) = (  -0.0789839   0.3691954   0.1579137  )
        59        C      tau(  59) = (  -0.2715359   0.5624356  -0.0347285  )
        60        C      tau(  60) = (  -0.4630542   0.7533940  -0.2273180  )
        61        C      tau(  61) = (   0.0583088   0.6405936   0.2939398  )
        62        C      tau(  62) = (  -0.1346981   0.8318879   0.1021865  )
        63        C      tau(  63) = (  -0.3270510   1.0249769  -0.0907048  )
        64        C      tau(  64) = (  -0.4499297   0.0962110   0.2572780  )
        65        C      tau(  65) = (  -0.6422448   0.2887151   0.0648280  )
        66        C      tau(  66) = (  -0.8345803   0.4812928  -0.1273527  )
        67        C      tau(  67) = (  -0.3137561   0.3680432   0.3937657  )
        68        C      tau(  68) = (  -0.5037508   0.5599594   0.2023620  )
        69        C      tau(  69) = (  -0.6978192   0.7534160   0.0087442  )
        70        C      tau(  70) = (  -0.1782898   0.6405029   0.5285240  )
        71        C      tau(  71) = (  -0.3707025   0.8333642   0.3353663  )
        72        C      tau(  72) = (  -0.5627154   1.0256737   0.1446232  )
        73        C      tau(  73) = (  -0.6856066   0.0963102   0.4930521  )
        74        C      tau(  74) = (  -0.8778876   0.2888758   0.3005629  )
        75        C      tau(  75) = (  -1.0704083   0.4811942   0.1081904  )
        76        C      tau(  76) = (  -0.5495952   0.3685017   0.6292339  )
        77        C      tau(  77) = (  -0.7419092   0.5610027   0.4367799  )
        78        C      tau(  78) = (  -0.9341338   0.7532777   0.2441864  )
        79        C      tau(  79) = (  -0.4132911   0.6406562   0.7650777  )
        80        C      tau(  80) = (  -0.6058609   0.8329672   0.5727157  )
        81        C      tau(  81) = (  -0.7983538   1.0255581   0.3804104  )
        82        C      tau(  82) = (  -0.0284558   0.2326795  -0.0280017  )
        83        C      tau(  83) = (  -0.2206594   0.4245393  -0.2212277  )
        84        C      tau(  84) = (  -0.4131344   0.6173063  -0.4130120  )
        85        C      tau(  85) = (   0.1085268   0.5044133   0.1079586  )
        86        C      tau(  86) = (  -0.0849893   0.6970419  -0.0841414  )
        87        C      tau(  87) = (  -0.2770559   0.8896202  -0.2776295  )
        88        C      tau(  88) = (   0.2438874   0.7767266   0.2440099  )
        89        C      tau(  89) = (   0.0520826   0.9694826   0.0515089  )
        90        C      tau(  90) = (  -0.1410692   1.1613884  -0.1407308  )
        91        C      tau(  91) = (  -0.2639797   0.2321540   0.2076497  )
        92        C      tau(  92) = (  -0.4562542   0.4251155   0.0152854  )
        93        C      tau(  93) = (  -0.6491974   0.6171637  -0.1779359  )
        94        C      tau(  94) = (  -0.1280958   0.5047400   0.3434438  )
        95        C      tau(  95) = (  -0.5124301   0.8891720  -0.0409609  )
        96        C      tau(  96) = (   0.0088167   0.7768247   0.4800783  )
        97        C      tau(  97) = (  -0.1844434   0.9687549   0.2870257  )
        98        C      tau(  98) = (  -0.3768587   1.1622867   0.0948406  )
        99        C      tau(  99) = (  -0.4996914   0.2322804   0.4433307  )
       100        C      tau( 100) = (  -0.6922362   0.4246522   0.2509127  )
       101        C      tau( 101) = (  -0.8841732   0.6173159   0.0584436  )
       102        C      tau( 102) = (  -0.3636241   0.5043869   0.5795249  )
       103        C      tau( 103) = (  -0.5557600   0.6969710   0.3866464  )
       104        C      tau( 104) = (  -0.7490144   0.8898698   0.1945881  )
       105        C      tau( 105) = (  -0.2275585   0.7766374   0.7150583  )
       106        C      tau( 106) = (  -0.4201865   0.9696568   0.5234160  )
       107        C      tau( 107) = (  -0.6123604   1.1616016   0.3305086  )
       108        C      tau( 108) = (  -0.0731478   0.1164039   0.0449034  )
       109        C      tau( 109) = (  -0.2656994   0.3090025  -0.1473669  )
       110        C      tau( 110) = (  -0.4580481   0.5010071  -0.3401401  )
       111        C      tau( 111) = (   0.0627225   0.3886910   0.1810549  )
       112        C      tau( 112) = (  -0.1301408   0.5816064  -0.0109806  )
       113        C      tau( 113) = (  -0.3217131   0.7739511  -0.2050296  )
       114        C      tau( 114) = (   0.1992271   0.6604888   0.3171350  )
       115        C      tau( 115) = (   0.0075451   0.8538425   0.1242287  )
       116        C      tau( 116) = (  -0.1859764   1.0450439  -0.0675938  )
       117        C      tau( 117) = (  -0.3087970   0.1161429   0.2806160  )
       118        C      tau( 118) = (  -0.5012585   0.3086281   0.0881079  )
       119        C      tau( 119) = (  -0.6932994   0.5012050  -0.1041700  )
       120        C      tau( 120) = (  -0.1726664   0.3883579   0.4166999  )
       121        C      tau( 121) = (  -0.5564984   0.7732505   0.0320906  )
       122        C      tau( 122) = (  -0.0367691   0.6605060   0.5523602  )
       123        C      tau( 123) = (  -0.2293432   0.8526316   0.3592458  )
       124        C      tau( 124) = (  -0.4215530   1.0467174   0.1675768  )
       125        C      tau( 125) = (  -0.5445099   0.1161654   0.5163235  )
       126        C      tau( 126) = (  -0.7369841   0.3086092   0.3238714  )
       127        C      tau( 127) = (  -0.9292080   0.5011946   0.1313831  )
       128        C      tau( 128) = (  -0.4084244   0.3883311   0.6524310  )
       129        C      tau( 129) = (  -0.6008958   0.5808432   0.4599597  )
       130        C      tau( 130) = (  -0.7928846   0.7732782   0.2674887  )
       131        C      tau( 131) = (  -0.2723300   0.6605799   0.7882612  )
       132        C      tau( 132) = (  -0.4647761   0.8528907   0.5955972  )
       133        C      tau( 133) = (  -0.6573505   1.0455120   0.4036668  )
       134        C      tau( 134) = (  -0.1230304   0.2525209   0.2308244  )
       135        C      tau( 135) = (  -0.3161516   0.4463968   0.0391025  )
       136        C      tau( 136) = (  -0.5090032   0.6368674  -0.1550003  )
       137        C      tau( 137) = (   0.0131599   0.5245110   0.3668209  )
       138        C      tau( 138) = (  -0.1663927   0.7185832   0.1766338  )
       139        C      tau( 139) = (  -0.3717767   0.9085684  -0.0174727  )
       140        C      tau( 140) = (   0.1494845   0.7967568   0.5032489  )
       141        C      tau( 141) = (  -0.0432620   0.9890538   0.3104381  )
       142        C      tau( 142) = (  -0.2356641   1.1814833   0.1180779  )
       143        C      tau( 143) = (  -0.3585874   0.2520412   0.4666734  )
       144        C      tau( 144) = (  -0.5515999   0.4439804   0.2744456  )
       145        C      tau( 145) = (  -0.7427872   0.6372991   0.0816988  )
       146        C      tau( 146) = (  -0.2225690   0.5244650   0.6023059  )
       147        C      tau( 147) = (  -0.4150387   0.7165609   0.4081518  )
       148        C      tau( 148) = (  -0.6088881   0.9097601   0.2177780  )
       149        C      tau( 149) = (  -0.0865069   0.7965800   0.7384515  )
       150        C      tau( 150) = (  -0.2789223   0.9890345   0.5460393  )
       151        C      tau( 151) = (  -0.4712397   1.1816610   0.3538159  )
       152        C      tau( 152) = (  -0.5944451   0.2524423   0.7022525  )
       153        C      tau( 153) = (  -0.7868497   0.4448678   0.5098007  )
       154        C      tau( 154) = (  -0.9790606   0.6372032   0.3171793  )
       155        C      tau( 155) = (  -0.4578891   0.5242823   0.8381485  )
       156        C      tau( 156) = (  -0.6507673   0.7169379   0.6458276  )
       157        C      tau( 157) = (  -0.8431487   0.9093110   0.4533902  )
       158        C      tau( 158) = (  -0.3221640   0.7966409   0.9743337  )
       159        C      tau( 159) = (  -0.5142883   0.9893792   0.7817596  )
       160        C      tau( 160) = (  -0.7071124   1.1814391   0.5894954  )
       161        C      tau( 161) = (  -0.2872617   0.2126716   0.0665930  )
       162        C      tau( 162) = (  -0.4795836   0.4049514  -0.1259227  )
       163        C      tau( 163) = (  -0.6723810   0.5973388  -0.3186167  )
       164        C      tau( 164) = (  -0.1522416   0.4861680   0.2030125  )
       165        C      tau( 165) = (  -0.3457127   0.6750729  -0.0026861  )
       166        C      tau( 166) = (  -0.5359203   0.8695149  -0.1822202  )
       167        C      tau( 167) = (  -0.0140983   0.7569514   0.3399046  )
       168        C      tau( 168) = (  -0.2078097   0.9483535   0.1464943  )
       169        C      tau( 169) = (  -0.3999186   1.1416285  -0.0461767  )
       170        C      tau( 170) = (  -0.5229893   0.2121506   0.3022715  )
       171        C      tau( 171) = (  -0.7150648   0.4049655   0.1098102  )
       172        C      tau( 172) = (  -0.9075646   0.5973580  -0.0826061  )
       173        C      tau( 173) = (  -0.3870182   0.4839146   0.4390274  )
       174        C      tau( 174) = (  -0.5772438   0.6772034   0.2459468  )
       175        C      tau( 175) = (  -0.7715187   0.8695105   0.0534430  )
       176        C      tau( 176) = (  -0.2508158   0.7566714   0.5736702  )
       177        C      tau( 177) = (  -0.4433945   0.9499155   0.3832717  )
       178        C      tau( 178) = (  -0.6356939   1.1417578   0.1893617  )
       179        C      tau( 179) = (  -0.7586709   0.2125944   0.5380267  )
       180        C      tau( 180) = (  -0.9508493   0.4046701   0.3451883  )
       181        C      tau( 181) = (  -1.1434546   0.5973624   0.1530430  )
       182        C      tau( 182) = (  -0.6225794   0.4847264   0.6740710  )
       183        C      tau( 183) = (  -0.8149528   0.6770998   0.4816422  )
       184        C      tau( 184) = (  -1.0073100   0.8697521   0.2887379  )
       185        C      tau( 185) = (  -0.4862964   0.7567678   0.8099436  )
       186        C      tau( 186) = (  -0.6788622   0.9491736   0.6176767  )
       187        C      tau( 187) = (  -0.8713265   1.1415940   0.4252812  )
       188        C      tau( 188) = (  -0.1016370   0.3491081   0.0169291  )
       189        C      tau( 189) = (  -0.2933262   0.5399222  -0.1767885  )
       190        C      tau( 190) = (  -0.4862748   0.7335380  -0.3682764  )
       191        C      tau( 191) = (   0.0360844   0.6198506   0.1526221  )
       192        C      tau( 192) = (  -0.1580908   0.8125186  -0.0390593  )
       193        C      tau( 193) = (  -0.3501027   1.0055292  -0.2320918  )
       194        C      tau( 194) = (   0.1709435   0.8930059   0.2889420  )
       195        C      tau( 195) = (  -0.0215618   1.0852466   0.0964491  )
       196        C      tau( 196) = (  -0.2140137   1.2776335  -0.0959921  )
       197        C      tau( 197) = (  -0.3371126   0.3475693   0.2527781  )
       198        C      tau( 198) = (  -0.5275424   0.5414162   0.0604581  )
       199        C      tau( 199) = (  -0.7217077   0.7334245  -0.1324539  )
       200        C      tau( 200) = (  -0.2014276   0.6205449   0.3865729  )
       201        C      tau( 201) = (  -0.4000871   0.8236258   0.2002419  )
       202        C      tau( 202) = (  -0.5857057   1.0055308   0.0035808  )
       203        C      tau( 203) = (  -0.0648411   0.8928071   0.5244128  )
       204        C      tau( 204) = (  -0.2572328   1.0852317   0.3320537  )
       205        C      tau( 205) = (  -0.4497005   1.2781847   0.1395609  )
       206        C      tau( 206) = (  -0.5728398   0.3483457   0.4883169  )
       207        C      tau( 207) = (  -0.7648636   0.5410191   0.2956625  )
       208        C      tau( 208) = (  -0.9573618   0.7334070   0.1032402  )
       209        C      tau( 209) = (  -0.4365990   0.6206695   0.6239271  )
       210        C      tau( 210) = (  -0.6289959   0.8131539   0.4316917  )
       211        C      tau( 211) = (  -0.8218586   1.0057202   0.2392425  )
       212        C      tau( 212) = (  -0.3005299   0.8927811   0.7600721  )
       213        C      tau( 213) = (  -0.4929532   1.0855260   0.5681479  )
       214        C      tau( 214) = (  -0.6853841   1.2777420   0.3753519  )
       215        N      tau( 215) = (  -0.3681778   0.5729885   0.2291474  )

     number of k points=     1
                       cart. coord. in units 2pi/alat
        k(    1) = (   0.0000000   0.0000000   0.0000000), wk =   1.0000000

     Dense  grid:   338755 G-vectors     FFT dimensions: (  90,  90,  90)

     Occupations read from input 

      Spin-up

        1.0000   1.0000   1.0000   1.0000   1.0000   1.0000   1.0000   1.0000
        1.0000   1.0000   1.0000   1.0000   1.0000   1.0000   1.0000   1.0000
        1.0000   1.0000   1.0000   1.0000   1.0000   1.0000   1.0000   1.0000
        1.0000   1.0000   1.0000   1.0000   1.0000   1.0000   1.0000   1.0000
        1.0000   1.0000   1.0000   1.0000   1.0000   1.0000   1.0000   1.0000
        1.0000   1.0000   1.0000   1.0000   1.0000   1.0000   1.0000   1.0000
        1.0000   1.0000   1.0000   1.0000   1.0000   1.0000   1.0000   1.0000
        1.0000   1.0000   1.0000   1.0000   1.0000   1.0000   1.0000   1.0000
        1.0000   1.0000   1.0000   1.0000   1.0000   1.0000   1.0000   1.0000
        1.0000   1.0000   1.0000   1.0000   1.0000   1.0000   1.0000   1.0000
        1.0000   1.0000   1.0000   1.0000   1.0000   1.0000   1.0000   1.0000
        1.0000   1.0000   1.0000   1.0000   1.0000   1.0000   1.0000   1.0000
        1.0000   1.0000   1.0000   1.0000   1.0000   1.0000   1.0000   1.0000
        1.0000   1.0000   1.0000   1.0000   1.0000   1.0000   1.0000   1.0000
        1.0000   1.0000   1.0000   1.0000   1.0000   1.0000   1.0000   1.0000
        1.0000   1.0000   1.0000   1.0000   1.0000   1.0000   1.0000   1.0000
        1.0000   1.0000   1.0000   1.0000   1.0000   1.0000   1.0000   1.0000
        1.0000   1.0000   1.0000   1.0000   1.0000   1.0000   1.0000   1.0000
        1.0000   1.0000   1.0000   1.0000   1.0000   1.0000   1.0000   1.0000
        1.0000   1.0000   1.0000   1.0000   1.0000   1.0000   1.0000   1.0000
        1.0000   1.0000   1.0000   1.0000   1.0000   1.0000   1.0000   1.0000
        1.0000   1.0000   1.0000   1.0000   1.0000   1.0000   1.0000   1.0000
        1.0000   1.0000   1.0000   1.0000   1.0000   1.0000   1.0000   1.0000
        1.0000   1.0000   1.0000   1.0000   1.0000   1.0000   1.0000   1.0000
        1.0000   1.0000   1.0000   1.0000   1.0000   1.0000   1.0000   1.0000
        1.0000   1.0000   1.0000   1.0000   1.0000   1.0000   1.0000   1.0000
        1.0000   1.0000   1.0000   1.0000   1.0000   1.0000   1.0000   1.0000
        1.0000   1.0000   1.0000   1.0000   1.0000   1.0000   1.0000   1.0000
        1.0000   1.0000   1.0000   1.0000   1.0000   1.0000   1.0000   1.0000
        1.0000   1.0000   1.0000   1.0000   1.0000   1.0000   1.0000   1.0000
        1.0000   1.0000   1.0000   1.0000   1.0000   1.0000   1.0000   1.0000
        1.0000   1.0000   1.0000   1.0000   1.0000   1.0000   1.0000   1.0000
        1.0000   1.0000   1.0000   1.0000   1.0000   1.0000   1.0000   1.0000
        1.0000   1.0000   1.0000   1.0000   1.0000   1.0000   1.0000   1.0000
        1.0000   1.0000   1.0000   1.0000   1.0000   1.0000   1.0000   1.0000
        1.0000   1.0000   1.0000   1.0000   1.0000   1.0000   1.0000   1.0000
        1.0000   1.0000   1.0000   1.0000   1.0000   1.0000   1.0000   1.0000
        1.0000   1.0000   1.0000   1.0000   1.0000   1.0000   1.0000   1.0000
        1.0000   1.0000   1.0000   1.0000   1.0000   1.0000   1.0000   1.0000
        1.0000   1.0000   1.0000   1.0000   1.0000   1.0000   1.0000   1.0000
        1.0000   1.0000   1.0000   1.0000   1.0000   1.0000   1.0000   1.0000
        1.0000   1.0000   1.0000   1.0000   1.0000   1.0000   1.0000   1.0000
        1.0000   1.0000   1.0000   1.0000   1.0000   1.0000   1.0000   1.0000
        1.0000   1.0000   1.0000   1.0000   1.0000   1.0000   1.0000   1.0000
        1.0000   1.0000   1.0000   1.0000   1.0000   1.0000   1.0000   1.0000
        1.0000   1.0000   1.0000   1.0000   1.0000   1.0000   1.0000   1.0000
        1.0000   1.0000   1.0000   1.0000   1.0000   1.0000   1.0000   1.0000
        1.0000   1.0000   1.0000   1.0000   1.0000   1.0000   1.0000   1.0000
        1.0000   1.0000   1.0000   1.0000   1.0000   1.0000   1.0000   1.0000
        1.0000   1.0000   1.0000   1.0000   1.0000   1.0000   1.0000   1.0000
        1.0000   1.0000   1.0000   1.0000   1.0000   1.0000   1.0000   1.0000
        1.0000   1.0000   1.0000   1.0000   1.0000   1.0000   1.0000   1.0000
        1.0000   1.0000   1.0000   1.0000   1.0000   1.0000   1.0000   1.0000
        1.0000   1.0000   1.0000   1.0000   1.0000   1.0000   1.0000   1.0000
        0.0000   0.0000   0.0000   0.0000   0.0000   0.0000   0.0000   0.0000
        0.0000   0.0000   0.0000   0.0000   0.0000   0.0000   0.0000   0.0000
        0.0000   0.0000   0.0000   0.0000   0.0000   0.0000   0.0000   0.0000
        0.0000   0.0000   0.0000   0.0000   0.0000   0.0000   0.0000   0.0000
        0.0000   0.0000   0.0000   0.0000   0.0000   0.0000   0.0000   0.0000
        0.0000   0.0000   0.0000   0.0000   0.0000   0.0000   0.0000   0.0000
        0.0000   0.0000   0.0000   0.0000   0.0000   0.0000   0.0000   0.0000
        0.0000   0.0000   0.0000   0.0000   0.0000   0.0000   0.0000   0.0000
        0.0000   0.0000   0.0000   0.0000   0.0000   0.0000   0.0000   0.0000
        0.0000   0.0000   0.0000   0.0000   0.0000   0.0000   0.0000   0.0000
        0.0000   0.0000   0.0000   0.0000   0.0000   0.0000   0.0000   0.0000
        0.0000   0.0000   0.0000   0.0000   0.0000   0.0000   0.0000   0.0000
        0.0000   0.0000   0.0000   0.0000   0.0000   0.0000   0.0000   0.0000
        0.0000   0.0000   0.0000   0.0000   0.0000   0.0000   0.0000   0.0000
        0.0000   0.0000   0.0000   0.0000   0.0000   0.0000   0.0000   0.0000
        0.0000   0.0000   0.0000   0.0000   0.0000   0.0000   0.0000   0.0000
        0.0000   0.0000   0.0000   0.0000   0.0000   0.0000   0.0000   0.0000
        0.0000   0.0000   0.0000   0.0000   0.0000   0.0000   0.0000   0.0000
        0.0000   0.0000   0.0000   0.0000   0.0000   0.0000   0.0000   0.0000
        0.0000   0.0000   0.0000   0.0000   0.0000   0.0000   0.0000   0.0000
        0.0000   0.0000   0.0000   0.0000   0.0000   0.0000   0.0000   0.0000
        0.0000   0.0000   0.0000   0.0000   0.0000   0.0000   0.0000   0.0000
        0.0000   0.0000   0.0000   0.0000   0.0000   0.0000   0.0000   0.0000
        0.0000   0.0000   0.0000   0.0000   0.0000   0.0000   0.0000   0.0000
        0.0000   0.0000   0.0000   0.0000   0.0000   0.0000   0.0000   0.0000
        0.0000   0.0000   0.0000   0.0000   0.0000   0.0000   0.0000   0.0000
        0.0000   0.0000   0.0000   0.0000   0.0000   0.0000   0.0000   0.0000
        0.0000   0.0000   0.0000   0.0000   0.0000   0.0000   0.0000   0.0000
        0.0000   0.0000   0.0000   0.0000   0.0000   0.0000   0.0000   0.0000
        0.0000   0.0000   0.0000   0.0000   0.0000   0.0000   0.0000   0.0000
        0.0000   0.0000   0.0000   0.0000   0.0000   0.0000   0.0000   0.0000
        0.0000   0.0000   0.0000   0.0000   0.0000   0.0000   0.0000   0.0000
        0.0000   0.0000   0.0000   0.0000   0.0000   0.0000   0.0000   0.0000
        0.0000   0.0000   0.0000   0.0000   0.0000   0.0000   0.0000   0.0000
        0.0000   0.0000   0.0000   0.0000   0.0000   0.0000   0.0000   0.0000
        0.0000   0.0000   0.0000   0.0000   0.0000   0.0000   0.0000   0.0000
        0.0000   0.0000   0.0000   0.0000   0.0000   0.0000   0.0000   0.0000
        0.0000   0.0000   0.0000   0.0000   0.0000   0.0000   0.0000   0.0000
        0.0000   0.0000   0.0000   0.0000   0.0000   0.0000   0.0000   0.0000
        0.0000   0.0000   0.0000   0.0000   0.0000   0.0000   0.0000   0.0000
        0.0000   0.0000   0.0000   0.0000   0.0000   0.0000   0.0000   0.0000
        0.0000   0.0000   0.0000   0.0000   0.0000   0.0000   0.0000   0.0000
        0.0000   0.0000   0.0000   0.0000   0.0000   0.0000   0.0000   0.0000
        0.0000   0.0000   0.0000   0.0000   0.0000   0.0000   0.0000   0.0000
        0.0000   0.0000   0.0000   0.0000   0.0000   0.0000   0.0000   0.0000
        0.0000   0.0000   0.0000   0.0000   0.0000   0.0000   0.0000   0.0000
        0.0000   0.0000   0.0000   0.0000   0.0000   0.0000   0.0000   0.0000
        0.0000   0.0000   0.0000   0.0000   0.0000   0.0000   0.0000   0.0000
        0.0000   0.0000   0.0000   0.0000   0.0000   0.0000   0.0000   0.0000
        0.0000   0.0000   0.0000   0.0000   0.0000   0.0000   0.0000   0.0000
        0.0000   0.0000   0.0000   0.0000   0.0000   0.0000   0.0000   0.0000
        0.0000   0.0000   0.0000   0.0000   0.0000   0.0000   0.0000   0.0000
        0.0000   0.0000   0.0000   0.0000   0.0000   0.0000   0.0000   0.0000
        0.0000   0.0000   0.0000   0.0000   0.0000   0.0000

      Spin-down

        1.0000   1.0000   1.0000   1.0000   1.0000   1.0000   1.0000   1.0000
        1.0000   1.0000   1.0000   1.0000   1.0000   1.0000   1.0000   1.0000
        1.0000   1.0000   1.0000   1.0000   1.0000   1.0000   1.0000   1.0000
        1.0000   1.0000   1.0000   1.0000   1.0000   1.0000   1.0000   1.0000
        1.0000   1.0000   1.0000   1.0000   1.0000   1.0000   1.0000   1.0000
        1.0000   1.0000   1.0000   1.0000   1.0000   1.0000   1.0000   1.0000
        1.0000   1.0000   1.0000   1.0000   1.0000   1.0000   1.0000   1.0000
        1.0000   1.0000   1.0000   1.0000   1.0000   1.0000   1.0000   1.0000
        1.0000   1.0000   1.0000   1.0000   1.0000   1.0000   1.0000   1.0000
        1.0000   1.0000   1.0000   1.0000   1.0000   1.0000   1.0000   1.0000
        1.0000   1.0000   1.0000   1.0000   1.0000   1.0000   1.0000   1.0000
        1.0000   1.0000   1.0000   1.0000   1.0000   1.0000   1.0000   1.0000
        1.0000   1.0000   1.0000   1.0000   1.0000   1.0000   1.0000   1.0000
        1.0000   1.0000   1.0000   1.0000   1.0000   1.0000   1.0000   1.0000
        1.0000   1.0000   1.0000   1.0000   1.0000   1.0000   1.0000   1.0000
        1.0000   1.0000   1.0000   1.0000   1.0000   1.0000   1.0000   1.0000
        1.0000   1.0000   1.0000   1.0000   1.0000   1.0000   1.0000   1.0000
        1.0000   1.0000   1.0000   1.0000   1.0000   1.0000   1.0000   1.0000
        1.0000   1.0000   1.0000   1.0000   1.0000   1.0000   1.0000   1.0000
        1.0000   1.0000   1.0000   1.0000   1.0000   1.0000   1.0000   1.0000
        1.0000   1.0000   1.0000   1.0000   1.0000   1.0000   1.0000   1.0000
        1.0000   1.0000   1.0000   1.0000   1.0000   1.0000   1.0000   1.0000
        1.0000   1.0000   1.0000   1.0000   1.0000   1.0000   1.0000   1.0000
        1.0000   1.0000   1.0000   1.0000   1.0000   1.0000   1.0000   1.0000
        1.0000   1.0000   1.0000   1.0000   1.0000   1.0000   1.0000   1.0000
        1.0000   1.0000   1.0000   1.0000   1.0000   1.0000   1.0000   1.0000
        1.0000   1.0000   1.0000   1.0000   1.0000   1.0000   1.0000   1.0000
        1.0000   1.0000   1.0000   1.0000   1.0000   1.0000   1.0000   1.0000
        1.0000   1.0000   1.0000   1.0000   1.0000   1.0000   1.0000   1.0000
        1.0000   1.0000   1.0000   1.0000   1.0000   1.0000   1.0000   1.0000
        1.0000   1.0000   1.0000   1.0000   1.0000   1.0000   1.0000   1.0000
        1.0000   1.0000   1.0000   1.0000   1.0000   1.0000   1.0000   1.0000
        1.0000   1.0000   1.0000   1.0000   1.0000   1.0000   1.0000   1.0000
        1.0000   1.0000   1.0000   1.0000   1.0000   1.0000   1.0000   1.0000
        1.0000   1.0000   1.0000   1.0000   1.0000   1.0000   1.0000   1.0000
        1.0000   1.0000   1.0000   1.0000   1.0000   1.0000   1.0000   1.0000
        1.0000   1.0000   1.0000   1.0000   1.0000   1.0000   1.0000   1.0000
        1.0000   1.0000   1.0000   1.0000   1.0000   1.0000   1.0000   1.0000
        1.0000   1.0000   1.0000   1.0000   1.0000   1.0000   1.0000   1.0000
        1.0000   1.0000   1.0000   1.0000   1.0000   1.0000   1.0000   1.0000
        1.0000   1.0000   1.0000   1.0000   1.0000   1.0000   1.0000   1.0000
        1.0000   1.0000   1.0000   1.0000   1.0000   1.0000   1.0000   1.0000
        1.0000   1.0000   1.0000   1.0000   1.0000   1.0000   1.0000   1.0000
        1.0000   1.0000   1.0000   1.0000   1.0000   1.0000   1.0000   1.0000
        1.0000   1.0000   1.0000   1.0000   1.0000   1.0000   1.0000   1.0000
        1.0000   1.0000   1.0000   1.0000   1.0000   1.0000   1.0000   1.0000
        1.0000   1.0000   1.0000   1.0000   1.0000   1.0000   1.0000   1.0000
        1.0000   1.0000   1.0000   1.0000   1.0000   1.0000   1.0000   1.0000
        1.0000   1.0000   1.0000   1.0000   1.0000   1.0000   1.0000   1.0000
        1.0000   1.0000   1.0000   1.0000   1.0000   1.0000   1.0000   1.0000
        1.0000   1.0000   1.0000   1.0000   1.0000   1.0000   1.0000   1.0000
        1.0000   1.0000   1.0000   1.0000   1.0000   1.0000   1.0000   1.0000
        1.0000   1.0000   1.0000   1.0000   1.0000   1.0000   1.0000   1.0000
        1.0000   1.0000   1.0000   1.0000   1.0000   0.0000   0.5000   0.5000
        0.0000   0.0000   0.0000   0.0000   0.0000   0.0000   0.0000   0.0000
        0.0000   0.0000   0.0000   0.0000   0.0000   0.0000   0.0000   0.0000
        0.0000   0.0000   0.0000   0.0000   0.0000   0.0000   0.0000   0.0000
        0.0000   0.0000   0.0000   0.0000   0.0000   0.0000   0.0000   0.0000
        0.0000   0.0000   0.0000   0.0000   0.0000   0.0000   0.0000   0.0000
        0.0000   0.0000   0.0000   0.0000   0.0000   0.0000   0.0000   0.0000
        0.0000   0.0000   0.0000   0.0000   0.0000   0.0000   0.0000   0.0000
        0.0000   0.0000   0.0000   0.0000   0.0000   0.0000   0.0000   0.0000
        0.0000   0.0000   0.0000   0.0000   0.0000   0.0000   0.0000   0.0000
        0.0000   0.0000   0.0000   0.0000   0.0000   0.0000   0.0000   0.0000
        0.0000   0.0000   0.0000   0.0000   0.0000   0.0000   0.0000   0.0000
        0.0000   0.0000   0.0000   0.0000   0.0000   0.0000   0.0000   0.0000
        0.0000   0.0000   0.0000   0.0000   0.0000   0.0000   0.0000   0.0000
        0.0000   0.0000   0.0000   0.0000   0.0000   0.0000   0.0000   0.0000
        0.0000   0.0000   0.0000   0.0000   0.0000   0.0000   0.0000   0.0000
        0.0000   0.0000   0.0000   0.0000   0.0000   0.0000   0.0000   0.0000
        0.0000   0.0000   0.0000   0.0000   0.0000   0.0000   0.0000   0.0000
        0.0000   0.0000   0.0000   0.0000   0.0000   0.0000   0.0000   0.0000
        0.0000   0.0000   0.0000   0.0000   0.0000   0.0000   0.0000   0.0000
        0.0000   0.0000   0.0000   0.0000   0.0000   0.0000   0.0000   0.0000
        0.0000   0.0000   0.0000   0.0000   0.0000   0.0000   0.0000   0.0000
        0.0000   0.0000   0.0000   0.0000   0.0000   0.0000   0.0000   0.0000
        0.0000   0.0000   0.0000   0.0000   0.0000   0.0000   0.0000   0.0000
        0.0000   0.0000   0.0000   0.0000   0.0000   0.0000   0.0000   0.0000
        0.0000   0.0000   0.0000   0.0000   0.0000   0.0000   0.0000   0.0000
        0.0000   0.0000   0.0000   0.0000   0.0000   0.0000   0.0000   0.0000
        0.0000   0.0000   0.0000   0.0000   0.0000   0.0000   0.0000   0.0000
        0.0000   0.0000   0.0000   0.0000   0.0000   0.0000   0.0000   0.0000
        0.0000   0.0000   0.0000   0.0000   0.0000   0.0000   0.0000   0.0000
        0.0000   0.0000   0.0000   0.0000   0.0000   0.0000   0.0000   0.0000
        0.0000   0.0000   0.0000   0.0000   0.0000   0.0000   0.0000   0.0000
        0.0000   0.0000   0.0000   0.0000   0.0000   0.0000   0.0000   0.0000
        0.0000   0.0000   0.0000   0.0000   0.0000   0.0000   0.0000   0.0000
        0.0000   0.0000   0.0000   0.0000   0.0000   0.0000   0.0000   0.0000
        0.0000   0.0000   0.0000   0.0000   0.0000   0.0000   0.0000   0.0000
        0.0000   0.0000   0.0000   0.0000   0.0000   0.0000   0.0000   0.0000
        0.0000   0.0000   0.0000   0.0000   0.0000   0.0000   0.0000   0.0000
        0.0000   0.0000   0.0000   0.0000   0.0000   0.0000   0.0000   0.0000
        0.0000   0.0000   0.0000   0.0000   0.0000   0.0000   0.0000   0.0000
        0.0000   0.0000   0.0000   0.0000   0.0000   0.0000   0.0000   0.0000
        0.0000   0.0000   0.0000   0.0000   0.0000   0.0000   0.0000   0.0000
        0.0000   0.0000   0.0000   0.0000   0.0000   0.0000   0.0000   0.0000
        0.0000   0.0000   0.0000   0.0000   0.0000   0.0000   0.0000   0.0000
        0.0000   0.0000   0.0000   0.0000   0.0000   0.0000   0.0000   0.0000
        0.0000   0.0000   0.0000   0.0000   0.0000   0.0000   0.0000   0.0000
        0.0000   0.0000   0.0000   0.0000   0.0000   0.0000   0.0000   0.0000
        0.0000   0.0000   0.0000   0.0000   0.0000   0.0000   0.0000   0.0000
        0.0000   0.0000   0.0000   0.0000   0.0000   0.0000   0.0000   0.0000
        0.0000   0.0000   0.0000   0.0000   0.0000   0.0000   0.0000   0.0000
        0.0000   0.0000   0.0000   0.0000   0.0000   0.0000   0.0000   0.0000
        0.0000   0.0000   0.0000   0.0000   0.0000   0.0000   0.0000   0.0000
        0.0000   0.0000   0.0000   0.0000   0.0000   0.0000   0.0000   0.0000
        0.0000   0.0000   0.0000   0.0000   0.0000   0.0000   0.0000   0.0000
        0.0000   0.0000   0.0000   0.0000   0.0000   0.0000

     Estimated max dynamical RAM per process >     300.93 MB

     Estimated total dynamical RAM >       7.05 GB

     Check: negative core charge=   -0.000075
     Generating pointlists ...
     new r_m :   0.0572 (alat units)  1.1580 (a.u.) for type    1
     new r_m :   0.0573 (alat units)  1.1595 (a.u.) for type    2

     Initial potential from superposition of free atoms

     starting charge     860.9911, renormalised to     862.0000
     Starting wfcs are random
     Checking if some PAW data can be deallocated... 

     total cpu time spent up to now is        5.9 secs

     per-process dynamical memory:   204.2 Mb

     Self-consistent Calculation

     iteration #  1     ecut=    45.00 Ry     beta= 0.70
     Davidson diagonalization with overlap
     ethr =  1.00E-02,  avg # of iterations =  9.0

     total cpu time spent up to now is       69.4 secs

     total energy              =   -3970.07970015 Ry
     estimated scf accuracy    <      12.72426733 Ry

     total magnetization       =     2.00 Bohr mag/cell
     absolute magnetization    =     2.13 Bohr mag/cell

     iteration #  2     ecut=    45.00 Ry     beta= 0.70
     Davidson diagonalization with overlap
     ethr =  1.48E-03,  avg # of iterations =  4.0

     total cpu time spent up to now is       86.9 secs

     total energy              =   -3968.07230539 Ry
     estimated scf accuracy    <       5.20499955 Ry

     total magnetization       =     2.00 Bohr mag/cell
     absolute magnetization    =     2.35 Bohr mag/cell

     iteration #  3     ecut=    45.00 Ry     beta= 0.70
     Davidson diagonalization with overlap
     ethr =  6.04E-04,  avg # of iterations =  5.0

     total cpu time spent up to now is      112.8 secs

     total energy              =   -3969.12937480 Ry
     estimated scf accuracy    <      20.30408797 Ry

     total magnetization       =     2.00 Bohr mag/cell
     absolute magnetization    =     2.12 Bohr mag/cell

     iteration #  4     ecut=    45.00 Ry     beta= 0.70
     Davidson diagonalization with overlap
     ethr =  6.04E-04,  avg # of iterations =  6.0

     total cpu time spent up to now is      133.9 secs

     total energy              =   -3971.11912626 Ry
     estimated scf accuracy    <       1.26025565 Ry

     total magnetization       =     2.00 Bohr mag/cell
     absolute magnetization    =     2.08 Bohr mag/cell

     iteration #  5     ecut=    45.00 Ry     beta= 0.70
     Davidson diagonalization with overlap
     ethr =  1.46E-04,  avg # of iterations =  7.0

     total cpu time spent up to now is      153.4 secs

     total energy              =   -3971.22458967 Ry
     estimated scf accuracy    <       0.30910326 Ry

     total magnetization       =     2.00 Bohr mag/cell
     absolute magnetization    =     2.07 Bohr mag/cell

     iteration #  6     ecut=    45.00 Ry     beta= 0.70
     Davidson diagonalization with overlap
     ethr =  3.59E-05,  avg # of iterations = 11.0

     total cpu time spent up to now is      175.1 secs

     total energy              =   -3971.21484721 Ry
     estimated scf accuracy    <       0.11591479 Ry

     total magnetization       =     2.00 Bohr mag/cell
     absolute magnetization    =     2.10 Bohr mag/cell

     iteration #  7     ecut=    45.00 Ry     beta= 0.70
     Davidson diagonalization with overlap
     ethr =  1.34E-05,  avg # of iterations =  4.5

     total cpu time spent up to now is      193.2 secs

     total energy              =   -3971.22073552 Ry
     estimated scf accuracy    <       0.02150316 Ry

     total magnetization       =     2.00 Bohr mag/cell
     absolute magnetization    =     2.14 Bohr mag/cell

     iteration #  8     ecut=    45.00 Ry     beta= 0.70
     Davidson diagonalization with overlap
     ethr =  2.49E-06,  avg # of iterations = 13.0

     total cpu time spent up to now is      218.3 secs

     total energy              =   -3971.22438188 Ry
     estimated scf accuracy    <       0.00262506 Ry

     total magnetization       =     2.00 Bohr mag/cell
     absolute magnetization    =     2.17 Bohr mag/cell

     iteration #  9     ecut=    45.00 Ry     beta= 0.70
     Davidson diagonalization with overlap
     ethr =  3.05E-07,  avg # of iterations =  2.5

     total cpu time spent up to now is      235.1 secs

     total energy              =   -3971.22498666 Ry
     estimated scf accuracy    <       0.00042430 Ry

     total magnetization       =     2.00 Bohr mag/cell
     absolute magnetization    =     2.19 Bohr mag/cell

     iteration # 10     ecut=    45.00 Ry     beta= 0.70
     Davidson diagonalization with overlap
     ethr =  4.92E-08,  avg # of iterations =  2.0

     total cpu time spent up to now is      251.6 secs

     total energy              =   -3971.22511561 Ry
     estimated scf accuracy    <       0.00008605 Ry

     total magnetization       =     2.00 Bohr mag/cell
     absolute magnetization    =     2.19 Bohr mag/cell

     iteration # 11     ecut=    45.00 Ry     beta= 0.70
     Davidson diagonalization with overlap
     ethr =  9.98E-09,  avg # of iterations =  2.5

     total cpu time spent up to now is      268.4 secs

     total energy              =   -3971.22514246 Ry
     estimated scf accuracy    <       0.00002659 Ry

     total magnetization       =     2.00 Bohr mag/cell
     absolute magnetization    =     2.20 Bohr mag/cell

     iteration # 12     ecut=    45.00 Ry     beta= 0.70
     Davidson diagonalization with overlap
     ethr =  3.09E-09,  avg # of iterations =  2.0

     total cpu time spent up to now is      284.8 secs

     total energy              =   -3971.22514994 Ry
     estimated scf accuracy    <       0.00000415 Ry

     total magnetization       =     2.00 Bohr mag/cell
     absolute magnetization    =     2.21 Bohr mag/cell

     iteration # 13     ecut=    45.00 Ry     beta= 0.70
     Davidson diagonalization with overlap
     ethr =  4.82E-10,  avg # of iterations =  3.0

     total cpu time spent up to now is      302.0 secs

     total energy              =   -3971.22515123 Ry
     estimated scf accuracy    <       0.00000140 Ry

     total magnetization       =     2.00 Bohr mag/cell
     absolute magnetization    =     2.21 Bohr mag/cell

     iteration # 14     ecut=    45.00 Ry     beta= 0.70
     Davidson diagonalization with overlap
     ethr =  1.63E-10,  avg # of iterations =  2.5

     total cpu time spent up to now is      318.8 secs

     total energy              =   -3971.22515160 Ry
     estimated scf accuracy    <       0.00000021 Ry

     total magnetization       =     2.00 Bohr mag/cell
     absolute magnetization    =     2.21 Bohr mag/cell

     iteration # 15     ecut=    45.00 Ry     beta= 0.70
     Davidson diagonalization with overlap
     ethr =  2.49E-11,  avg # of iterations =  2.5

     total cpu time spent up to now is      335.6 secs

     total energy              =   -3971.22515166 Ry
     estimated scf accuracy    <       0.00000009 Ry

     total magnetization       =     2.00 Bohr mag/cell
     absolute magnetization    =     2.21 Bohr mag/cell

     iteration # 16     ecut=    45.00 Ry     beta= 0.70
     Davidson diagonalization with overlap
     ethr =  1.08E-11,  avg # of iterations =  2.0
 
     Magnetic moment per site  (integrated on atomic sphere of radius R)
     atom   1 (R=0.057)  charge=  1.8433  magn=  0.0001
     atom   2 (R=0.057)  charge=  1.8437  magn= -0.0000
     atom   3 (R=0.057)  charge=  1.8445  magn= -0.0000
     atom   4 (R=0.057)  charge=  1.8437  magn= -0.0000
     atom   5 (R=0.057)  charge=  1.8424  magn= -0.0002
     atom   6 (R=0.057)  charge=  1.8430  magn= -0.0009
     atom   7 (R=0.057)  charge=  1.8445  magn= -0.0000
     atom   8 (R=0.057)  charge=  1.8430  magn= -0.0009
     atom   9 (R=0.057)  charge=  1.8425  magn= -0.0003
     atom  10 (R=0.057)  charge=  1.8492  magn=  0.0016
     atom  11 (R=0.057)  charge=  1.8446  magn= -0.0001
     atom  12 (R=0.057)  charge=  1.8445  magn= -0.0002
     atom  13 (R=0.057)  charge=  1.8446  magn= -0.0001
     atom  14 (R=0.057)  charge=  1.8132  magn=  0.0003
     atom  15 (R=0.057)  charge=  1.8481  magn= -0.0031
     atom  16 (R=0.057)  charge=  1.8445  magn= -0.0002
     atom  17 (R=0.057)  charge=  1.8481  magn= -0.0031
     atom  18 (R=0.057)  charge=  1.8462  magn=  0.0008
     atom  19 (R=0.057)  charge=  1.8431  magn=  0.0001
     atom  20 (R=0.057)  charge=  1.8448  magn=  0.0000
     atom  21 (R=0.057)  charge=  1.8443  magn= -0.0001
     atom  22 (R=0.057)  charge=  1.8448  magn=  0.0000
     atom  23 (R=0.057)  charge=  1.8461  magn= -0.0002
     atom  24 (R=0.057)  charge=  1.8393  magn= -0.0002
     atom  25 (R=0.057)  charge=  1.8443  magn= -0.0001
     atom  26 (R=0.057)  charge=  1.8393  magn= -0.0002
     atom  27 (R=0.057)  charge=  1.8441  magn= -0.0009
     atom  28 (R=0.057)  charge=  1.8444  magn= -0.0001
     atom  29 (R=0.057)  charge=  1.8390  magn= -0.0002
     atom  30 (R=0.057)  charge=  1.8438  magn= -0.0009
     atom  31 (R=0.057)  charge=  1.8446  magn= -0.0002
     atom  32 (R=0.057)  charge=  1.8479  magn= -0.0031
     atom  33 (R=0.057)  charge=  1.8462  magn=  0.0008
     atom  34 (R=0.057)  charge=  1.8445  magn= -0.0000
     atom  35 (R=0.057)  charge=  1.8431  magn= -0.0009
     atom  36 (R=0.057)  charge=  1.8425  magn= -0.0003
     atom  37 (R=0.057)  charge=  1.8449  magn=  0.0000
     atom  38 (R=0.057)  charge=  1.8459  magn= -0.0002
     atom  39 (R=0.057)  charge=  1.8392  magn= -0.0002
     atom  40 (R=0.057)  charge=  1.8445  magn= -0.0001
     atom  41 (R=0.057)  charge=  1.8134  magn=  0.0003
     atom  42 (R=0.057)  charge=  1.8481  magn= -0.0031
     atom  43 (R=0.057)  charge=  1.8436  magn= -0.0000
     atom  44 (R=0.057)  charge=  1.8425  magn= -0.0002
     atom  45 (R=0.057)  charge=  1.8432  magn= -0.0009
     atom  46 (R=0.057)  charge=  1.8431  magn=  0.0001
     atom  47 (R=0.057)  charge=  1.8450  magn=  0.0000
     atom  48 (R=0.057)  charge=  1.8442  magn= -0.0001
     atom  49 (R=0.057)  charge=  1.8491  magn=  0.0016
     atom  50 (R=0.057)  charge=  1.8446  magn= -0.0001
     atom  51 (R=0.057)  charge=  1.8445  magn= -0.0002
     atom  52 (R=0.057)  charge=  1.8433  magn=  0.0001
     atom  53 (R=0.057)  charge=  1.8434  magn= -0.0000
     atom  54 (R=0.057)  charge=  1.8446  magn= -0.0000
     atom  55 (R=0.057)  charge=  1.8444  magn= -0.0001
     atom  56 (R=0.057)  charge=  1.8446  magn= -0.0002
     atom  57 (R=0.057)  charge=  1.8445  magn= -0.0000
     atom  58 (R=0.057)  charge=  1.8390  magn= -0.0002
     atom  59 (R=0.057)  charge=  1.8479  magn= -0.0031
     atom  60 (R=0.057)  charge=  1.8431  magn= -0.0009
     atom  61 (R=0.057)  charge=  1.8438  magn= -0.0009
     atom  62 (R=0.057)  charge=  1.8462  magn=  0.0008
     atom  63 (R=0.057)  charge=  1.8425  magn= -0.0003
     atom  64 (R=0.057)  charge=  1.8449  magn=  0.0000
     atom  65 (R=0.057)  charge=  1.8445  magn= -0.0001
     atom  66 (R=0.057)  charge=  1.8436  magn= -0.0000
     atom  67 (R=0.057)  charge=  1.8459  magn= -0.0002
     atom  68 (R=0.057)  charge=  1.8134  magn=  0.0003
     atom  69 (R=0.057)  charge=  1.8425  magn= -0.0002
     atom  70 (R=0.057)  charge=  1.8392  magn= -0.0002
     atom  71 (R=0.057)  charge=  1.8481  magn= -0.0031
     atom  72 (R=0.057)  charge=  1.8432  magn= -0.0009
     atom  73 (R=0.057)  charge=  1.8431  magn=  0.0001
     atom  74 (R=0.057)  charge=  1.8491  magn=  0.0016
     atom  75 (R=0.057)  charge=  1.8433  magn=  0.0001
     atom  76 (R=0.057)  charge=  1.8450  magn=  0.0000
     atom  77 (R=0.057)  charge=  1.8446  magn= -0.0001
     atom  78 (R=0.057)  charge=  1.8434  magn= -0.0000
     atom  79 (R=0.057)  charge=  1.8442  magn= -0.0001
     atom  80 (R=0.057)  charge=  1.8445  magn= -0.0002
     atom  81 (R=0.057)  charge=  1.8446  magn= -0.0000
     atom  82 (R=0.057)  charge=  1.8438  magn=  0.0000
     atom  83 (R=0.057)  charge=  1.8507  magn=  0.0020
     atom  84 (R=0.057)  charge=  1.8436  magn=  0.0000
     atom  85 (R=0.057)  charge=  1.8507  magn=  0.0020
     atom  86 (R=0.057)  charge=  1.8459  magn= -0.0008
     atom  87 (R=0.057)  charge=  1.8488  magn=  0.0037
     atom  88 (R=0.057)  charge=  1.8436  magn=  0.0000
     atom  89 (R=0.057)  charge=  1.8488  magn=  0.0037
     atom  90 (R=0.057)  charge=  1.8438  magn=  0.0005
     atom  91 (R=0.057)  charge=  1.8469  magn=  0.0011
     atom  92 (R=0.057)  charge=  1.8479  magn= -0.0006
     atom  93 (R=0.057)  charge=  1.8507  magn=  0.0020
     atom  94 (R=0.057)  charge=  1.8479  magn= -0.0006
     atom  95 (R=0.057)  charge=  1.8457  magn= -0.0008
     atom  96 (R=0.057)  charge=  1.8507  magn=  0.0020
     atom  97 (R=0.057)  charge=  1.8457  magn= -0.0008
     atom  98 (R=0.057)  charge=  1.8488  magn=  0.0037
     atom  99 (R=0.057)  charge=  1.8445  magn=  0.0001
     atom 100 (R=0.057)  charge=  1.8470  magn=  0.0010
     atom 101 (R=0.057)  charge=  1.8435  magn=  0.0000
     atom 102 (R=0.057)  charge=  1.8470  magn=  0.0011
     atom 103 (R=0.057)  charge=  1.8476  magn= -0.0006
     atom 104 (R=0.057)  charge=  1.8508  magn=  0.0020
     atom 105 (R=0.057)  charge=  1.8435  magn=  0.0000
     atom 106 (R=0.057)  charge=  1.8508  magn=  0.0020
     atom 107 (R=0.057)  charge=  1.8436  magn=  0.0000
     atom 108 (R=0.057)  charge=  1.8440  magn=  0.0002
     atom 109 (R=0.057)  charge=  1.8403  magn=  0.0001
     atom 110 (R=0.057)  charge=  1.8444  magn=  0.0013
     atom 111 (R=0.057)  charge=  1.8403  magn=  0.0001
     atom 112 (R=0.057)  charge=  1.8390  magn=  0.0054
     atom 113 (R=0.057)  charge=  1.8405  magn=  0.0157
     atom 114 (R=0.057)  charge=  1.8444  magn=  0.0013
     atom 115 (R=0.057)  charge=  1.8405  magn=  0.0157
     atom 116 (R=0.057)  charge=  1.8419  magn=  0.0008
     atom 117 (R=0.057)  charge=  1.8443  magn=  0.0009
     atom 118 (R=0.057)  charge=  1.8437  magn=  0.0010
     atom 119 (R=0.057)  charge=  1.8406  magn=  0.0001
     atom 120 (R=0.057)  charge=  1.8437  magn=  0.0010
     atom 121 (R=0.057)  charge=  1.8391  magn=  0.0054
     atom 122 (R=0.057)  charge=  1.8406  magn=  0.0001
     atom 123 (R=0.057)  charge=  1.8391  magn=  0.0054
     atom 124 (R=0.057)  charge=  1.8404  magn=  0.0157
     atom 125 (R=0.057)  charge=  1.8434  magn=  0.0007
     atom 126 (R=0.057)  charge=  1.8443  magn=  0.0009
     atom 127 (R=0.057)  charge=  1.8440  magn=  0.0002
     atom 128 (R=0.057)  charge=  1.8443  magn=  0.0009
     atom 129 (R=0.057)  charge=  1.8437  magn=  0.0010
     atom 130 (R=0.057)  charge=  1.8406  magn=  0.0001
     atom 131 (R=0.057)  charge=  1.8440  magn=  0.0002
     atom 132 (R=0.057)  charge=  1.8406  magn=  0.0001
     atom 133 (R=0.057)  charge=  1.8443  magn=  0.0013
     atom 134 (R=0.057)  charge=  1.8430  magn=  0.0001
     atom 135 (R=0.057)  charge=  1.8374  magn=  0.0040
     atom 136 (R=0.057)  charge=  1.8416  magn=  0.0157
     atom 137 (R=0.057)  charge=  1.8434  magn=  0.0012
     atom 138 (R=0.057)  charge=  1.8660  magn=  0.1926
     atom 139 (R=0.057)  charge=  1.8405  magn=  0.0049
     atom 140 (R=0.057)  charge=  1.8457  magn=  0.0014
     atom 141 (R=0.057)  charge=  1.8434  magn=  0.0010
     atom 142 (R=0.057)  charge=  1.8421  magn=  0.0002
     atom 143 (R=0.057)  charge=  1.8450  magn=  0.0010
     atom 144 (R=0.057)  charge=  1.8458  magn=  0.0073
     atom 145 (R=0.057)  charge=  1.8426  magn=  0.0001
     atom 146 (R=0.057)  charge=  1.8430  magn=  0.0001
     atom 147 (R=0.057)  charge=  1.8374  magn=  0.0040
     atom 148 (R=0.057)  charge=  1.8416  magn=  0.0157
     atom 149 (R=0.057)  charge=  1.8436  magn=  0.0003
     atom 150 (R=0.057)  charge=  1.8424  magn=  0.0001
     atom 151 (R=0.057)  charge=  1.8441  magn=  0.0011
     atom 152 (R=0.057)  charge=  1.8436  magn=  0.0003
     atom 153 (R=0.057)  charge=  1.8424  magn=  0.0001
     atom 154 (R=0.057)  charge=  1.8441  magn=  0.0011
     atom 155 (R=0.057)  charge=  1.8459  magn=  0.0014
     atom 156 (R=0.057)  charge=  1.8434  magn=  0.0010
     atom 157 (R=0.057)  charge=  1.8421  magn=  0.0002
     atom 158 (R=0.057)  charge=  1.8435  magn=  0.0006
     atom 159 (R=0.057)  charge=  1.8437  magn=  0.0017
     atom 160 (R=0.057)  charge=  1.8440  magn=  0.0003
     atom 161 (R=0.057)  charge=  1.8430  magn=  0.0001
     atom 162 (R=0.057)  charge=  1.8434  magn=  0.0012
     atom 163 (R=0.057)  charge=  1.8457  magn=  0.0014
     atom 164 (R=0.057)  charge=  1.8374  magn=  0.0040
     atom 165 (R=0.057)  charge=  1.8660  magn=  0.1926
     atom 166 (R=0.057)  charge=  1.8434  magn=  0.0010
     atom 167 (R=0.057)  charge=  1.8416  magn=  0.0157
     atom 168 (R=0.057)  charge=  1.8405  magn=  0.0049
     atom 169 (R=0.057)  charge=  1.8421  magn=  0.0002
     atom 170 (R=0.057)  charge=  1.8450  magn=  0.0010
     atom 171 (R=0.057)  charge=  1.8430  magn=  0.0001
     atom 172 (R=0.057)  charge=  1.8436  magn=  0.0003
     atom 173 (R=0.057)  charge=  1.8458  magn=  0.0073
     atom 174 (R=0.057)  charge=  1.8374  magn=  0.0040
     atom 175 (R=0.057)  charge=  1.8424  magn=  0.0001
     atom 176 (R=0.057)  charge=  1.8426  magn=  0.0001
     atom 177 (R=0.057)  charge=  1.8416  magn=  0.0157
     atom 178 (R=0.057)  charge=  1.8441  magn=  0.0011
     atom 179 (R=0.057)  charge=  1.8436  magn=  0.0003
     atom 180 (R=0.057)  charge=  1.8459  magn=  0.0014
     atom 181 (R=0.057)  charge=  1.8435  magn=  0.0006
     atom 182 (R=0.057)  charge=  1.8424  magn=  0.0001
     atom 183 (R=0.057)  charge=  1.8434  magn=  0.0010
     atom 184 (R=0.057)  charge=  1.8437  magn=  0.0017
     atom 185 (R=0.057)  charge=  1.8441  magn=  0.0011
     atom 186 (R=0.057)  charge=  1.8421  magn=  0.0002
     atom 187 (R=0.057)  charge=  1.8440  magn=  0.0003
     atom 188 (R=0.057)  charge=  1.8424  magn=  0.0001
     atom 189 (R=0.057)  charge=  1.8416  magn=  0.0157
     atom 190 (R=0.057)  charge=  1.8441  magn=  0.0011
     atom 191 (R=0.057)  charge=  1.8416  magn=  0.0157
     atom 192 (R=0.057)  charge=  1.8405  magn=  0.0049
     atom 193 (R=0.057)  charge=  1.8421  magn=  0.0002
     atom 194 (R=0.057)  charge=  1.8441  magn=  0.0011
     atom 195 (R=0.057)  charge=  1.8421  magn=  0.0002
     atom 196 (R=0.057)  charge=  1.8440  magn=  0.0003
     atom 197 (R=0.057)  charge=  1.8458  magn=  0.0073
     atom 198 (R=0.057)  charge=  1.8373  magn=  0.0040
     atom 199 (R=0.057)  charge=  1.8424  magn=  0.0001
     atom 200 (R=0.057)  charge=  1.8373  magn=  0.0040
     atom 201 (R=0.057)  charge=  1.8659  magn=  0.1926
     atom 202 (R=0.057)  charge=  1.8434  magn=  0.0010
     atom 203 (R=0.057)  charge=  1.8424  magn=  0.0001
     atom 204 (R=0.057)  charge=  1.8434  magn=  0.0010
     atom 205 (R=0.057)  charge=  1.8436  magn=  0.0017
     atom 206 (R=0.057)  charge=  1.8450  magn=  0.0010
     atom 207 (R=0.057)  charge=  1.8430  magn=  0.0001
     atom 208 (R=0.057)  charge=  1.8436  magn=  0.0003
     atom 209 (R=0.057)  charge=  1.8430  magn=  0.0001
     atom 210 (R=0.057)  charge=  1.8434  magn=  0.0012
     atom 211 (R=0.057)  charge=  1.8456  magn=  0.0014
     atom 212 (R=0.057)  charge=  1.8436  magn=  0.0003
     atom 213 (R=0.057)  charge=  1.8456  magn=  0.0014
     atom 214 (R=0.057)  charge=  1.8435  magn=  0.0006
     atom 215 (R=0.057)  charge=  2.9097  magn=  0.1222

     total cpu time spent up to now is      352.0 secs

     End of self-consistent calculation

 ------ SPIN UP ------------


          k = 0.0000 0.0000 0.0000 ( 42379 PWs)   bands (ev):

    -8.3113  -7.5827  -7.2902  -7.2901  -7.2371  -7.2370  -7.1617  -6.7059
    -6.2967  -6.2967  -6.2792  -6.2792  -6.2625  -6.2353  -6.2321  -6.2321
    -6.1765  -6.1765  -6.0126  -5.5525  -5.2630  -5.2606  -5.2606  -5.2287
    -5.2286  -5.2286  -5.0663  -4.4986  -4.2749  -4.2749  -4.2500  -4.2500
    -4.1954  -3.9139  -3.4052  -3.4051  -3.3818  -3.3818  -3.3767  -3.3626
    -3.3626  -3.3595  -3.3577  -3.3503  -3.3503  -3.3310  -3.3261  -3.3261
    -3.2971  -3.2970  -3.2897  -3.2877  -3.2877  -3.2737  -3.1973  -3.1973
    -3.0324  -2.8517  -2.6371  -2.6371  -2.5908  -2.5815  -2.5815  -2.5739
    -2.5669  -2.5669  -2.5656  -2.5449  -2.5449  -2.5276  -2.5276  -2.5213
    -2.5054  -2.5054  -2.4791  -2.4581  -2.4581  -2.4115  -2.3028  -2.3027
    -1.6507  -1.0822  -0.9184  -0.9184  -0.8734  -0.8734  -0.8612  -0.8539
    -0.8539  -0.8530  -0.7965  -0.7965  -0.4525   0.3307   0.3904   0.3904
     0.4116   0.4116   0.4513   0.6547   0.8160   0.8160   0.8908   0.8936
     0.8936   0.8955   0.8955   0.9090   0.9091   0.9091   0.9157   0.9465
     0.9465   0.9682   0.9848   1.0177   1.0177   1.0346   1.0346   1.0365
     1.0634   1.0634   1.0822   1.1060   1.1060   1.1063   1.1316   1.1348
     1.1351   1.1351   1.1420   1.1421   1.1433   1.1742   1.1742   1.1960
     1.1960   1.2006   1.2067   1.2067   1.2095   1.2095   1.2234   1.4306
     1.5674   1.5675   1.9411   2.1868   2.1868   2.1897   2.2395   2.2403
     2.2403   2.2482   2.2774   2.2774   2.4170   2.4171   3.3624   3.6873
     3.6873   3.7223   3.7816   3.7921   3.7953   3.7953   3.7960   3.7960
     3.8094   3.8127   3.8260   3.8279   3.8279   3.8467   3.8467   3.9598
     3.9598   3.9652   4.0113   4.3326   4.3326   4.3723   4.4381   4.4500
     4.4500   4.4518   4.4563   4.4564   4.4653   4.4653   4.4782   4.4854
     4.4882   4.4882   4.4910   4.4910   4.5030   4.5165   4.5165   4.5275
     4.7427   4.7427   5.2073   5.2073   5.2503   5.3119   5.3119   5.3131
     5.3158   5.3171   5.3171   5.3308   5.3351   5.3351   5.3584   5.3584
     5.4074   5.4095   5.4095   5.4295   5.4377   5.4685   5.4685   5.5118
     5.5401   5.5401   5.6108   5.7250   5.7250   5.8169   5.8350   5.8350
     5.8461   5.8580   5.8580   5.8613   5.8632   5.8650   5.8650   5.8786
     5.8786   5.8830   5.9009   5.9133   5.9134   5.9163   5.9395   5.9395
     5.9491   5.9764   5.9764   6.0126   6.0126   6.2989   6.3515   6.3515
     6.8376   6.8376   6.9008   6.9088   6.9388   6.9388   7.0576   7.3490
     7.3490   7.4443   7.4511   7.4511   7.4701   7.4739   7.4739   7.5053
     7.5569   7.5569   7.6919   7.6920   7.8147   7.8553   7.8626   7.8665
     7.8666   7.8722   7.8722   7.9000   7.9257   7.9257   7.9368   8.0438
     8.0438   8.0876   8.1077   8.1128   8.1128   8.1330   8.1345   8.1345
     8.1372   8.1373   8.1389   8.1505   8.1505   8.1572   8.1817   8.1817
     8.1905   8.2031   8.2031   8.2043   8.2043   8.2208   8.2660   8.2660
     8.2930   8.3123   8.3191   8.3191   8.3214   8.3280   8.3324   8.3324
     8.3369   8.3369   8.3442   8.3512   8.3529   8.3529   8.3546   8.3546
     8.3624   8.3647   8.3647   8.3657   8.3788   8.3788   8.3864   8.3895
     8.3919   8.3919   8.4026   8.4026   8.4302   8.4302   8.4458   8.4521
     8.4521   8.4848   8.4848   8.4928   8.5038   8.5401   8.5504   8.5518
     8.5518   8.6697   8.6697   8.9095   8.9213   8.9214   9.0816   9.0816
     9.1475   9.1568   9.1568   9.1616   9.1951   9.1951   9.1962   9.2047
     9.2137   9.2137   9.2186   9.2289   9.2289   9.2360   9.2360   9.2591
     9.3284   9.3284   9.3715   9.9191  10.1393  10.1393  10.4721  10.5043
    10.5043  10.5717  10.5717  10.5723  10.5972  10.6052  10.6053  10.6103
    10.6675  10.6675  10.6873  10.7624  10.7624  10.8276  10.8336  10.8336
    10.8344  10.8344  10.8386  10.8386  10.8476  10.8786  10.8786  10.8996
    10.9008  10.9008  10.9042  10.9398  10.9399  11.4229  11.5232  11.5232
    11.7166  11.7354  11.7354  11.7492  11.7795  11.7813  11.7813  11.8061
    11.8606  11.8606  12.9546  13.0130  13.0131  13.8212  15.2536  15.2538
    17.2965  17.2965  17.3025  17.3576  17.3576  17.3706  17.8382  17.9448
    17.9449  17.9543  17.9543  18.0171  18.0785  18.0785  18.1324  18.1944
    18.1944  18.1990  18.8091  18.8091  18.8298  19.3366  19.4689  19.4690
    19.4858  19.5130  19.5130  19.5328  19.5398  19.5398  19.5477  19.5477
    19.5898  19.9423  20.1754  20.1754  20.2128  20.2174  20.2175  20.2271
    20.2271  20.2273  20.2301  20.2301  20.2475  20.2475  20.2528  20.2577
    20.2874  20.2874  20.2896  20.3253  20.3253  20.3566  20.3706  20.3709
    20.3709  20.5916  20.6443  20.6443  20.7049  20.7145  20.7176  20.7176
    20.7280  20.7280  20.7417  20.7518  20.7519  20.7537  20.7792  20.7792
    20.8083  20.8083  20.8144  20.8245  20.8276  20.8276  20.8390  20.8508
    20.8508  20.8605  20.8605  20.8638  20.8700  20.8701  20.8830  20.8830
    20.8975  20.9128  20.9128  20.9501  20.9562  21.0070  21.0146  21.0146
    21.0772  21.0773  21.0858  21.1756  21.2804  21.2804  21.3121  21.3254
    21.3255  21.3386  21.3391  21.3391  21.3498  21.3498  21.3533  21.3693
    21.3734  21.3734  21.3994  21.3998  21.3998  21.4064  21.4064  21.4146
    21.4146  21.4163  21.4281  21.4281  21.4282  21.4501  21.4527  21.4527
    21.4696  21.4696  21.5037  21.5037  21.5098  21.5134  21.5942  21.6185
    21.6185  21.6298  21.6526  21.6526  21.6611  21.6676  21.6864  21.6864
    21.7030  21.7030  21.7218  21.7501  21.7501  21.7709  21.8014  21.8261
    21.8261  21.9353  21.9353  21.9718  22.0076  22.0077  22.1093  22.1093
    22.1347  22.1838  22.1838  22.1851  22.1981  22.2043  22.2043  22.3384
    22.3516  22.3516  22.3977  22.4548  22.4548  22.4852  22.4863  22.4863
    22.6387  22.6871  22.6871  22.8051  22.9444  22.9444  22.9805  23.1008
    23.1008  23.1079  23.1219  23.1219  23.1292  23.1292  23.1400  23.1400
    23.1441  23.1473  23.1713  23.1847  23.2022  23.2022  23.2105  23.2699
    23.3046  23.3046  23.3562  23.3563  23.4129  23.4563  23.4563  23.7686
    23.7686  23.7849  23.7870  23.7918  23.8064  23.8064  23.8121  23.8267
    23.8267  23.8459  23.8459  23.8558  23.8558  23.8629  23.8956  23.8965
    23.9693  23.9693  23.9815  24.1022  24.1022  24.1854  24.1854  24.2237
    24.2253  24.2253  24.2515  24.2724  24.2724  24.2746  24.2851  24.2851
    24.2978  24.3212  24.3212  24.3487  24.3773  24.3773  24.3991  24.3991
    24.3999  24.4012  24.4012  24.4083  24.4694  24.4720  24.4756  24.4756
    24.4834  24.4872  24.4872  24.5058  24.5103  24.5104  24.5228  24.5228
    24.5393  24.5601  24.5601  24.5654  24.6681  24.6682  24.7173  24.7943
    24.7943  24.9095  24.9095  25.5060  25.5200  25.5201  25.6055  25.7348
    25.7985  25.7985  25.8050  25.8050  25.9947  25.9948  26.0010  26.0169
    26.0376  26.0377  26.1007  26.1276  26.1498  26.1498  26.2192  26.2807
    26.2808  26.4292  26.5607  26.5607  26.5687  26.6293  26.6424  26.6424
    26.6430  26.6724  26.6724  26.6931  26.6931  26.6937  26.7473  26.7488
    26.7488  26.7822  26.7824  26.7824  26.8220  26.8426  26.8426  26.9439
    26.9440  27.0352  27.0352  27.0739  27.0902  27.1001  27.1001  27.1155
    27.1222  27.1222  27.1232  27.1315  27.1315  27.1552  27.1552  27.1767
    27.1913  27.2138  27.2138  27.2433  27.2433  27.2508  27.2622  27.2622
    27.2693  27.2807  27.2871  27.2871  27.2952  27.3075  27.3076  27.3098
    27.3098  27.3146  27.3264  27.3358  27.3395  27.3395  27.3613  27.3613
    27.3678  27.3717  27.3832  27.3832  27.3960  27.3960  27.4051  27.4160
    27.4304  27.4305  27.4657  27.4846  27.4846  27.4994  27.4994  27.5132
    27.5132  27.5261  27.5472  27.5473  27.5498  27.5563  27.5815  27.5888
    27.5888  27.5960  27.5960  27.5999  27.6027  27.6027  27.6086  27.6442
    27.6442  27.7186  27.7186  27.7287  27.7692  27.8756  27.8756  27.8820
    27.9167  27.9330  27.9330  27.9860  28.0523  28.0524  28.0951  28.0951
    28.1185  28.1546  28.1546  28.2805  28.3235  28.3248  28.3249  28.3469
    28.3681  28.3681  28.5841  28.6722  28.6724  28.7950  29.7113  29.8017
    29.8018  29.8440  29.9365  29.9365  30.0073  30.0612

 ------ SPIN DOWN ----------


          k = 0.0000 0.0000 0.0000 ( 42379 PWs)   bands (ev):

    -8.3013  -7.5446  -7.2873  -7.2873  -7.2310  -7.2310  -7.1491  -6.6772
    -6.2937  -6.2937  -6.2768  -6.2767  -6.2589  -6.2307  -6.2263  -6.2262
    -6.1625  -6.1624  -5.9905  -5.5343  -5.2581  -5.2537  -5.2537  -5.2215
    -5.2158  -5.2158  -5.0439  -4.4732  -4.2690  -4.2690  -4.2417  -4.2417
    -4.1879  -3.8878  -3.3981  -3.3981  -3.3791  -3.3791  -3.3756  -3.3589
    -3.3588  -3.3570  -3.3552  -3.3475  -3.3475  -3.3294  -3.3222  -3.3222
    -3.2863  -3.2863  -3.2802  -3.2769  -3.2769  -3.2689  -3.1775  -3.1774
    -3.0207  -2.8424  -2.6325  -2.6324  -2.5873  -2.5770  -2.5770  -2.5661
    -2.5639  -2.5631  -2.5631  -2.5384  -2.5383  -2.5216  -2.5215  -2.5125
    -2.5008  -2.5008  -2.4689  -2.4471  -2.4471  -2.4000  -2.2499  -2.2499
    -1.5969  -1.0682  -0.9129  -0.9129  -0.8637  -0.8636  -0.8560  -0.8479
    -0.8476  -0.8476  -0.7705  -0.7704  -0.3987   0.3468   0.3950   0.3950
     0.4183   0.4184   0.4569   0.6797   0.8246   0.8246   0.8911   0.8962
     0.8963   0.8974   0.8974   0.9119   0.9148   0.9148   0.9177   0.9495
     0.9496   0.9756   0.9947   1.0268   1.0268   1.0418   1.0455   1.0455
     1.0765   1.0766   1.0864   1.1108   1.1108   1.1160   1.1356   1.1370
     1.1404   1.1404   1.1472   1.1472   1.1530   1.1778   1.1778   1.2019
     1.2019   1.2065   1.2120   1.2120   1.2293   1.2293   1.2524   1.4510
     1.6083   1.6084   1.9604   2.1946   2.1946   2.2097   2.2443   2.2443
     2.2476   2.2519   2.2835   2.2836   2.4683   2.4683   3.4280   3.6993
     3.6993   3.7354   3.7887   3.7980   3.7981   3.7981   3.8005   3.8005
     3.8155   3.8181   3.8315   3.8324   3.8324   3.8554   3.8554   3.9739
     3.9739   3.9781   4.0291   4.3437   4.3437   4.3964   4.4411   4.4529
     4.4532   4.4532   4.4614   4.4614   4.4709   4.4709   4.4810   4.4932
     4.4932   4.4991   4.4991   4.5029   4.5152   4.5263   4.5263   4.5357
     4.7917   4.7917   5.2201   5.2201   5.2665   5.3138   5.3138   5.3176
     5.3178   5.3200   5.3200   5.3328   5.3390   5.3390   5.3622   5.3622
     5.4157   5.4161   5.4161   5.4397   5.4436   5.4805   5.4805   5.5227
     5.5491   5.5491   5.6435   5.7343   5.7343   5.8302   5.8378   5.8379
     5.8503   5.8620   5.8620   5.8681   5.8713   5.8718   5.8718   5.8843
     5.8843   5.8901   5.9129   5.9194   5.9250   5.9250   5.9489   5.9489
     5.9672   5.9900   5.9900   6.0259   6.0259   6.3323   6.3889   6.3889
     6.8472   6.8472   6.9082   6.9260   6.9540   6.9540   7.1257   7.3657
     7.3657   7.4542   7.4542   7.4564   7.4741   7.4803   7.4803   7.5235
     7.5701   7.5701   7.7025   7.7025   7.8370   7.8603   7.8712   7.8712
     7.8827   7.8827   7.8828   7.9074   7.9348   7.9348   7.9524   8.0547
     8.0547   8.0919   8.1107   8.1157   8.1157   8.1357   8.1371   8.1371
     8.1408   8.1408   8.1416   8.1529   8.1530   8.1632   8.1879   8.1879
     8.1953   8.2078   8.2078   8.2163   8.2163   8.2278   8.2718   8.2718
     8.3009   8.3218   8.3218   8.3230   8.3279   8.3303   8.3357   8.3357
     8.3396   8.3396   8.3482   8.3556   8.3560   8.3560   8.3621   8.3621
     8.3661   8.3678   8.3678   8.3704   8.3847   8.3848   8.3939   8.3999
     8.3999   8.4061   8.4164   8.4164   8.4369   8.4369   8.4526   8.4574
     8.4574   8.4970   8.4970   8.5078   8.5344   8.5483   8.5562   8.5724
     8.5724   8.7017   8.7017   8.9284   8.9372   8.9372   9.0885   9.0885
     9.1505   9.1602   9.1602   9.1636   9.1999   9.1999   9.2010   9.2175
     9.2260   9.2268   9.2268   9.2375   9.2375   9.2521   9.2521   9.2634
     9.3584   9.3584   9.4001  10.0004  10.1943  10.1943  10.5193  10.5193
    10.5749  10.5749  10.5767  10.5905  10.5997  10.6167  10.6167  10.6417
    10.6724  10.6724  10.6963  10.7674  10.7674  10.8367  10.8383  10.8383
    10.8416  10.8416  10.8505  10.8505  10.8520  10.8890  10.8890  10.9130
    10.9130  10.9160  10.9178  10.9496  10.9496  11.4947  11.5468  11.5469
    11.7435  11.7435  11.7515  11.7827  11.7880  11.7880  11.8166  11.8776
    11.8777  12.0070  13.0420  13.0420  13.0599  14.5675  16.2024  16.2025
    17.3005  17.3005  17.3177  17.3685  17.3685  17.3812  17.8493  17.9520
    17.9521  17.9602  17.9602  18.0265  18.0840  18.0840  18.1626  18.2094
    18.2107  18.2107  18.8261  18.8261  18.8426  19.3557  19.4723  19.4723
    19.4883  19.5219  19.5219  19.5384  19.5445  19.5445  19.5529  19.5529
    19.5977  19.9582  20.1794  20.1794  20.2155  20.2204  20.2204  20.2299
    20.2302  20.2302  20.2377  20.2377  20.2548  20.2548  20.2579  20.2628
    20.2950  20.2955  20.2955  20.3311  20.3311  20.3654  20.3793  20.3793
    20.3798  20.6035  20.6548  20.6548  20.7069  20.7159  20.7204  20.7204
    20.7310  20.7310  20.7440  20.7545  20.7545  20.7571  20.7835  20.7836
    20.8126  20.8126  20.8179  20.8317  20.8317  20.8371  20.8426  20.8627
    20.8627  20.8670  20.8670  20.8678  20.8802  20.8803  20.8917  20.8917
    20.9025  20.9203  20.9203  20.9570  20.9643  21.0180  21.0205  21.0205
    21.0849  21.0849  21.0931  21.1848  21.2877  21.2877  21.3151  21.3300
    21.3300  21.3426  21.3426  21.3429  21.3548  21.3548  21.3562  21.3777
    21.3777  21.3831  21.4020  21.4060  21.4060  21.4116  21.4116  21.4222
    21.4222  21.4234  21.4333  21.4356  21.4356  21.4648  21.4657  21.4657
    21.4825  21.4825  21.5219  21.5220  21.5221  21.5372  21.6001  21.6293
    21.6293  21.6331  21.6573  21.6573  21.6642  21.6829  21.6934  21.6934
    21.7107  21.7108  21.7336  21.7562  21.7562  21.7758  21.8226  21.8446
    21.8446  21.9571  21.9571  21.9781  22.0230  22.0230  22.1128  22.1128
    22.1367  22.1925  22.1984  22.1984  22.2060  22.2117  22.2117  22.3471
    22.3618  22.3618  22.4212  22.4634  22.4634  22.4905  22.4905  22.4926
    22.6597  22.7207  22.7207  22.8690  22.9609  22.9609  22.9977  23.1069
    23.1069  23.1099  23.1250  23.1250  23.1338  23.1339  23.1433  23.1433
    23.1482  23.1530  23.1760  23.1968  23.2157  23.2157  23.2322  23.3112
    23.3397  23.3397  23.3754  23.3754  23.4386  23.4860  23.4861  23.7784
    23.7784  23.7892  23.7965  23.8110  23.8110  23.8151  23.8297  23.8322
    23.8322  23.8550  23.8550  23.8624  23.8624  23.8694  23.9027  23.9136
    23.9868  23.9869  23.9901  24.1138  24.1138  24.1997  24.1997  24.2310
    24.2310  24.2310  24.2542  24.2765  24.2765  24.2812  24.2900  24.2900
    24.3039  24.3290  24.3290  24.3534  24.3870  24.3870  24.4059  24.4073
    24.4074  24.4164  24.4164  24.4187  24.4716  24.4869  24.4900  24.4900
    24.4927  24.5008  24.5008  24.5148  24.5190  24.5190  24.5298  24.5298
    24.5436  24.5649  24.5649  24.5891  24.7096  24.7097  24.7394  24.8975
    24.8975  24.9658  24.9658  25.5594  25.5632  25.5632  25.6358  25.7479
    25.8095  25.8095  25.8194  25.8194  26.0028  26.0044  26.0044  26.0221
    26.0483  26.0483  26.1290  26.1362  26.1651  26.1651  26.2451  26.3096
    26.3097  26.4457  26.5701  26.5701  26.5897  26.6358  26.6486  26.6486
    26.6487  26.6781  26.6781  26.7010  26.7010  26.7078  26.7574  26.7574
    26.7612  26.7874  26.7887  26.7887  26.8297  26.8554  26.8554  26.9670
    26.9670  27.0465  27.0465  27.0828  27.0926  27.1045  27.1045  27.1201
    27.1259  27.1259  27.1270  27.1348  27.1348  27.1614  27.1614  27.1884
    27.1953  27.2190  27.2190  27.2495  27.2495  27.2550  27.2668  27.2668
    27.2794  27.2842  27.2947  27.2947  27.3011  27.3130  27.3131  27.3187
    27.3187  27.3248  27.3286  27.3423  27.3499  27.3499  27.3694  27.3695
    27.3733  27.3820  27.3885  27.3885  27.4034  27.4034  27.4242  27.4353
    27.4394  27.4394  27.4714  27.4924  27.4924  27.5152  27.5152  27.5213
    27.5213  27.5414  27.5523  27.5523  27.5546  27.5606  27.5873  27.5966
    27.5966  27.6042  27.6042  27.6096  27.6097  27.6111  27.6122  27.6733
    27.6733  27.7436  27.7436  27.7848  27.8024  27.8987  27.9086  27.9086
    27.9250  27.9495  27.9495  28.0171  28.0698  28.0698  28.1283  28.1284
    28.1316  28.1826  28.1826  28.3065  28.3388  28.3664  28.3665  28.3976
    28.4319  28.4320  28.6484  28.7613  28.7615  28.8851  29.7535  29.8173
    29.8174  29.9282  29.9593  29.9594  30.0194  30.0686

     highest occupied, lowest unoccupied level (ev):    15.25376653   14.56748282

!    total energy              =   -3971.22515168 Ry
     total all-electron energy =    -16414.040754 Ry
     estimated scf accuracy    <          9.8E-09 Ry

     The total energy is the sum of the following terms:
     one-electron contribution =     885.32135834 Ry
     hartree contribution      =     218.36146844 Ry
     xc contribution           =   -1009.06509446 Ry
     ewald contribution        =   -2739.06785035 Ry
     one-center paw contrib.   =   -1326.77503365 Ry

     total magnetization       =     2.00 Bohr mag/cell
     absolute magnetization    =     2.21 Bohr mag/cell

     convergence has been achieved in  16 iterations

     Forces acting on atoms (cartesian axes, Ry/au):

     atom    1 type  1   force =     0.00008597    0.00002592   -0.00009283
     atom    2 type  1   force =     0.00010101   -0.00002272    0.00004284
     atom    3 type  1   force =     0.00013709    0.00015442   -0.00011968
     atom    4 type  1   force =    -0.00003359   -0.00005482   -0.00009183
     atom    5 type  1   force =    -0.00014155    0.00004360    0.00013161
     atom    6 type  1   force =    -0.00002143    0.00003714    0.00026939
     atom    7 type  1   force =     0.00008329    0.00014194   -0.00017332
     atom    8 type  1   force =    -0.00027060   -0.00002331    0.00002002
     atom    9 type  1   force =     0.00020586   -0.00003788   -0.00019627
     atom   10 type  1   force =     0.00031842    0.00012536   -0.00034951
     atom   11 type  1   force =     0.00007770   -0.00014828    0.00017594
     atom   12 type  1   force =    -0.00008352   -0.00000235    0.00008923
     atom   13 type  1   force =    -0.00013391   -0.00019882   -0.00003572
     atom   14 type  1   force =     0.00281051    0.00051851   -0.00293623
     atom   15 type  1   force =     0.00308545    0.00049115   -0.00151305
     atom   16 type  1   force =    -0.00008872   -0.00000309    0.00008392
     atom   17 type  1   force =     0.00144238    0.00009225   -0.00315750
     atom   18 type  1   force =     0.00243277   -0.00277537   -0.00175955
     atom   19 type  1   force =    -0.00001021    0.00003814    0.00000011
     atom   20 type  1   force =     0.00001940    0.00003975   -0.00003370
     atom   21 type  1   force =    -0.00006508   -0.00000009    0.00003796
     atom   22 type  1   force =     0.00002373    0.00004160   -0.00002933
     atom   23 type  1   force =     0.00001212    0.00017361   -0.00005398
     atom   24 type  1   force =     0.00015262   -0.00031164   -0.00013383
     atom   25 type  1   force =    -0.00003886    0.00000686    0.00006410
     atom   26 type  1   force =     0.00020809   -0.00029829   -0.00007814
     atom   27 type  1   force =     0.00033698   -0.00003748   -0.00032784
     atom   28 type  1   force =    -0.00001162   -0.00008577   -0.00006117
     atom   29 type  1   force =     0.00008988    0.00001344    0.00034326
     atom   30 type  1   force =     0.00019404    0.00035039    0.00021012
     atom   31 type  1   force =    -0.00004809   -0.00010989   -0.00006193
     atom   32 type  1   force =     0.00030783    0.00320172    0.00111286
     atom   33 type  1   force =     0.00096796    0.00123864    0.00375641
     atom   34 type  1   force =     0.00005233    0.00020788   -0.00008097
     atom   35 type  1   force =    -0.00023508   -0.00011234   -0.00009654
     atom   36 type  1   force =     0.00011444    0.00020310    0.00012107
     atom   37 type  1   force =     0.00002102    0.00002783   -0.00004118
     atom   38 type  1   force =     0.00003738    0.00009359   -0.00016621
     atom   39 type  1   force =     0.00002635    0.00003010    0.00035240
     atom   40 type  1   force =    -0.00017967   -0.00007712    0.00013109
     atom   41 type  1   force =     0.00171865    0.00351718    0.00116210
     atom   42 type  1   force =     0.00240246    0.00228310    0.00091674
     atom   43 type  1   force =    -0.00007427    0.00003481    0.00003933
     atom   44 type  1   force =    -0.00007316   -0.00015006   -0.00012872
     atom   45 type  1   force =     0.00007622   -0.00025105   -0.00012431
     atom   46 type  1   force =     0.00001187   -0.00000635   -0.00006475
     atom   47 type  1   force =     0.00002917    0.00002531   -0.00005297
     atom   48 type  1   force =    -0.00003491   -0.00007044   -0.00006851
     atom   49 type  1   force =     0.00022558    0.00042198    0.00004827
     atom   50 type  1   force =     0.00010673   -0.00020197    0.00009451
     atom   51 type  1   force =    -0.00003431   -0.00011141   -0.00007105
     atom   52 type  1   force =     0.00006462    0.00009799   -0.00000005
     atom   53 type  1   force =     0.00011206   -0.00004030    0.00001081
     atom   54 type  1   force =     0.00013798    0.00016940   -0.00010061
     atom   55 type  1   force =     0.00007894   -0.00006410    0.00002927
     atom   56 type  1   force =     0.00008503   -0.00007855    0.00007119
     atom   57 type  1   force =     0.00003069    0.00020250   -0.00010276
     atom   58 type  1   force =    -0.00033384   -0.00008893   -0.00008078
     atom   59 type  1   force =    -0.00182578    0.00268217   -0.00102194
     atom   60 type  1   force =     0.00011343   -0.00002736    0.00025236
     atom   61 type  1   force =    -0.00028099    0.00023525   -0.00026504
     atom   62 type  1   force =    -0.00391318    0.00005223   -0.00112351
     atom   63 type  1   force =    -0.00016259    0.00013634   -0.00015562
     atom   64 type  1   force =     0.00003343    0.00003061   -0.00002838
     atom   65 type  1   force =    -0.00011408   -0.00006238    0.00019660
     atom   66 type  1   force =    -0.00004882    0.00004083    0.00006447
     atom   67 type  1   force =     0.00014054    0.00011892   -0.00006306
     atom   68 type  1   force =    -0.00190759    0.00263705   -0.00246491
     atom   69 type  1   force =     0.00015851   -0.00009324    0.00010283
     atom   70 type  1   force =    -0.00034851   -0.00006047   -0.00002248
     atom   71 type  1   force =    -0.00135978    0.00137008   -0.00284504
     atom   72 type  1   force =     0.00018192   -0.00022519   -0.00001852
     atom   73 type  1   force =     0.00006430    0.00000602   -0.00001245
     atom   74 type  1   force =    -0.00013978    0.00033237   -0.00031711
     atom   75 type  1   force =    -0.00002180    0.00007684   -0.00008627
     atom   76 type  1   force =     0.00004623    0.00002974   -0.00003584
     atom   77 type  1   force =    -0.00004055   -0.00023794   -0.00005264
     atom   78 type  1   force =     0.00000215   -0.00006632   -0.00009920
     atom   79 type  1   force =     0.00008203   -0.00004155    0.00004859
     atom   80 type  1   force =     0.00009498   -0.00008056    0.00005810
     atom   81 type  1   force =     0.00006167    0.00015119   -0.00017705
     atom   82 type  1   force =     0.00014237   -0.00024712   -0.00008249
     atom   83 type  1   force =    -0.00016803    0.00006562   -0.00049837
     atom   84 type  1   force =    -0.00002308   -0.00003353   -0.00024689
     atom   85 type  1   force =     0.00046366    0.00021941    0.00013360
     atom   86 type  1   force =    -0.00020310   -0.00009954    0.00022788
     atom   87 type  1   force =     0.00016112    0.00028612    0.00011101
     atom   88 type  1   force =     0.00024701    0.00003198    0.00002284
     atom   89 type  1   force =    -0.00017055    0.00020471   -0.00022053
     atom   90 type  1   force =     0.00013074    0.00029829   -0.00020318
     atom   91 type  1   force =     0.00049242    0.00074219   -0.00067271
     atom   92 type  1   force =     0.00005649    0.00008238    0.00000144
     atom   93 type  1   force =     0.00009801   -0.00006006   -0.00052846
     atom   94 type  1   force =    -0.00001892    0.00006441   -0.00007379
     atom   95 type  1   force =     0.00012320   -0.00023643    0.00019400
     atom   96 type  1   force =     0.00052973    0.00004456   -0.00009651
     atom   97 type  1   force =    -0.00012886   -0.00029798   -0.00005801
     atom   98 type  1   force =     0.00025232    0.00001604   -0.00025661
     atom   99 type  1   force =     0.00000844   -0.00001948   -0.00000414
     atom  100 type  1   force =     0.00014211    0.00089784   -0.00064478
     atom  101 type  1   force =    -0.00026001   -0.00006443   -0.00004161
     atom  102 type  1   force =     0.00041904    0.00096583   -0.00036807
     atom  103 type  1   force =     0.00007249    0.00002943   -0.00007892
     atom  104 type  1   force =    -0.00009200    0.00047035    0.00019083
     atom  105 type  1   force =     0.00004797    0.00001026    0.00026644
     atom  106 type  1   force =    -0.00029871    0.00041960   -0.00001598
     atom  107 type  1   force =    -0.00010338    0.00018558    0.00005784
     atom  108 type  1   force =     0.00003662   -0.00020387    0.00001248
     atom  109 type  1   force =    -0.00001919    0.00020000   -0.00013475
     atom  110 type  1   force =    -0.00004386   -0.00005670   -0.00003385
     atom  111 type  1   force =     0.00008318    0.00022558   -0.00003238
     atom  112 type  1   force =    -0.00023958    0.00033894    0.00015720
     atom  113 type  1   force =    -0.00045562   -0.00092002   -0.00022185
     atom  114 type  1   force =     0.00004529   -0.00003509    0.00005478
     atom  115 type  1   force =     0.00042026   -0.00070788    0.00065339
     atom  116 type  1   force =    -0.00002464   -0.00002517    0.00003079
     atom  117 type  1   force =    -0.00044111    0.00023626    0.00038360
     atom  118 type  1   force =    -0.00011243   -0.00018870   -0.00014659
     atom  119 type  1   force =     0.00011541    0.00014198   -0.00014817
     atom  120 type  1   force =     0.00018352   -0.00011612    0.00014945
     atom  121 type  1   force =     0.00040997    0.00004161    0.00009406
     atom  122 type  1   force =     0.00011323    0.00014175   -0.00015017
     atom  123 type  1   force =    -0.00008947   -0.00007940   -0.00040477
     atom  124 type  1   force =    -0.00071225   -0.00020471    0.00076194
     atom  125 type  1   force =    -0.00013548   -0.00029804    0.00020709
     atom  126 type  1   force =     0.00049554   -0.00018634    0.00029789
     atom  127 type  1   force =    -0.00020906   -0.00009572    0.00004226
     atom  128 type  1   force =    -0.00023112   -0.00036202   -0.00042901
     atom  129 type  1   force =    -0.00020334    0.00005464    0.00019072
     atom  130 type  1   force =     0.00008366    0.00022113   -0.00002800
     atom  131 type  1   force =    -0.00002473   -0.00005076    0.00022667
     atom  132 type  1   force =    -0.00002211    0.00019476   -0.00013393
     atom  133 type  1   force =    -0.00007572    0.00001756    0.00007117
     atom  134 type  1   force =     0.00006157   -0.00001093    0.00000692
     atom  135 type  1   force =    -0.00017570   -0.00027899   -0.00042633
     atom  136 type  1   force =    -0.00106518   -0.00061337    0.00008391
     atom  137 type  1   force =     0.00016945    0.00014048   -0.00004190
     atom  138 type  1   force =     0.01076687   -0.00636341    0.00761659
     atom  139 type  1   force =    -0.00046567    0.00014568   -0.00021250
     atom  140 type  1   force =    -0.00016232   -0.00002781    0.00023356
     atom  141 type  1   force =     0.00019541    0.00005242   -0.00005696
     atom  142 type  1   force =    -0.00012600   -0.00003310   -0.00006612
     atom  143 type  1   force =    -0.00031405   -0.00030331    0.00015456
     atom  144 type  1   force =     0.00160688   -0.00099122    0.00117696
     atom  145 type  1   force =    -0.00021276    0.00006880   -0.00009021
     atom  146 type  1   force =     0.00004996    0.00002477    0.00004828
     atom  147 type  1   force =    -0.00036969    0.00026347    0.00031498
     atom  148 type  1   force =    -0.00109353   -0.00052686    0.00020729
     atom  149 type  1   force =    -0.00003533   -0.00000730    0.00026690
     atom  150 type  1   force =    -0.00010658   -0.00020743   -0.00002580
     atom  151 type  1   force =    -0.00018871   -0.00001270    0.00004094
     atom  152 type  1   force =     0.00004322   -0.00023448   -0.00004041
     atom  153 type  1   force =    -0.00016633   -0.00005893    0.00017633
     atom  154 type  1   force =    -0.00017183   -0.00007437   -0.00003526
     atom  155 type  1   force =    -0.00008918   -0.00024179   -0.00005613
     atom  156 type  1   force =     0.00016652    0.00013209    0.00004941
     atom  157 type  1   force =    -0.00015558    0.00003729    0.00002582
     atom  158 type  1   force =     0.00009952   -0.00010083    0.00012612
     atom  159 type  1   force =     0.00013990   -0.00015560    0.00017843
     atom  160 type  1   force =    -0.00002514    0.00003388   -0.00000257
     atom  161 type  1   force =    -0.00000248   -0.00002693   -0.00005709
     atom  162 type  1   force =     0.00001285    0.00010223   -0.00019871
     atom  163 type  1   force =    -0.00022573   -0.00004302    0.00017028
     atom  164 type  1   force =     0.00047487   -0.00012106    0.00022469
     atom  165 type  1   force =    -0.00559120   -0.01033291   -0.00874091
     atom  166 type  1   force =     0.00004877    0.00001720   -0.00020385
     atom  167 type  1   force =     0.00003361   -0.00034711    0.00118186
     atom  168 type  1   force =     0.00015856    0.00029701    0.00041225
     atom  169 type  1   force =     0.00006790    0.00001450    0.00012789
     atom  170 type  1   force =    -0.00008774   -0.00024876    0.00038092
     atom  171 type  1   force =    -0.00005135   -0.00000064   -0.00005286
     atom  172 type  1   force =    -0.00025891   -0.00006151    0.00004293
     atom  173 type  1   force =    -0.00086342   -0.00159057   -0.00129335
     atom  174 type  1   force =    -0.00037782    0.00026163    0.00030629
     atom  175 type  1   force =     0.00007061   -0.00016325    0.00015162
     atom  176 type  1   force =     0.00006541    0.00013614    0.00018791
     atom  177 type  1   force =    -0.00010834   -0.00028798    0.00119256
     atom  178 type  1   force =    -0.00004268    0.00002304    0.00018709
     atom  179 type  1   force =     0.00009548   -0.00022214    0.00001184
     atom  180 type  1   force =     0.00010932   -0.00019444    0.00014209
     atom  181 type  1   force =    -0.00009667   -0.00014825   -0.00006981
     atom  182 type  1   force =    -0.00016179   -0.00005758    0.00018088
     atom  183 type  1   force =    -0.00007437    0.00007371   -0.00019096
     atom  184 type  1   force =    -0.00013259   -0.00022074   -0.00009443
     atom  185 type  1   force =     0.00004756   -0.00002136    0.00018351
     atom  186 type  1   force =    -0.00003796    0.00006526    0.00014355
     atom  187 type  1   force =    -0.00000659    0.00003866    0.00001579
     atom  188 type  1   force =     0.00015486   -0.00010305   -0.00012970
     atom  189 type  1   force =     0.00021984   -0.00119779   -0.00005895
     atom  190 type  1   force =     0.00002098   -0.00015612   -0.00005886
     atom  191 type  1   force =     0.00034687   -0.00116690    0.00006747
     atom  192 type  1   force =     0.00034745   -0.00020291   -0.00029836
     atom  193 type  1   force =     0.00010047   -0.00008002   -0.00000533
     atom  194 type  1   force =     0.00009500   -0.00013865    0.00001462
     atom  195 type  1   force =     0.00002694   -0.00009900   -0.00007885
     atom  196 type  1   force =     0.00000590    0.00001892   -0.00001100
     atom  197 type  1   force =    -0.00160700    0.00044926    0.00149826
     atom  198 type  1   force =    -0.00019491   -0.00026451   -0.00042260
     atom  199 type  1   force =     0.00006982   -0.00016202    0.00014875
     atom  200 type  1   force =     0.00046741   -0.00010412    0.00024033
     atom  201 type  1   force =    -0.01049227    0.00314682    0.00972873
     atom  202 type  1   force =    -0.00001965    0.00021163    0.00006501
     atom  203 type  1   force =    -0.00010472   -0.00020501   -0.00002561
     atom  204 type  1   force =    -0.00011366    0.00018819   -0.00002888
     atom  205 type  1   force =    -0.00020754    0.00000251    0.00020651
     atom  206 type  1   force =    -0.00002587   -0.00043299    0.00013094
     atom  207 type  1   force =    -0.00007246    0.00004880    0.00002735
     atom  208 type  1   force =    -0.00024626   -0.00010650   -0.00001164
     atom  209 type  1   force =    -0.00003975    0.00005706    0.00005988
     atom  210 type  1   force =    -0.00003283    0.00022477   -0.00002112
     atom  211 type  1   force =    -0.00017250   -0.00020389   -0.00004757
     atom  212 type  1   force =     0.00002914   -0.00004030    0.00026385
     atom  213 type  1   force =     0.00008953   -0.00014115    0.00021425
     atom  214 type  1   force =    -0.00015778    0.00001665    0.00015284
     atom  215 type  2   force =     0.00187653    0.00489165   -0.00306358

     Total force =     0.029960     Total SCF correction =     0.000329


     Computing stress (Cartesian axis) and pressure

          total   stress  (Ry/bohr**3)                   (kbar)     P=       28.11
   0.00019351  -0.00000256   0.00000161           28.47       -0.38        0.24
  -0.00000256   0.00018784   0.00000418           -0.38       27.63        0.61
   0.00000161   0.00000418   0.00019187            0.24        0.61       28.23


     Writing all to output data dir ./tmp/diamond_pd.save/ :
     XML data file, charge density
     init_run     :      5.47s CPU      5.84s WALL (       1 calls)
     electrons    :    338.83s CPU    346.30s WALL (       1 calls)
     forces       :      3.44s CPU      3.54s WALL (       1 calls)
     stress       :     11.68s CPU     11.82s WALL (       1 calls)

     Called by init_run:
     wfcinit      :      4.41s CPU      4.57s WALL (       1 calls)
     potinit      :      0.78s CPU      0.94s WALL (       1 calls)
     hinit0       :      0.13s CPU      0.14s WALL (       1 calls)

     Called by electrons:
     c_bands      :    303.61s CPU    309.88s WALL (      16 calls)
     sum_band     :     21.65s CPU     22.28s WALL (      16 calls)
     v_of_rho     :      0.54s CPU      0.55s WALL (      17 calls)
     newd         :      1.50s CPU      1.79s WALL (      17 calls)
     PAW_pot      :     12.01s CPU     12.22s WALL (      17 calls)
     mix_rho      :      0.30s CPU      0.30s WALL (      16 calls)

     Called by c_bands:
     init_us_2    :      3.25s CPU      3.31s WALL (      70 calls)
     cegterg      :    299.54s CPU    305.56s WALL (      32 calls)

     Called by *egterg:
     cdiaghg      :     66.42s CPU     68.93s WALL (     189 calls)
     h_psi        :     88.71s CPU     90.33s WALL (     191 calls)
     s_psi        :     28.02s CPU     28.17s WALL (     191 calls)
     g_psi        :      0.53s CPU      0.53s WALL (     157 calls)

     Called by h_psi:
     h_psi:calbec :     27.51s CPU     27.68s WALL (     191 calls)
     vloc_psi     :     32.06s CPU     32.64s WALL (     191 calls)
     add_vuspsi   :     28.14s CPU     28.52s WALL (     191 calls)

     General routines
     calbec       :     49.40s CPU     49.70s WALL (     257 calls)
     fft          :      0.20s CPU      0.21s WALL (     399 calls)
     ffts         :      0.02s CPU      0.02s WALL (      32 calls)
     fftw         :     33.03s CPU     33.61s WALL (  164962 calls)
 
     Parallel routines
 
     PWSCF        :   5m59.54s CPU   6m 7.82s WALL

 
   This run was terminated on:   0:47:57  23Aug2026            

=------------------------------------------------------------------------------=
   JOB DONE.
=------------------------------------------------------------------------------=
