
     Program PWSCF v.7.4.1 starts on 27Jul2026 at  0:44: 8 

     This program is part of the open-source Quantum ESPRESSO suite
     for quantum simulation of materials; please cite
         "P. Giannozzi et al., J. Phys.:Condens. Matter 21 395502 (2009);
         "P. Giannozzi et al., J. Phys.:Condens. Matter 29 465901 (2017);
         "P. Giannozzi et al., J. Chem. Phys. 152 154105 (2020);
          URL http://www.quantum-espresso.org", 
     in publications or presentations arising from this work. More details at
     http://www.quantum-espresso.org/quote

     Parallel version (MPI), running on    36 processors

     MPI processes distributed on     1 nodes
     291058 MiB available memory on the printing compute node when the environment starts
 
     Reading input from diamond_scf.in

     Current dimensions of program PWSCF are:
     Max number of different atomic species (ntypx) = 10
     Max number of k-points (npk) =  40000
     Max angular momentum in pseudopotentials (lmaxx) =  4
     file C.pbe-n-kjpaw_psl.1.0.0.UPF: wavefunction(s)  2S 2P renormalized
     Message from routine setup:
     using ibrav=0 with symmetry is DISCOURAGED, use correct ibrav instead
 
     K-points division:     npool     =       3
     R & G space division:  proc/nbgrp/npool/nimage =      12
     Subspace diagonalization in iterative solution of the eigenvalue problem:
     a serial algorithm will be used

 
     Parallelization info
     --------------------
     sticks:   dense  smooth     PW     G-vecs:    dense   smooth      PW
     Min          23      23      7                  259      259      49
     Max          24      24      8                  261      261      54
     Sum         283     283     91                 3119     3119     609
 
     Using Slab Decomposition
 


     bravais-lattice index     =            0
     lattice parameter (alat)  =       4.7733  a.u.
     unit-cell volume          =      76.9035 (a.u.)^3
     number of atoms/cell      =            2
     number of atomic types    =            1
     number of electrons       =         8.00
     number of Kohn-Sham states=            8
     kinetic-energy cutoff     =      45.0000  Ry
     charge density cutoff     =     180.0000  Ry
     scf convergence threshold =      1.0E-08
     mixing beta               =       0.7000
     number of iterations used =            8  plain     mixing
     Exchange-correlation= SLA  PW   PBX  PBC
                           (   1   4   3   4   0   0   0)

     celldm(1)=   4.773317  celldm(2)=   0.000000  celldm(3)=   0.000000
     celldm(4)=   0.000000  celldm(5)=   0.000000  celldm(6)=   0.000000

     crystal axes: (cart. coord. in units of alat)
               a(1) = (  -0.707107   0.000000   0.707107 )  
               a(2) = (   0.000000   0.707107   0.707107 )  
               a(3) = (  -0.707107   0.707107   0.000000 )  

     reciprocal axes: (cart. coord. in units 2 pi/alat)
               b(1) = ( -0.707107 -0.707107  0.707107 )  
               b(2) = (  0.707107  0.707107  0.707107 )  
               b(3) = ( -0.707107  0.707107 -0.707107 )  


     PseudoPot. # 1 for C  read from file:
     ../../pseudos/C.pbe-n-kjpaw_psl.1.0.0.UPF
     MD5 check sum: 5f16ad9a65e90284d1d834d4ab3b0f7d
     Pseudo is Projector augmented-wave + core cor, Zval =  4.0
     Generated using &quot;atomic&quot; code by A. Dal Corso  v.6.3
     Shape of augmentation charge: PSQ
     Using radial grid of 1073 points,  4 beta functions with: 
                l(1) =   0
                l(2) =   0
                l(3) =   1
                l(4) =   1
     Q(r) pseudized with 0 coefficients 


     atomic species   valence    mass     pseudopotential
     C                 4.00    12.01070     C ( 1.00)

      6 Sym. Ops. (no inversion) found


                                    s                        frac. trans.

      isym =  1     identity                                     

 cryst.   s( 1) = (     1          0          0      )
                  (     0          1          0      )
                  (     0          0          1      )

 cart.    s( 1) = (  1.0000000  0.0000000  0.0000000 )
                  (  0.0000000  1.0000000  0.0000000 )
                  (  0.0000000  0.0000000  1.0000000 )


      isym =  2     120 deg rotation - cart. axis [-1,1,1]       

 cryst.   s( 2) = (     0          1          0      )
                  (     0          0          1      )
                  (     1          0          0      )

 cart.    s( 2) = (  0.0000000 -1.0000000  0.0000000 )
                  (  0.0000000  0.0000000  1.0000000 )
                  ( -1.0000000  0.0000000  0.0000000 )


      isym =  3     120 deg rotation - cart. axis [1,-1,-1]      

 cryst.   s( 3) = (     0          0          1      )
                  (     1          0          0      )
                  (     0          1          0      )

 cart.    s( 3) = (  0.0000000  0.0000000 -1.0000000 )
                  ( -1.0000000  0.0000000  0.0000000 )
                  (  0.0000000  1.0000000  0.0000000 )


      isym =  4     inv. 180 deg rotation - cart. axis [1,1,0]   

 cryst.   s( 4) = (     0          1          0      )
                  (     1          0          0      )
                  (     0          0          1      )

 cart.    s( 4) = (  0.0000000 -1.0000000  0.0000000 )
                  ( -1.0000000  0.0000000  0.0000000 )
                  (  0.0000000  0.0000000  1.0000000 )


      isym =  5     inv. 180 deg rotation - cart. axis [1,0,1]   

 cryst.   s( 5) = (     1          0          0      )
                  (     0          0          1      )
                  (     0          1          0      )

 cart.    s( 5) = (  0.0000000  0.0000000 -1.0000000 )
                  (  0.0000000  1.0000000  0.0000000 )
                  ( -1.0000000  0.0000000  0.0000000 )


      isym =  6     inv. 180 deg rotation - cart. axis [0,1,-1]  

 cryst.   s( 6) = (     0          0          1      )
                  (     0          1          0      )
                  (     1          0          0      )

 cart.    s( 6) = (  1.0000000  0.0000000  0.0000000 )
                  (  0.0000000  0.0000000  1.0000000 )
                  (  0.0000000  1.0000000  0.0000000 )


   Cartesian axes

     site n.     atom                  positions (alat units)
         1        C      tau(   1) = (   0.0000000   0.0000000   0.0000000  )
         2        C      tau(   2) = (  -0.3541036   0.3541036   0.3541036  )

   Crystallographic axes

     site n.     atom                  positions (cryst. coord.)
         1        C      tau(   1) = (  0.0000000  0.0000000  0.0000000  )
         2        C      tau(   2) = (  0.2503890  0.2503890  0.2503890  )

     number of k points=    65
                       cart. coord. in units 2pi/alat
        k(    1) = (   0.0000000   0.0000000   0.0000000), wk =   0.0039062
        k(    2) = (  -0.0883883   0.0883883  -0.0883883), wk =   0.0234375
        k(    3) = (  -0.1767767   0.1767767  -0.1767767), wk =   0.0234375
        k(    4) = (  -0.2651650   0.2651650  -0.2651650), wk =   0.0234375
        k(    5) = (   0.3535534  -0.3535534   0.3535534), wk =   0.0117188
        k(    6) = (   0.0000000   0.1767767   0.0000000), wk =   0.0234375
        k(    7) = (  -0.0883883   0.2651650  -0.0883883), wk =   0.0468750
        k(    8) = (  -0.1767767   0.3535534  -0.1767767), wk =   0.0468750
        k(    9) = (   0.4419417  -0.2651650   0.4419417), wk =   0.0468750
        k(   10) = (   0.3535534  -0.1767767   0.3535534), wk =   0.0468750
        k(   11) = (   0.2651650  -0.0883883   0.2651650), wk =   0.0468750
        k(   12) = (   0.1767767   0.0000000   0.1767767), wk =   0.0234375
        k(   13) = (   0.0000000   0.3535534   0.0000000), wk =   0.0234375
        k(   14) = (  -0.0883883   0.4419417  -0.0883883), wk =   0.0468750
        k(   15) = (   0.5303301  -0.1767767   0.5303301), wk =   0.0468750
        k(   16) = (   0.4419417  -0.0883883   0.4419417), wk =   0.0468750
        k(   17) = (   0.3535534   0.0000000   0.3535534), wk =   0.0234375
        k(   18) = (   0.0000000   0.5303301   0.0000000), wk =   0.0234375
        k(   19) = (   0.6187184  -0.0883883   0.6187184), wk =   0.0468750
        k(   20) = (   0.5303301   0.0000000   0.5303301), wk =   0.0234375
        k(   21) = (   0.0000000  -0.7071068   0.0000000), wk =   0.0117188
        k(   22) = (  -0.1767767   0.3535534   0.0000000), wk =   0.0468750
        k(   23) = (   0.4419417  -0.2651650   0.6187184), wk =   0.0468750
        k(   24) = (   0.3535534  -0.1767767   0.5303301), wk =   0.0468750
        k(   25) = (   0.5303301  -0.1767767   0.7071068), wk =   0.0468750
        k(   26) = (   0.4419417  -0.0883883   0.6187184), wk =   0.0468750
        k(   27) = (   0.3535534   0.0000000   0.5303301), wk =   0.0468750
        k(   28) = (  -0.1767767  -0.7071068   0.0000000), wk =   0.0468750
        k(   29) = (  -0.3535534  -0.7071068   0.0000000), wk =   0.0234375
        k(   30) = (  -0.0883883   0.0883883   0.0883883), wk =   0.0078125
        k(   31) = (  -0.1767767   0.1767767   0.1767767), wk =   0.0078125
        k(   32) = (  -0.2651650   0.2651650   0.2651650), wk =   0.0078125
        k(   33) = (   0.3535534  -0.3535534  -0.3535534), wk =   0.0039062
        k(   34) = (  -0.2651650  -0.0883883  -0.0883883), wk =   0.0234375
        k(   35) = (  -0.0883883   0.2651650   0.0883883), wk =   0.0234375
        k(   36) = (  -0.3535534  -0.1767767  -0.1767767), wk =   0.0234375
        k(   37) = (  -0.1767767   0.3535534   0.1767767), wk =   0.0234375
        k(   38) = (   0.2651650   0.4419417   0.4419417), wk =   0.0234375
        k(   39) = (   0.4419417  -0.2651650  -0.4419417), wk =   0.0234375
        k(   40) = (   0.1767767   0.3535534   0.3535534), wk =   0.0234375
        k(   41) = (   0.3535534  -0.1767767  -0.3535534), wk =   0.0234375
        k(   42) = (   0.0883883   0.2651650   0.2651650), wk =   0.0234375
        k(   43) = (   0.2651650  -0.0883883  -0.2651650), wk =   0.0234375
        k(   44) = (   0.0000000   0.1767767   0.1767767), wk =   0.0234375
        k(   45) = (  -0.4419417  -0.0883883  -0.0883883), wk =   0.0234375
        k(   46) = (  -0.0883883   0.4419417   0.0883883), wk =   0.0234375
        k(   47) = (   0.1767767   0.5303301   0.5303301), wk =   0.0234375
        k(   48) = (   0.5303301  -0.1767767  -0.5303301), wk =   0.0234375
        k(   49) = (   0.0883883   0.4419417   0.4419417), wk =   0.0234375
        k(   50) = (   0.4419417  -0.0883883  -0.4419417), wk =   0.0234375
        k(   51) = (   0.0000000   0.3535534   0.3535534), wk =   0.0234375
        k(   52) = (   0.0883883   0.6187184   0.6187184), wk =   0.0234375
        k(   53) = (   0.6187184  -0.0883883  -0.6187184), wk =   0.0234375
        k(   54) = (   0.0000000   0.5303301   0.5303301), wk =   0.0234375
        k(   55) = (   0.3535534   0.1767767   0.0000000), wk =   0.0468750
        k(   56) = (  -0.2651650  -0.4419417   0.6187184), wk =   0.0468750
        k(   57) = (   0.2651650   0.4419417   0.6187184), wk =   0.0468750
        k(   58) = (   0.6187184  -0.2651650  -0.4419417), wk =   0.0468750
        k(   59) = (  -0.1767767  -0.3535534   0.5303301), wk =   0.0234375
        k(   60) = (   0.5303301  -0.1767767  -0.3535534), wk =   0.0234375
        k(   61) = (  -0.1767767  -0.5303301   0.7071068), wk =   0.0468750
        k(   62) = (  -0.0883883  -0.4419417   0.6187184), wk =   0.0468750
        k(   63) = (   0.0883883   0.4419417   0.6187184), wk =   0.0468750
        k(   64) = (   0.6187184  -0.0883883  -0.4419417), wk =   0.0468750
        k(   65) = (  -0.0000000   0.3535534   0.5303301), wk =   0.0468750

                       cryst. coord.
        k(    1) = (   0.0000000   0.0000000   0.0000000), wk =   0.0039062
        k(    2) = (   0.0000000   0.0000000   0.1250000), wk =   0.0234375
        k(    3) = (   0.0000000   0.0000000   0.2500000), wk =   0.0234375
        k(    4) = (   0.0000000   0.0000000   0.3750000), wk =   0.0234375
        k(    5) = (   0.0000000   0.0000000  -0.5000000), wk =   0.0117188
        k(    6) = (   0.0000000   0.1250000   0.1250000), wk =   0.0234375
        k(    7) = (   0.0000000   0.1250000   0.2500000), wk =   0.0468750
        k(    8) = (   0.0000000   0.1250000   0.3750000), wk =   0.0468750
        k(    9) = (   0.0000000   0.1250000  -0.5000000), wk =   0.0468750
        k(   10) = (   0.0000000   0.1250000  -0.3750000), wk =   0.0468750
        k(   11) = (   0.0000000   0.1250000  -0.2500000), wk =   0.0468750
        k(   12) = (   0.0000000   0.1250000  -0.1250000), wk =   0.0234375
        k(   13) = (   0.0000000   0.2500000   0.2500000), wk =   0.0234375
        k(   14) = (   0.0000000   0.2500000   0.3750000), wk =   0.0468750
        k(   15) = (   0.0000000   0.2500000  -0.5000000), wk =   0.0468750
        k(   16) = (   0.0000000   0.2500000  -0.3750000), wk =   0.0468750
        k(   17) = (   0.0000000   0.2500000  -0.2500000), wk =   0.0234375
        k(   18) = (   0.0000000   0.3750000   0.3750000), wk =   0.0234375
        k(   19) = (   0.0000000   0.3750000  -0.5000000), wk =   0.0468750
        k(   20) = (   0.0000000   0.3750000  -0.3750000), wk =   0.0234375
        k(   21) = (   0.0000000  -0.5000000  -0.5000000), wk =   0.0117188
        k(   22) = (   0.1250000   0.2500000   0.3750000), wk =   0.0468750
        k(   23) = (   0.1250000   0.2500000  -0.5000000), wk =   0.0468750
        k(   24) = (   0.1250000   0.2500000  -0.3750000), wk =   0.0468750
        k(   25) = (   0.1250000   0.3750000  -0.5000000), wk =   0.0468750
        k(   26) = (   0.1250000   0.3750000  -0.3750000), wk =   0.0468750
        k(   27) = (   0.1250000   0.3750000  -0.2500000), wk =   0.0468750
        k(   28) = (   0.1250000  -0.5000000  -0.3750000), wk =   0.0468750
        k(   29) = (   0.2500000  -0.5000000  -0.2500000), wk =   0.0234375
        k(   30) = (   0.1250000   0.1250000   0.1250000), wk =   0.0078125
        k(   31) = (   0.2500000   0.2500000   0.2500000), wk =   0.0078125
        k(   32) = (   0.3750000   0.3750000   0.3750000), wk =   0.0078125
        k(   33) = (  -0.5000000  -0.5000000  -0.5000000), wk =   0.0039062
        k(   34) = (   0.1250000  -0.1250000   0.1250000), wk =   0.0234375
        k(   35) = (   0.1250000   0.2500000   0.2500000), wk =   0.0234375
        k(   36) = (   0.1250000  -0.2500000   0.1250000), wk =   0.0234375
        k(   37) = (   0.2500000   0.3750000   0.3750000), wk =   0.0234375
        k(   38) = (   0.1250000   0.6250000   0.1250000), wk =   0.0234375
        k(   39) = (  -0.6250000  -0.5000000  -0.5000000), wk =   0.0234375
        k(   40) = (   0.1250000   0.5000000   0.1250000), wk =   0.0234375
        k(   41) = (  -0.5000000  -0.3750000  -0.3750000), wk =   0.0234375
        k(   42) = (   0.1250000   0.3750000   0.1250000), wk =   0.0234375
        k(   43) = (  -0.3750000  -0.2500000  -0.2500000), wk =   0.0234375
        k(   44) = (   0.1250000   0.2500000   0.1250000), wk =   0.0234375
        k(   45) = (   0.2500000  -0.1250000   0.2500000), wk =   0.0234375
        k(   46) = (   0.1250000   0.3750000   0.3750000), wk =   0.0234375
        k(   47) = (   0.2500000   0.7500000   0.2500000), wk =   0.0234375
        k(   48) = (  -0.7500000  -0.5000000  -0.5000000), wk =   0.0234375
        k(   49) = (   0.2500000   0.6250000   0.2500000), wk =   0.0234375
        k(   50) = (  -0.6250000  -0.3750000  -0.3750000), wk =   0.0234375
        k(   51) = (   0.2500000   0.5000000   0.2500000), wk =   0.0234375
        k(   52) = (   0.3750000   0.8750000   0.3750000), wk =   0.0234375
        k(   53) = (  -0.8750000  -0.5000000  -0.5000000), wk =   0.0234375
        k(   54) = (   0.3750000   0.7500000   0.3750000), wk =   0.0234375
        k(   55) = (  -0.2500000   0.1250000  -0.1250000), wk =   0.0468750
        k(   56) = (   0.6250000   0.1250000  -0.1250000), wk =   0.0468750
        k(   57) = (   0.2500000   0.7500000   0.1250000), wk =   0.0468750
        k(   58) = (  -0.7500000  -0.5000000  -0.6250000), wk =   0.0468750
        k(   59) = (   0.5000000   0.1250000  -0.1250000), wk =   0.0234375
        k(   60) = (  -0.6250000  -0.3750000  -0.5000000), wk =   0.0234375
        k(   61) = (   0.6250000   0.1250000  -0.2500000), wk =   0.0468750
        k(   62) = (   0.5000000   0.1250000  -0.2500000), wk =   0.0468750
        k(   63) = (   0.3750000   0.7500000   0.2500000), wk =   0.0468750
        k(   64) = (  -0.7500000  -0.3750000  -0.5000000), wk =   0.0468750
        k(   65) = (   0.3750000   0.6250000   0.2500000), wk =   0.0468750

     Dense  grid:     3119 G-vectors     FFT dimensions: (  24,  24,  24)

     Dynamical RAM for                 wfc:       0.00 MB

     Dynamical RAM for     wfc (w. buffer):       0.09 MB

     Dynamical RAM for           str. fact:       0.00 MB

     Dynamical RAM for           local pot:       0.00 MB

     Dynamical RAM for          nlocal pot:       0.01 MB

     Dynamical RAM for                qrad:       0.31 MB

     Dynamical RAM for          rho,v,vnew:       0.04 MB

     Dynamical RAM for               rhoin:       0.01 MB

     Dynamical RAM for            rho*nmix:       0.06 MB

     Dynamical RAM for           G-vectors:       0.02 MB

     Dynamical RAM for          h,s,v(r/c):       0.01 MB

     Dynamical RAM for          <psi|beta>:       0.00 MB

     Dynamical RAM for                 psi:       0.01 MB

     Dynamical RAM for                hpsi:       0.01 MB

     Dynamical RAM for                spsi:       0.01 MB

     Dynamical RAM for      wfcinit/wfcrot:       0.01 MB

     Dynamical RAM for           addusdens:       0.06 MB

     Dynamical RAM for          addusforce:       0.07 MB

     Dynamical RAM for         addusstress:       0.07 MB

     Estimated static dynamical RAM per process >       0.53 MB

     Estimated max dynamical RAM per process >       0.66 MB

     Estimated total dynamical RAM >      22.22 MB

     Check: negative core charge=   -0.000077

     Initial potential from superposition of free atoms

     starting charge       7.9999, renormalised to       8.0000
     Starting wfcs are random
     Checking if some PAW data can be deallocated... 

     total cpu time spent up to now is        0.1 secs

     per-process dynamical memory:    28.5 Mb

     Self-consistent Calculation

     iteration #  1     ecut=    45.00 Ry     beta= 0.70
     Davidson diagonalization with overlap

---- Real-time Memory Report at c_bands before calling an iterative solver
           125 MiB given to the printing process from OS
            27 MiB allocation reported by mallinfo(arena+hblkhd)
        290254 MiB available memory on the node where the printing process lives
------------------
     ethr =  1.00E-02,  avg # of iterations =  7.3

     total cpu time spent up to now is        0.3 secs

     total energy              =     -36.85859016 Ry
     estimated scf accuracy    <       0.11548644 Ry

     iteration #  2     ecut=    45.00 Ry     beta= 0.70
     Davidson diagonalization with overlap

---- Real-time Memory Report at c_bands before calling an iterative solver
           132 MiB given to the printing process from OS
            28 MiB allocation reported by mallinfo(arena+hblkhd)
        290229 MiB available memory on the node where the printing process lives
------------------
     ethr =  1.44E-03,  avg # of iterations =  1.0

     total cpu time spent up to now is        0.3 secs

     total energy              =     -36.86671034 Ry
     estimated scf accuracy    <       0.00247582 Ry

     iteration #  3     ecut=    45.00 Ry     beta= 0.70
     Davidson diagonalization with overlap

---- Real-time Memory Report at c_bands before calling an iterative solver
           136 MiB given to the printing process from OS
            28 MiB allocation reported by mallinfo(arena+hblkhd)
        290229 MiB available memory on the node where the printing process lives
------------------
     ethr =  3.09E-05,  avg # of iterations =  2.2

     total cpu time spent up to now is        0.4 secs

     total energy              =     -36.86712554 Ry
     estimated scf accuracy    <       0.00006718 Ry

     iteration #  4     ecut=    45.00 Ry     beta= 0.70
     Davidson diagonalization with overlap

---- Real-time Memory Report at c_bands before calling an iterative solver
           138 MiB given to the printing process from OS
            28 MiB allocation reported by mallinfo(arena+hblkhd)
        290229 MiB available memory on the node where the printing process lives
------------------
     ethr =  8.40E-07,  avg # of iterations =  2.3

     total cpu time spent up to now is        0.4 secs

     total energy              =     -36.86713142 Ry
     estimated scf accuracy    <       0.00001033 Ry

     iteration #  5     ecut=    45.00 Ry     beta= 0.70
     Davidson diagonalization with overlap

---- Real-time Memory Report at c_bands before calling an iterative solver
           140 MiB given to the printing process from OS
            28 MiB allocation reported by mallinfo(arena+hblkhd)
        290228 MiB available memory on the node where the printing process lives
------------------
     ethr =  1.29E-07,  avg # of iterations =  1.0

     total cpu time spent up to now is        0.5 secs

     total energy              =     -36.86713353 Ry
     estimated scf accuracy    <       0.00000017 Ry

     iteration #  6     ecut=    45.00 Ry     beta= 0.70
     Davidson diagonalization with overlap

---- Real-time Memory Report at c_bands before calling an iterative solver
           142 MiB given to the printing process from OS
            28 MiB allocation reported by mallinfo(arena+hblkhd)
        290227 MiB available memory on the node where the printing process lives
------------------
     ethr =  2.10E-09,  avg # of iterations =  2.0

     total cpu time spent up to now is        0.5 secs

     End of self-consistent calculation

          k = 0.0000 0.0000 0.0000 (   387 PWs)   bands (ev):

    -8.1478  13.2487  13.2487  13.3126  18.8226  18.8791  18.8791  26.4966

     occupation numbers 
     1.0000   1.0000   1.0000   1.0000   0.0000   0.0000   0.0000   0.0000

          k =-0.0884 0.0884-0.0884 (   381 PWs)   bands (ev):

    -7.7170  10.8549  12.6005  12.6511  19.6846  19.7355  20.1417  26.8729

     occupation numbers 
     1.0000   1.0000   1.0000   1.0000   0.0000   0.0000   0.0000   0.0000

          k =-0.1768 0.1768-0.1768 (   386 PWs)   bands (ev):

    -6.4386   6.6937  11.5109  11.5569  21.0191  21.0814  21.3887  27.8353

     occupation numbers 
     1.0000   1.0000   1.0000   1.0000   0.0000   0.0000   0.0000   0.0000

          k =-0.2652 0.2652-0.2652 (   395 PWs)   bands (ev):

    -4.3806   2.6255  10.7302  10.7752  21.6148  21.6892  21.9250  28.6921

     occupation numbers 
     1.0000   1.0000   1.0000   1.0000   0.0000   0.0000   0.0000   0.0000

          k = 0.3536-0.3536 0.3536 (   392 PWs)   bands (ev):

    -2.3969  -0.0619  10.4581  10.5031  21.6904  21.7681  22.0701  28.9370

     occupation numbers 
     1.0000   1.0000   1.0000   1.0000   0.0000   0.0000   0.0000   0.0000

          k = 0.0000 0.1768 0.0000 (   383 PWs)   bands (ev):

    -7.5737  11.5398  11.5647  11.9460  18.4509  21.0529  21.0756  26.5042

     occupation numbers 
     1.0000   1.0000   1.0000   1.0000   0.0000   0.0000   0.0000   0.0000

          k =-0.0884 0.2652-0.0884 (   384 PWs)   bands (ev):

    -6.5781   8.1925  10.4176  11.2371  19.1083  22.5931  22.6644  26.0859

     occupation numbers 
     1.0000   1.0000   1.0000   1.0000   0.0000   0.0000   0.0000   0.0000

          k =-0.1768 0.3536-0.1768 (   390 PWs)   bands (ev):

    -4.7730   4.1789   9.7701  10.0747  20.2798  23.3121  23.3324  26.7140

     occupation numbers 
     1.0000   1.0000   1.0000   1.0000   0.0000   0.0000   0.0000   0.0000

          k = 0.4419-0.2652 0.4419 (   391 PWs)   bands (ev):

    -2.4512   0.7528   9.1247   9.7700  20.8928  23.0602  23.5140  28.4099

     occupation numbers 
     1.0000   1.0000   1.0000   1.0000   0.0000   0.0000   0.0000   0.0000

          k = 0.3536-0.1768 0.3536 (   392 PWs)   bands (ev):

    -3.2170   1.7517   8.6969  10.3842  21.4737  22.4120  23.4230  28.6138

     occupation numbers 
     1.0000   1.0000   1.0000   1.0000   0.0000   0.0000   0.0000   0.0000

          k = 0.2652-0.0884 0.2652 (   389 PWs)   bands (ev):

    -5.4601   5.5226   8.9154  11.4522  21.3623  21.9015  22.8686  27.3719

     occupation numbers 
     1.0000   1.0000   1.0000   1.0000   0.0000   0.0000   0.0000   0.0000

          k = 0.1768 0.0000 0.1768 (   381 PWs)   bands (ev):

    -7.0037   9.2822  10.0341  12.5335  19.9947  21.3331  21.4243  26.9864

     occupation numbers 
     1.0000   1.0000   1.0000   1.0000   0.0000   0.0000   0.0000   0.0000

          k = 0.0000 0.3536 0.0000 (   375 PWs)   bands (ev):

    -5.8711   8.7575   9.1561   9.1747  17.7163  23.5039  24.8170  24.8348

     occupation numbers 
     1.0000   1.0000   1.0000   1.0000   0.0000   0.0000   0.0000   0.0000

          k =-0.0884 0.4419-0.0884 (   397 PWs)   bands (ev):

    -4.3467   5.7682   8.0579   8.4455  18.4481  22.5988  26.1093  26.1487

     occupation numbers 
     1.0000   1.0000   1.0000   1.0000   0.0000   0.0000   0.0000   0.0000

          k = 0.5303-0.1768 0.5303 (   395 PWs)   bands (ev):

    -2.1479   2.5106   6.5460   8.4202  19.3589  24.6764  26.0328  26.5497

     occupation numbers 
     1.0000   1.0000   1.0000   1.0000   0.0000   0.0000   0.0000   0.0000

          k = 0.4419-0.0884 0.4419 (   394 PWs)   bands (ev):

    -1.4535   1.7117   5.5488   9.0921  20.1260  24.9999  26.4859  28.0138

     occupation numbers 
     1.0000   1.0000   1.0000   1.0000   0.0000   0.0000   0.0000   0.0000

          k = 0.3536 0.0000 0.3536 (   399 PWs)   bands (ev):

    -3.6962   4.5804   5.6923  10.2812  21.1990  23.2405  25.6061  27.1188

     occupation numbers 
     1.0000   1.0000   1.0000   1.0000   0.0000   0.0000   0.0000   0.0000

          k = 0.0000 0.5303 0.0000 (   387 PWs)   bands (ev):

    -3.1113   4.7008   7.5450   7.5596  17.4087  20.0050  28.3264  28.3485

     occupation numbers 
     1.0000   1.0000   1.0000   1.0000   0.0000   0.0000   0.0000   0.0000

          k = 0.6187-0.0884 0.6187 (   395 PWs)   bands (ev):

    -1.1564   2.6204   5.9498   7.3774  18.2561  20.2708  28.8513  29.1304

     occupation numbers 
     1.0000   1.0000   1.0000   1.0000   0.0000   0.0000   0.0000   0.0000

          k = 0.5303 0.0000 0.5303 (   391 PWs)   bands (ev):

     0.3223   1.5575   3.9889   7.9341  18.9595  23.9892  27.5731  28.8327

     occupation numbers 
     1.0000   1.0000   1.0000   1.0000   0.0000   0.0000   0.0000   0.0000

          k = 0.0000-0.7071 0.0000 (   388 PWs)   bands (ev):

     0.5292   0.5405   6.9879   7.0015  18.0306  18.0438  29.9948  30.0216

     occupation numbers 
     1.0000   1.0000   1.0000   1.0000   0.0000   0.0000   0.0000   0.0000

          k =-0.1768 0.3536 0.0000 (   393 PWs)   bands (ev):

    -5.3172   6.7861   7.7895  10.3782  19.8443  23.2841  24.8063  24.9934

     occupation numbers 
     1.0000   1.0000   1.0000   1.0000   0.0000   0.0000   0.0000   0.0000

          k = 0.4419-0.2652 0.6187 (   395 PWs)   bands (ev):

    -3.2995   3.4496   7.0247   9.1906  21.2384  22.8880  25.6141  26.5761

     occupation numbers 
     1.0000   1.0000   1.0000   1.0000   0.0000   0.0000   0.0000   0.0000

          k = 0.3536-0.1768 0.5303 (   394 PWs)   bands (ev):

    -1.3886   0.9413   6.9854   8.5944  21.5551  22.7165  26.2618  28.0996

     occupation numbers 
     1.0000   1.0000   1.0000   1.0000   0.0000   0.0000   0.0000   0.0000

          k = 0.5303-0.1768 0.7071 (   397 PWs)   bands (ev):

    -2.6051   4.2822   6.3035   7.3453  19.5951  21.8611  26.2209  28.3306

     occupation numbers 
     1.0000   1.0000   1.0000   1.0000   0.0000   0.0000   0.0000   0.0000

          k = 0.4419-0.0884 0.6187 (   393 PWs)   bands (ev):

    -0.4213   2.1259   4.8902   6.9492  20.8052  24.1495  25.7592  28.1317

     occupation numbers 
     1.0000   1.0000   1.0000   1.0000   0.0000   0.0000   0.0000   0.0000

          k = 0.3536 0.0000 0.5303 (   396 PWs)   bands (ev):

    -1.2082   2.8781   4.4363   7.8273  21.6453  24.0081  26.2864  27.7544

     occupation numbers 
     1.0000   1.0000   1.0000   1.0000   0.0000   0.0000   0.0000   0.0000

          k =-0.1768-0.7071 0.0000 (   392 PWs)   bands (ev):

     0.8633   0.8765   5.9779   5.9925  20.1340  20.1502  28.7637  28.7825

     occupation numbers 
     1.0000   1.0000   1.0000   1.0000   0.0000   0.0000   0.0000   0.0000

          k =-0.3536-0.7071 0.0000 (   396 PWs)   bands (ev):

     1.3098   1.3268   4.9751   4.9928  23.8658  23.9075  25.5307  25.5467

     occupation numbers 
     1.0000   1.0000   1.0000   1.0000   0.0000   0.0000   0.0000   0.0000

          k =-0.0884 0.0884 0.0884 (   381 PWs)   bands (ev):

    -7.7170  10.8883  12.6052  12.6052  19.7252  19.7252  20.1146  26.8683

     occupation numbers 
     1.0000   1.0000   1.0000   1.0000   0.0000   0.0000   0.0000   0.0000

          k =-0.1768 0.1768 0.1768 (   386 PWs)   bands (ev):

    -6.4386   6.7133  11.5217  11.5217  21.0507  21.0507  21.3762  27.8187

     occupation numbers 
     1.0000   1.0000   1.0000   1.0000   0.0000   0.0000   0.0000   0.0000

          k =-0.2652 0.2652 0.2652 (   395 PWs)   bands (ev):

    -4.3817   2.6408  10.7446  10.7446  21.6435  21.6435  21.9182  28.6627

     occupation numbers 
     1.0000   1.0000   1.0000   1.0000   0.0000   0.0000   0.0000   0.0000

          k = 0.3536-0.3536-0.3536 (   392 PWs)   bands (ev):

    -2.4067  -0.0394  10.4737  10.4737  21.7182  21.7182  22.0651  28.9036

     occupation numbers 
     1.0000   1.0000   1.0000   1.0000   0.0000   0.0000   0.0000   0.0000

          k =-0.2652-0.0884-0.0884 (   384 PWs)   bands (ev):

    -6.5781   8.1877  10.3934  11.2715  19.0966  22.5710  22.6953  26.0923

     occupation numbers 
     1.0000   1.0000   1.0000   1.0000   0.0000   0.0000   0.0000   0.0000

          k =-0.0884 0.2652 0.0884 (   384 PWs)   bands (ev):

    -6.5781   8.2154  10.3986  11.2294  19.1086  22.5777  22.6755  26.0813

     occupation numbers 
     1.0000   1.0000   1.0000   1.0000   0.0000   0.0000   0.0000   0.0000

          k =-0.3536-0.1768-0.1768 (   390 PWs)   bands (ev):

    -4.7729   4.1764   9.7458  10.1048  20.2578  23.2895  23.3750  26.7302

     occupation numbers 
     1.0000   1.0000   1.0000   1.0000   0.0000   0.0000   0.0000   0.0000

          k =-0.1768 0.3536 0.1768 (   390 PWs)   bands (ev):

    -4.7735   4.1949   9.7546  10.0727  20.2686  23.3003  23.3380  26.7080

     occupation numbers 
     1.0000   1.0000   1.0000   1.0000   0.0000   0.0000   0.0000   0.0000

          k = 0.2652 0.4419 0.4419 (   391 PWs)   bands (ev):

    -2.4510   0.7519   9.1526   9.7422  20.8678  23.1105  23.4916  28.4234

     occupation numbers 
     1.0000   1.0000   1.0000   1.0000   0.0000   0.0000   0.0000   0.0000

          k = 0.4419-0.2652-0.4419 (   391 PWs)   bands (ev):

    -2.4573   0.7722   9.1266   9.7529  20.8760  23.0676  23.5021  28.3875

     occupation numbers 
     1.0000   1.0000   1.0000   1.0000   0.0000   0.0000   0.0000   0.0000

          k = 0.1768 0.3536 0.3536 (   392 PWs)   bands (ev):

    -3.2172   1.7527   8.7213  10.3537  21.4543  22.4634  23.3955  28.6143

     occupation numbers 
     1.0000   1.0000   1.0000   1.0000   0.0000   0.0000   0.0000   0.0000

          k = 0.3536-0.1768-0.3536 (   392 PWs)   bands (ev):

    -3.2198   1.7687   8.6984  10.3643  21.4585  22.4244  23.4068  28.5839

     occupation numbers 
     1.0000   1.0000   1.0000   1.0000   0.0000   0.0000   0.0000   0.0000

          k = 0.0884 0.2652 0.2652 (   389 PWs)   bands (ev):

    -5.4602   5.5261   8.9362  11.4184  21.4119  21.8913  22.8291  27.3719

     occupation numbers 
     1.0000   1.0000   1.0000   1.0000   0.0000   0.0000   0.0000   0.0000

          k = 0.2652-0.0884-0.2652 (   389 PWs)   bands (ev):

    -5.4603   5.5423   8.9141  11.4257  21.3892  21.8906  22.8401  27.3598

     occupation numbers 
     1.0000   1.0000   1.0000   1.0000   0.0000   0.0000   0.0000   0.0000

          k = 0.0000 0.1768 0.1768 (   381 PWs)   bands (ev):

    -7.0037   9.3096  10.0317  12.4966  20.0327  21.2961  21.4268  26.9803

     occupation numbers 
     1.0000   1.0000   1.0000   1.0000   0.0000   0.0000   0.0000   0.0000

          k =-0.4419-0.0884-0.0884 (   397 PWs)   bands (ev):

    -4.3466   5.7572   8.0893   8.4271  18.4375  22.6071  26.1297  26.1405

     occupation numbers 
     1.0000   1.0000   1.0000   1.0000   0.0000   0.0000   0.0000   0.0000

          k =-0.0884 0.4419 0.0884 (   397 PWs)   bands (ev):

    -4.3469   5.7856   8.0539   8.4302  18.4451  22.6013  26.1200  26.1333

     occupation numbers 
     1.0000   1.0000   1.0000   1.0000   0.0000   0.0000   0.0000   0.0000

          k = 0.1768 0.5303 0.5303 (   395 PWs)   bands (ev):

    -2.1475   2.5051   6.5699   8.4009  19.3408  24.6894  26.0737  26.5384

     occupation numbers 
     1.0000   1.0000   1.0000   1.0000   0.0000   0.0000   0.0000   0.0000

          k = 0.5303-0.1768-0.5303 (   395 PWs)   bands (ev):

    -2.1510   2.5281   6.5441   8.4052  19.3464  24.6831  26.0449  26.5372

     occupation numbers 
     1.0000   1.0000   1.0000   1.0000   0.0000   0.0000   0.0000   0.0000

          k = 0.0884 0.4419 0.4419 (   394 PWs)   bands (ev):

    -1.4550   1.7134   5.5660   9.0707  20.1089  25.0427  26.4551  28.0407

     occupation numbers 
     1.0000   1.0000   1.0000   1.0000   0.0000   0.0000   0.0000   0.0000

          k = 0.4419-0.0884-0.4419 (   394 PWs)   bands (ev):

    -1.4604   1.7339   5.5471   9.0744  20.1110  25.0212  26.4784  27.9862

     occupation numbers 
     1.0000   1.0000   1.0000   1.0000   0.0000   0.0000   0.0000   0.0000

          k = 0.0000 0.3536 0.3536 (   399 PWs)   bands (ev):

    -3.6969   4.5990   5.6914  10.2570  21.1848  23.2752  25.5679  27.1237

     occupation numbers 
     1.0000   1.0000   1.0000   1.0000   0.0000   0.0000   0.0000   0.0000

          k = 0.0884 0.6187 0.6187 (   395 PWs)   bands (ev):

    -1.1559   2.6154   5.9692   7.3625  18.2425  20.2842  28.8831  29.1101

     occupation numbers 
     1.0000   1.0000   1.0000   1.0000   0.0000   0.0000   0.0000   0.0000

          k = 0.6187-0.0884-0.6187 (   395 PWs)   bands (ev):

    -1.1579   2.6259   5.9586   7.3635  18.2469  20.2799  28.8727  29.1125

     occupation numbers 
     1.0000   1.0000   1.0000   1.0000   0.0000   0.0000   0.0000   0.0000

          k = 0.0000 0.5303 0.5303 (   391 PWs)   bands (ev):

     0.3116   1.5707   4.0001   7.9181  18.9450  24.0007  27.6041  28.8260

     occupation numbers 
     1.0000   1.0000   1.0000   1.0000   0.0000   0.0000   0.0000   0.0000

          k = 0.3536 0.1768 0.0000 (   393 PWs)   bands (ev):

    -5.3171   6.7632   7.7915  10.4064  19.8312  23.2969  24.8185  24.9903

     occupation numbers 
     1.0000   1.0000   1.0000   1.0000   0.0000   0.0000   0.0000   0.0000

          k =-0.2652-0.4419 0.6187 (   395 PWs)   bands (ev):

    -3.2991   3.4473   7.0019   9.2203  21.2423  22.8781  25.6243  26.5729

     occupation numbers 
     1.0000   1.0000   1.0000   1.0000   0.0000   0.0000   0.0000   0.0000

          k = 0.2652 0.4419 0.6187 (   395 PWs)   bands (ev):

    -3.2990   3.4443   7.0138   9.2108  21.2122  22.9147  25.5963  26.6102

     occupation numbers 
     1.0000   1.0000   1.0000   1.0000   0.0000   0.0000   0.0000   0.0000

          k = 0.6187-0.2652-0.4419 (   395 PWs)   bands (ev):

    -3.3005   3.4650   7.0057   9.1952  21.2308  22.8801  25.6298  26.5613

     occupation numbers 
     1.0000   1.0000   1.0000   1.0000   0.0000   0.0000   0.0000   0.0000

          k =-0.1768-0.3536 0.5303 (   394 PWs)   bands (ev):

    -1.3884   0.9420   6.9601   8.6214  21.6076  22.6548  26.2753  28.0830

     occupation numbers 
     1.0000   1.0000   1.0000   1.0000   0.0000   0.0000   0.0000   0.0000

          k = 0.5303-0.1768-0.3536 (   394 PWs)   bands (ev):

    -1.3990   0.9665   6.9696   8.5940  21.5657  22.6867  26.2763  28.0611

     occupation numbers 
     1.0000   1.0000   1.0000   1.0000   0.0000   0.0000   0.0000   0.0000

          k =-0.1768-0.5303 0.7071 (   397 PWs)   bands (ev):

    -2.6042   4.2662   6.3041   7.3627  19.5865  21.8710  26.2214  28.3405

     occupation numbers 
     1.0000   1.0000   1.0000   1.0000   0.0000   0.0000   0.0000   0.0000

          k =-0.0884-0.4419 0.6187 (   393 PWs)   bands (ev):

    -0.4197   2.1238   4.8797   6.9615  20.8075  24.1468  25.7554  28.1457

     occupation numbers 
     1.0000   1.0000   1.0000   1.0000   0.0000   0.0000   0.0000   0.0000

          k = 0.0884 0.4419 0.6187 (   393 PWs)   bands (ev):

    -0.4201   2.1189   4.9052   6.9399  20.7871  24.1776  25.7544  28.1459

     occupation numbers 
     1.0000   1.0000   1.0000   1.0000   0.0000   0.0000   0.0000   0.0000

          k = 0.6187-0.0884-0.4419 (   393 PWs)   bands (ev):

    -0.4278   2.1450   4.8853   6.9403  20.7929  24.1554  25.7635  28.1416

     occupation numbers 
     1.0000   1.0000   1.0000   1.0000   0.0000   0.0000   0.0000   0.0000

          k =-0.0000 0.3536 0.5303 (   396 PWs)   bands (ev):

    -1.2117   2.8941   4.4392   7.8087  21.6262  24.0273  26.2909  27.7408

     occupation numbers 
     1.0000   1.0000   1.0000   1.0000   0.0000   0.0000   0.0000   0.0000

     highest occupied, lowest unoccupied level (ev):    13.31256857   17.40870344

!    total energy              =     -36.86713357 Ry
     total all-electron energy =      -152.395328 Ry
     estimated scf accuracy    <          7.5E-09 Ry

     The total energy is the sum of the following terms:
     one-electron contribution =       8.41687095 Ry
     hartree contribution      =       1.94514176 Ry
     xc contribution           =      -9.36840608 Ry
     ewald contribution        =     -25.53554064 Ry
     one-center paw contrib.   =     -12.32519956 Ry
      -> PAW hartree energy AE =       8.96679146 Ry
      -> PAW hartree energy PS =      -8.95863484 Ry
      -> PAW xc energy AE      =     -10.54089196 Ry
      -> PAW xc energy PS      =       4.37013388 Ry
      -> total E_H with PAW    =       1.95329839 Ry
      -> total E_XC with PAW   =     -15.53916416 Ry

     convergence has been achieved in   6 iterations

     Forces acting on atoms (cartesian axes, Ry/au):

     atom    1 type  1   force =    -0.00197411    0.00197411    0.00197411
     atom    2 type  1   force =     0.00197411   -0.00197411   -0.00197411
     The non-local contrib.  to forces
     atom    1 type  1   force =    -0.00168402    0.00168402    0.00168402
     atom    2 type  1   force =     0.00168793   -0.00168793   -0.00168793
     The ionic contribution  to forces
     atom    1 type  1   force =    -0.00454489    0.00454489    0.00454489
     atom    2 type  1   force =     0.00454489   -0.00454489   -0.00454489
     The local contribution  to forces
     atom    1 type  1   force =     0.00421160   -0.00421160   -0.00421160
     atom    2 type  1   force =    -0.00421497    0.00421497    0.00421497
     The core correction contribution to forces
     atom    1 type  1   force =     0.00003965   -0.00003965   -0.00003965
     atom    2 type  1   force =    -0.00004701    0.00004701    0.00004701
     The Hubbard contrib.    to forces
     atom    1 type  1   force =     0.00000000    0.00000000    0.00000000
     atom    2 type  1   force =     0.00000000    0.00000000    0.00000000
     The SCF correction term to forces
     atom    1 type  1   force =     0.00000021   -0.00000021   -0.00000021
     atom    2 type  1   force =    -0.00000008    0.00000008    0.00000008

     Total force =     0.004836     Total SCF correction =     0.000000


     Computing stress (Cartesian axis) and pressure

          total   stress  (Ry/bohr**3)                   (kbar)     P=        0.10
   0.00000066   0.00000346   0.00000346            0.10        0.51        0.51
   0.00000346   0.00000066  -0.00000346            0.51        0.10       -0.51
   0.00000346  -0.00000346   0.00000066            0.51       -0.51        0.10

     kinetic stress (kbar)  18958.36     -5.40     -5.40
                               -5.40  18958.36      5.40
                               -5.40      5.40  18958.36

     local   stress (kbar)  -3435.88    -36.35    -36.35
                              -36.35  -3435.88     36.35
                              -36.35     36.35  -3435.88

     nonloc. stress (kbar)   4239.95      1.25      1.25
                                1.25   4239.95     -1.25
                                1.25     -1.25   4239.95

     hartree stress (kbar)   1240.26      5.52      5.52
                                5.52   1240.26     -5.52
                                5.52     -5.52   1240.26

     exc-cor stress (kbar)   -438.95      0.19      0.19
                                0.19   -438.95     -0.19
                                0.19     -0.19   -438.95

     corecor stress (kbar)  -4281.73     -0.14     -0.14
                               -0.14  -4281.73      0.14
                               -0.14      0.14  -4281.73

     ewald   stress (kbar) -16281.92     35.45     35.45
                               35.45 -16281.92    -35.45
                               35.45    -35.45 -16281.92

     hubbard stress (kbar)      0.00      0.00      0.00
                                0.00      0.00      0.00
                                0.00      0.00      0.00

     DFT-D   stress (kbar)      0.00      0.00      0.00
                                0.00      0.00      0.00
                                0.00      0.00      0.00

     XDM     stress (kbar)      0.00      0.00      0.00
                                0.00      0.00      0.00
                                0.00      0.00      0.00

     dft-nl  stress (kbar)      0.00      0.00      0.00
                                0.00      0.00      0.00
                                0.00      0.00      0.00

     TS-vdW  stress (kbar)      0.00      0.00      0.00
                                0.00      0.00      0.00
                                0.00      0.00      0.00

     MDB     stress (kbar)      0.00      0.00      0.00
                                0.00      0.00      0.00
                                0.00      0.00      0.00

     3D-RISM stress (kbar)      0.00      0.00      0.00
                                0.00      0.00      0.00
                                0.00      0.00      0.00


     Writing all to output data dir ../tmp/diamond.save/ :
     XML data file, charge density, pseudopotentials, collected wavefunctions
 
     init_run     :      0.04s CPU      0.07s WALL (       1 calls)
     electrons    :      0.33s CPU      0.41s WALL (       1 calls)
     forces       :      0.00s CPU      0.01s WALL (       1 calls)
     stress       :      0.01s CPU      0.01s WALL (       1 calls)

     Called by init_run:
     wfcinit      :      0.01s CPU      0.02s WALL (       1 calls)
     wfcinit:wfcr :      0.01s CPU      0.02s WALL (      22 calls)
     potinit      :      0.01s CPU      0.01s WALL (       1 calls)
     hinit0       :      0.01s CPU      0.01s WALL (       1 calls)

     Called by electrons:
     c_bands      :      0.25s CPU      0.29s WALL (       6 calls)
     sum_band     :      0.04s CPU      0.04s WALL (       6 calls)
     v_of_rho     :      0.00s CPU      0.01s WALL (       7 calls)
     v_h          :      0.00s CPU      0.00s WALL (       7 calls)
     v_xc         :      0.01s CPU      0.01s WALL (       9 calls)
     newd         :      0.00s CPU      0.00s WALL (       7 calls)
     PAW_pot      :      0.05s CPU      0.06s WALL (       7 calls)
     mix_rho      :      0.00s CPU      0.00s WALL (       6 calls)

     Called by c_bands:
     init_us_2    :      0.00s CPU      0.00s WALL (     330 calls)
     cegterg      :      0.22s CPU      0.26s WALL (     132 calls)

     Called by sum_band:
     sum_band:wei :      0.00s CPU      0.00s WALL (       6 calls)
     sum_band:loo :      0.03s CPU      0.03s WALL (       6 calls)
     sum_band:buf :      0.00s CPU      0.00s WALL (     132 calls)
     sum_band:ini :      0.00s CPU      0.00s WALL (     132 calls)
     sum_band:cal :      0.00s CPU      0.00s WALL (     132 calls)
     sum_band:bec :      0.00s CPU      0.00s WALL (     132 calls)
     addusdens    :      0.00s CPU      0.00s WALL (       6 calls)
                                        0.00s GPU  (       6 calls)
     addusd:skk   :      0.00s CPU      0.00s WALL (       6 calls)
                                        0.00s GPU  (       6 calls)

     Called by *egterg:
     cdiaghg      :      0.05s CPU      0.05s WALL (     474 calls)
     cegterg:over :      0.01s CPU      0.01s WALL (     342 calls)
     cegterg:upda :      0.00s CPU      0.00s WALL (     342 calls)
     cegterg:last :      0.00s CPU      0.00s WALL (     300 calls)
     h_psi        :      0.15s CPU      0.18s WALL (     496 calls)
     s_psi        :      0.00s CPU      0.00s WALL (     496 calls)
     g_psi        :      0.00s CPU      0.00s WALL (     342 calls)

     Called by h_psi:
     h_psi:calbec :      0.01s CPU      0.01s WALL (     496 calls)
     vloc_psi     :      0.14s CPU      0.16s WALL (     496 calls)
     add_vuspsi   :      0.00s CPU      0.00s WALL (     496 calls)

     General routines
     calbec       :      0.01s CPU      0.02s WALL (    1002 calls)
     fft          :      0.01s CPU      0.01s WALL (     102 calls)
     ffts         :      0.00s CPU      0.00s WALL (       6 calls)
     fftw         :      0.14s CPU      0.16s WALL (    7616 calls)
 
     Parallel routines

     PAW routines
     PAW_pot      :      0.05s CPU      0.06s WALL (       7 calls)
     PAW_symme    :      0.00s CPU      0.00s WALL (      13 calls)
 
     PWSCF        :      0.46s CPU      0.68s WALL

 
   This run was terminated on:   0:44: 8  27Jul2026            

=------------------------------------------------------------------------------=
   JOB DONE.
=------------------------------------------------------------------------------=
