C  N 
 1.0000000000000000
    10.7211360931000002    0.0000000000000000    0.0000000000000000
     0.0000000000000000   10.7211360931000002    0.0000000000000000
     0.0000000000000000    0.0000000000000000   10.7211360931000002
 C   N  
 214   1
Direct
  0.0832436411842403  0.0834278002426544  0.0834230248157573
  0.0835558650823938  0.0833596032092821  0.4167788454711040
  0.0828121956503310  0.0833532528980663  0.7499982586651810
  0.0836456017589962  0.4168178774659998  0.0830210642410014
  0.0833212130941438  0.4168944834547759  0.4166931144004868
  0.0828976638438197  0.4166531100480094  0.7498661551199339
  0.0834490725965121  0.7500339804434086  0.0832175934034855
  0.0836378294835230  0.7501407434751100  0.4165263760984362
  0.0835150486367987  0.7498541542901733  0.7497865264018634
  0.4166684083348202  0.0833532528980663  0.0838544703496666
  0.4167928871692873  0.0835200087979362  0.4171488972703699
  0.4161594695168958  0.0825340600762829  0.7505071974831057
  0.4168005118800674  0.4166531100480094  0.0837690021561779
  0.4184594238988563  0.4175349902055405  0.4184384739198254
  0.4152961791467182  0.4158666601674222  0.7513704878532809
  0.4168801405981380  0.7498541542901733  0.0831516173631989
  0.4163093797470342  0.7505508628424109  0.4168673813836284
  0.4172107776463551  0.7490969910084653  0.7494558893536463
  0.7498878215288971  0.0833596032092821  0.0831108009176038
  0.7499364628995970  0.0837433905151299  0.4167302041004044
  0.7495177697296315  0.0835200087979362  0.7498737798307139
  0.7499735525995146  0.4168944834547759  0.0833454529058538
  0.7566890541286478  0.4119160779807582  0.4099776128713533
  0.7482281930801759  0.4175349902055405  0.7482072431011453
  0.7501402909015654  0.7501407434751100  0.0830288365164746
  0.7500721278555585  0.7496843224111024  0.4165945391444428
  0.7497992856163731  0.7505508628424109  0.7503572872529671
  0.2500199198980675  0.2500017413348190  0.0838544703496666
  0.2501866757979374  0.2501262201692860  0.4171488972703699
  0.2492007270762841  0.2494928025168946  0.7505071974831057
  0.2500262702092833  0.5832211545288958  0.0831108009176038
  0.2504100575151311  0.5832697958995958  0.4167302041004044
  0.2501866757979374  0.5828511027296301  0.7498737798307139
  0.2500944672426555  0.9165769751842429  0.0834230248157573
  0.2500262702092833  0.9168891990823962  0.4167788454711040
  0.2500199198980675  0.9161455296503332  0.7499982586651810
  0.5833197760480071  0.2501338448800662  0.0837690021561779
  0.5842016562055381  0.2517927568988550  0.4184384739198254
  0.5825333261674197  0.2486295121467172  0.7513704878532809
  0.5835611494547734  0.5833068855995134  0.0833454529058538
  0.5785827439807558  0.5900223871286466  0.4099776128713533
  0.5842016562055381  0.5815615260801745  0.7482072431011453
  0.5834845434659974  0.9169789357589985  0.0830210642410014
  0.5835611494547734  0.9166545470941462  0.4166931144004868
  0.5833197760480071  0.9162309978438220  0.7498661551199339
  0.9165208212901745  0.2502134735981367  0.0831516173631989
  0.9172175298424121  0.2496427127470330  0.4168673813836284
  0.9157636580084666  0.2505441106463538  0.7494558893536463
  0.9168074104751112  0.5834736239015640  0.0830288365164746
  0.9163509894111036  0.5834054608555572  0.4165945391444428
  0.9172175298424121  0.5831326186163719  0.7503572872529671
  0.9167006474434098  0.9167824065965147  0.0832175934034855
  0.9168074104751112  0.9169711634835254  0.4165263760984362
  0.9165208212901745  0.9168483826368012  0.7497865264018634
  0.2501995386070022  0.0835328716070010  0.2503015896074222
  0.2496047215508305  0.0829380545508294  0.5836090967943568
  0.2496848120708231  0.0830181450708219  0.9169818549291781
  0.2506004442248692  0.4168837882876464  0.2505948506431174
  0.2498519885190421  0.4164364930601341  0.5835635069398660
  0.2496047215508305  0.4163909032056432  0.9170619454491709
  0.2502287027654072  0.7500530180139163  0.2499469819860836
  0.2506004442248692  0.7494051493568826  0.5831162117123517
  0.2501995386070022  0.7496984103925779  0.9164671283929989
  0.5835504542876458  0.0839337772248680  0.2505948506431174
  0.5831031590601317  0.0831853215190410  0.5835635069398660
  0.5830575692056408  0.0829380545508294  0.9170619454491709
  0.5840821753599061  0.4174155093599087  0.2510279219410957
  0.5831031590601317  0.4164364930601341  0.9168146784809588
  0.5839543113631630  0.7511129832652880  0.2488870167347122
  0.5840821753599061  0.7489720780589042  0.5825844906400914
  0.5835504542876458  0.7494051493568826  0.9160662227751321
  0.9167196850139175  0.0835620357654060  0.2499469819860836
  0.9160718163568838  0.0839337772248680  0.5831162117123517
  0.9163650773925791  0.0835328716070010  0.9164671283929989
  0.9177796502652892  0.4172876453631653  0.2488870167347122
  0.9156387450589054  0.4174155093599087  0.5825844906400914
  0.9160718163568838  0.4168837882876464  0.9160662227751321
  0.9167423802966221  0.7500757132966209  0.2499242867033791
  0.9177796502652892  0.7511129832652880  0.5827123546368347
  0.9167196850139175  0.7500530180139163  0.9164379642345944
  0.0835150486367987  0.2502134735981367  0.2501458457098267
  0.0828976638438197  0.2501338448800662  0.5833468899519905
  0.0828121956503310  0.2500017413348190  0.9166467471019335
  0.0836378294835229  0.5834736239015640  0.2498592565248900
  0.0833212130941438  0.5833068855995134  0.5831055165452241
  0.0835558650823938  0.5832211545288958  0.9166403967907183
  0.0834490725965121  0.9167824065965147  0.2499660195565916
  0.0836456017589962  0.9169789357589985  0.5831821225340001
  0.0832436411842403  0.9165769751842429  0.9165721997573456
  0.4172107776463551  0.2505441106463538  0.2509030089915347
  0.4152961791467182  0.2486295121467172  0.5841333398325779
  0.4161594695168958  0.2494928025168946  0.9174659399237174
  0.4163093797470342  0.5831326186163719  0.2494491371575891
  0.4184594238988563  0.5815615260801745  0.5824650097944595
  0.4167928871692873  0.5828511027296301  0.9164799912020636
  0.4168801405981380  0.9168483826368012  0.2501458457098267
  0.4168005118800674  0.9162309978438220  0.5833468899519905
  0.4166684083348202  0.9161455296503332  0.9166467471019335
  0.7497992856163731  0.2496427127470330  0.2494491371575891
  0.7482281930801759  0.2517927568988550  0.5824650097944595
  0.7495177697296315  0.2501262201692860  0.9164799912020636
  0.7500721278555585  0.5834054608555572  0.2503156775888978
  0.7566890541286478  0.5900223871286466  0.5880839220192418
  0.7499364628995970  0.5832697958995958  0.9162566094848701
  0.7501402909015654  0.9169711634835254  0.2498592565248900
  0.7499735525995146  0.9166545470941462  0.5831055165452241
  0.7498878215288971  0.9168891990823962  0.9166403967907183
  0.9999051796557467  0.0001183292167131  0.9998816707832870
  0.0001182749729147  0.0002248159140692  0.3332283111460806
  0.9996363287840178  0.0002989402273820  0.6665758880096014
  0.9996363287840178  0.3334241119903987  0.9997010597726180
  0.0001530878380942  0.3336119531612516  0.3332293738615552
  0.9990656479576766  0.3339146885553729  0.6660853114446268
  0.0001182749729147  0.6667716888539194  0.9997751840859308
  0.9999719082068914  0.6666194731678093  0.3333805268321906
  0.0001530878380942  0.6667706261384450  0.6663880468387485
  0.3333194054477523  0.9997660166069955  0.0002339833930045
  0.3335614973734735  0.0002057486327723  0.3335167566804187
  0.3331756189140393  0.9994139391264611  0.6668650443358710
  0.3331756189140393  0.3331349556641289  0.0005860608735392
  0.3345051268703064  0.3337092018401805  0.3346178888954773
  0.3323652890589229  0.3326150940326809  0.6673849059673189
  0.3335614973734735  0.6664832433195813  0.9997942513672277
  0.3336005865814423  0.6667034929298534  0.3332965070701466
  0.3345051268703064  0.6653821111045228  0.6662907981598193
  0.6666220139484738  0.0000607348309738  0.9999392651690262
  0.6667778178337493  0.0003002469644690  0.3335066489916710
  0.6665186349119320  0.9998400368016644  0.6665601287274245
  0.6665186349119320  0.3334398712725756  0.0001599631983356
  0.6679669067220931  0.3351217279140398  0.3346354437710709
  0.6626525465776695  0.3336019130566832  0.6663980869433169
  0.6667778178337493  0.6664933510083291  0.9996997530355314
  0.6662137736891438  0.6664735727845180  0.3335264272154824
  0.6679669067220931  0.6653645562289292  0.6648782720859603
  0.1664326836069966  0.1666527394477546  0.0002339833930045
  0.1668724156327736  0.1668948313734761  0.3335167566804187
  0.1660806061264621  0.1665089529140418  0.6668650443358710
  0.1667274018309750  0.4999553469484724  0.9999392651690262
  0.1669669139644701  0.5001111508337461  0.3335066489916710
  0.1665067038016656  0.4998519679119308  0.6665601287274245
  0.1667849962167143  0.8332385126557454  0.9998816707832870
  0.1668914829140705  0.8334516079729135  0.3332283111460806
  0.1669656072273832  0.8329696617840165  0.6665758880096014
  0.4998016226641304  0.1665089529140418  0.0005860608735392
  0.5003758688401819  0.1678384608703087  0.3346178888954773
  0.4992817610326822  0.1656986230589252  0.6673849059673189
  0.5001065382725767  0.4998519679119308  0.0001599631983356
  0.5017883949140409  0.5013002397220918  0.3346354437710709
  0.5002685800566844  0.4959858795776682  0.6663980869433169
  0.5000907789903998  0.8329696617840165  0.9997010597726180
  0.5002786201612527  0.8334864208380932  0.3332293738615552
  0.5005813555553744  0.8323989809576754  0.6660853114446268
  0.8331499093195790  0.1668948313734761  0.9997942513672277
  0.8333701589298509  0.1669339205814448  0.3332965070701466
  0.8320487771045204  0.1678384608703087  0.6662907981598193
  0.8331600170083268  0.5001111508337461  0.9996997530355314
  0.8331402387845155  0.4995471066891425  0.3335264272154824
  0.8320312222289268  0.5013002397220918  0.6648782720859603
  0.8334383548539169  0.8334516079729135  0.9997751840859308
  0.8332861391678069  0.8333052412068902  0.3333805268321906
  0.8334372921384425  0.8334864208380932  0.6663880468387485
  0.1667849962167143  0.0001183292167131  0.1667614873442544
  0.1667274018309750  0.0000607348309738  0.5000446530515276
  0.1664326836069966  0.9997660166069955  0.8333472605522455
  0.1669656072273832  0.3334241119903987  0.1670303382159835
  0.1665067038016656  0.3334398712725756  0.5001480320880692
  0.1660806061264621  0.3331349556641289  0.8334910470859581
  0.1668914829140705  0.6667716888539194  0.1665483920270864
  0.1669669139644701  0.6664933510083291  0.4998888491662539
  0.1668724156327736  0.6664832433195813  0.8331051686265238
  0.5000907789903998  0.0002989402273820  0.1670303382159835
  0.5001065382725767  0.9998400368016644  0.5001480320880692
  0.4998016226641304  0.9994139391264611  0.8334910470859581
  0.5005813555553744  0.3339146885553729  0.1676010190423249
  0.5002685800566844  0.3336019130566832  0.5040141204223317
  0.4992817610326822  0.3326150940326809  0.8343013769410749
  0.5002786201612527  0.6667706261384450  0.1665135791619070
  0.5017883949140409  0.6653645562289292  0.4986997602779082
  0.5003758688401819  0.6653821111045228  0.8321615391296912
  0.8334383548539169  0.0002248159140692  0.1665483920270864
  0.8331600170083268  0.0003002469644690  0.4998888491662539
  0.8331499093195790  0.0002057486327723  0.8331051686265238
  0.8334372921384425  0.3336119531612516  0.1665135791619070
  0.8320312222289268  0.3351217279140398  0.4986997602779082
  0.8320487771045204  0.3337092018401805  0.8321615391296912
  0.8332861391678069  0.6666194731678093  0.1666947587931099
  0.8331402387845155  0.6664735727845180  0.5004528933108575
  0.8333701589298509  0.6667034929298534  0.8330660794185553
  0.9999790182424922  0.1669488104185567  0.1666876487575092
  0.0001096403201560  0.1666004234230268  0.4998353049456754
  0.9993471936958457  0.1669170885248241  0.8330829114751759
  0.0007019462109897  0.5000963184971459  0.1659647207890116
  0.9995379920840322  0.5002835359699849  0.4997164640300151
  0.0001096403201560  0.5001646950543248  0.8333995765769733
  0.0000971070801125  0.8334304400801112  0.1665695599198886
  0.0007019462109897  0.8340352792109883  0.4999036815028540
  0.9999790182424922  0.8333123512424910  0.8330511895814435
  0.3335837545248218  0.1669170885248241  0.1673194733041554
  0.3327723605719840  0.1661056945719865  0.5005560828542954
  0.3328432406862906  0.1661765746862929  0.8338234253137070
  0.3332670894230243  0.5001646950543248  0.1665570266798453
  0.3339250212874678  0.4997768733764619  0.5002231266235380
  0.3327723605719840  0.4994439171457045  0.8338943054280138
  0.3336154764185542  0.8333123512424910  0.1666876487575092
  0.3332670894230243  0.8334429733201547  0.4998353049456754
  0.3335837545248218  0.8326805266958445  0.8330829114751759
  0.6668313620543260  0.1666004234230268  0.1665570266798453
  0.6664435403764633  0.1672583552874702  0.5002231266235380
  0.6661105841457059  0.1661056945719865  0.8338943054280138
  0.6669502029699861  0.5002835359699849  0.1671286749159691
  0.6664435403764633  0.4997768733764619  0.8327416447125299
  0.6667629854971471  0.8340352792109883  0.1659647207890116
  0.6669502029699861  0.8328713250840309  0.4997164640300151
  0.6668313620543260  0.8334429733201547  0.8333995765769733
  0.5759538903652048  0.4092872243652070  0.5907127756347927
Cartesian
  0.0000000000000000  0.0000000000000000  0.0000000000000000
  0.0000000000000000  0.0000000000000000  0.0000000000000000
  0.0000000000000000  0.0000000000000000  0.0000000000000000
  0.0000000000000000  0.0000000000000000  0.0000000000000000
  0.0000000000000000  0.0000000000000000  0.0000000000000000
  0.0000000000000000  0.0000000000000000  0.0000000000000000
  0.0000000000000000  0.0000000000000000  0.0000000000000000
  0.0000000000000000  0.0000000000000000  0.0000000000000000
  0.0000000000000000  0.0000000000000000  0.0000000000000000
  0.0000000000000000  0.0000000000000000  0.0000000000000000
  0.0000000000000000  0.0000000000000000  0.0000000000000000
  0.0000000000000000  0.0000000000000000  0.0000000000000000
  0.0000000000000000  0.0000000000000000  0.0000000000000000
  0.0000000000000000  0.0000000000000000  0.0000000000000000
  0.0000000000000000  0.0000000000000000  0.0000000000000000
  0.0000000000000000  0.0000000000000000  0.0000000000000000
  0.0000000000000000  0.0000000000000000  0.0000000000000000
  0.0000000000000000  0.0000000000000000  0.0000000000000000
  0.0000000000000000  0.0000000000000000  0.0000000000000000
  0.0000000000000000  0.0000000000000000  0.0000000000000000
  0.0000000000000000  0.0000000000000000  0.0000000000000000
  0.0000000000000000  0.0000000000000000  0.0000000000000000
  0.0000000000000000  0.0000000000000000  0.0000000000000000
  0.0000000000000000  0.0000000000000000  0.0000000000000000
  0.0000000000000000  0.0000000000000000  0.0000000000000000
  0.0000000000000000  0.0000000000000000  0.0000000000000000
  0.0000000000000000  0.0000000000000000  0.0000000000000000
  0.0000000000000000  0.0000000000000000  0.0000000000000000
  0.0000000000000000  0.0000000000000000  0.0000000000000000
  0.0000000000000000  0.0000000000000000  0.0000000000000000
  0.0000000000000000  0.0000000000000000  0.0000000000000000
  0.0000000000000000  0.0000000000000000  0.0000000000000000
  0.0000000000000000  0.0000000000000000  0.0000000000000000
  0.0000000000000000  0.0000000000000000  0.0000000000000000
  0.0000000000000000  0.0000000000000000  0.0000000000000000
  0.0000000000000000  0.0000000000000000  0.0000000000000000
  0.0000000000000000  0.0000000000000000  0.0000000000000000
  0.0000000000000000  0.0000000000000000  0.0000000000000000
  0.0000000000000000  0.0000000000000000  0.0000000000000000
  0.0000000000000000  0.0000000000000000  0.0000000000000000
  0.0000000000000000  0.0000000000000000  0.0000000000000000
  0.0000000000000000  0.0000000000000000  0.0000000000000000
  0.0000000000000000  0.0000000000000000  0.0000000000000000
  0.0000000000000000  0.0000000000000000  0.0000000000000000
  0.0000000000000000  0.0000000000000000  0.0000000000000000
  0.0000000000000000  0.0000000000000000  0.0000000000000000
  0.0000000000000000  0.0000000000000000  0.0000000000000000
  0.0000000000000000  0.0000000000000000  0.0000000000000000
  0.0000000000000000  0.0000000000000000  0.0000000000000000
  0.0000000000000000  0.0000000000000000  0.0000000000000000
  0.0000000000000000  0.0000000000000000  0.0000000000000000
  0.0000000000000000  0.0000000000000000  0.0000000000000000
  0.0000000000000000  0.0000000000000000  0.0000000000000000
  0.0000000000000000  0.0000000000000000  0.0000000000000000
  0.0000000000000000  0.0000000000000000  0.0000000000000000
  0.0000000000000000  0.0000000000000000  0.0000000000000000
  0.0000000000000000  0.0000000000000000  0.0000000000000000
  0.0000000000000000  0.0000000000000000  0.0000000000000000
  0.0000000000000000  0.0000000000000000  0.0000000000000000
  0.0000000000000000  0.0000000000000000  0.0000000000000000
  0.0000000000000000  0.0000000000000000  0.0000000000000000
  0.0000000000000000  0.0000000000000000  0.0000000000000000
  0.0000000000000000  0.0000000000000000  0.0000000000000000
  0.0000000000000000  0.0000000000000000  0.0000000000000000
  0.0000000000000000  0.0000000000000000  0.0000000000000000
  0.0000000000000000  0.0000000000000000  0.0000000000000000
  0.0000000000000000  0.0000000000000000  0.0000000000000000
  0.0000000000000000  0.0000000000000000  0.0000000000000000
  0.0000000000000000  0.0000000000000000  0.0000000000000000
  0.0000000000000000  0.0000000000000000  0.0000000000000000
  0.0000000000000000  0.0000000000000000  0.0000000000000000
  0.0000000000000000  0.0000000000000000  0.0000000000000000
  0.0000000000000000  0.0000000000000000  0.0000000000000000
  0.0000000000000000  0.0000000000000000  0.0000000000000000
  0.0000000000000000  0.0000000000000000  0.0000000000000000
  0.0000000000000000  0.0000000000000000  0.0000000000000000
  0.0000000000000000  0.0000000000000000  0.0000000000000000
  0.0000000000000000  0.0000000000000000  0.0000000000000000
  0.0000000000000000  0.0000000000000000  0.0000000000000000
  0.0000000000000000  0.0000000000000000  0.0000000000000000
  0.0000000000000000  0.0000000000000000  0.0000000000000000
  0.0000000000000000  0.0000000000000000  0.0000000000000000
  0.0000000000000000  0.0000000000000000  0.0000000000000000
  0.0000000000000000  0.0000000000000000  0.0000000000000000
  0.0000000000000000  0.0000000000000000  0.0000000000000000
  0.0000000000000000  0.0000000000000000  0.0000000000000000
  0.0000000000000000  0.0000000000000000  0.0000000000000000
  0.0000000000000000  0.0000000000000000  0.0000000000000000
  0.0000000000000000  0.0000000000000000  0.0000000000000000
  0.0000000000000000  0.0000000000000000  0.0000000000000000
  0.0000000000000000  0.0000000000000000  0.0000000000000000
  0.0000000000000000  0.0000000000000000  0.0000000000000000
  0.0000000000000000  0.0000000000000000  0.0000000000000000
  0.0000000000000000  0.0000000000000000  0.0000000000000000
  0.0000000000000000  0.0000000000000000  0.0000000000000000
  0.0000000000000000  0.0000000000000000  0.0000000000000000
  0.0000000000000000  0.0000000000000000  0.0000000000000000
  0.0000000000000000  0.0000000000000000  0.0000000000000000
  0.0000000000000000  0.0000000000000000  0.0000000000000000
  0.0000000000000000  0.0000000000000000  0.0000000000000000
  0.0000000000000000  0.0000000000000000  0.0000000000000000
  0.0000000000000000  0.0000000000000000  0.0000000000000000
  0.0000000000000000  0.0000000000000000  0.0000000000000000
  0.0000000000000000  0.0000000000000000  0.0000000000000000
  0.0000000000000000  0.0000000000000000  0.0000000000000000
  0.0000000000000000  0.0000000000000000  0.0000000000000000
  0.0000000000000000  0.0000000000000000  0.0000000000000000
  0.0000000000000000  0.0000000000000000  0.0000000000000000
  0.0000000000000000  0.0000000000000000  0.0000000000000000
  0.0000000000000000  0.0000000000000000  0.0000000000000000
  0.0000000000000000  0.0000000000000000  0.0000000000000000
  0.0000000000000000  0.0000000000000000  0.0000000000000000
  0.0000000000000000  0.0000000000000000  0.0000000000000000
  0.0000000000000000  0.0000000000000000  0.0000000000000000
  0.0000000000000000  0.0000000000000000  0.0000000000000000
  0.0000000000000000  0.0000000000000000  0.0000000000000000
  0.0000000000000000  0.0000000000000000  0.0000000000000000
  0.0000000000000000  0.0000000000000000  0.0000000000000000
  0.0000000000000000  0.0000000000000000  0.0000000000000000
  0.0000000000000000  0.0000000000000000  0.0000000000000000
  0.0000000000000000  0.0000000000000000  0.0000000000000000
  0.0000000000000000  0.0000000000000000  0.0000000000000000
  0.0000000000000000  0.0000000000000000  0.0000000000000000
  0.0000000000000000  0.0000000000000000  0.0000000000000000
  0.0000000000000000  0.0000000000000000  0.0000000000000000
  0.0000000000000000  0.0000000000000000  0.0000000000000000
  0.0000000000000000  0.0000000000000000  0.0000000000000000
  0.0000000000000000  0.0000000000000000  0.0000000000000000
  0.0000000000000000  0.0000000000000000  0.0000000000000000
  0.0000000000000000  0.0000000000000000  0.0000000000000000
  0.0000000000000000  0.0000000000000000  0.0000000000000000
  0.0000000000000000  0.0000000000000000  0.0000000000000000
  0.0000000000000000  0.0000000000000000  0.0000000000000000
  0.0000000000000000  0.0000000000000000  0.0000000000000000
  0.0000000000000000  0.0000000000000000  0.0000000000000000
  0.0000000000000000  0.0000000000000000  0.0000000000000000
  0.0000000000000000  0.0000000000000000  0.0000000000000000
  0.0000000000000000  0.0000000000000000  0.0000000000000000
  0.0000000000000000  0.0000000000000000  0.0000000000000000
  0.0000000000000000  0.0000000000000000  0.0000000000000000
  0.0000000000000000  0.0000000000000000  0.0000000000000000
  0.0000000000000000  0.0000000000000000  0.0000000000000000
  0.0000000000000000  0.0000000000000000  0.0000000000000000
  0.0000000000000000  0.0000000000000000  0.0000000000000000
  0.0000000000000000  0.0000000000000000  0.0000000000000000
  0.0000000000000000  0.0000000000000000  0.0000000000000000
  0.0000000000000000  0.0000000000000000  0.0000000000000000
  0.0000000000000000  0.0000000000000000  0.0000000000000000
  0.0000000000000000  0.0000000000000000  0.0000000000000000
  0.0000000000000000  0.0000000000000000  0.0000000000000000
  0.0000000000000000  0.0000000000000000  0.0000000000000000
  0.0000000000000000  0.0000000000000000  0.0000000000000000
  0.0000000000000000  0.0000000000000000  0.0000000000000000
  0.0000000000000000  0.0000000000000000  0.0000000000000000
  0.0000000000000000  0.0000000000000000  0.0000000000000000
  0.0000000000000000  0.0000000000000000  0.0000000000000000
  0.0000000000000000  0.0000000000000000  0.0000000000000000
  0.0000000000000000  0.0000000000000000  0.0000000000000000
  0.0000000000000000  0.0000000000000000  0.0000000000000000
  0.0000000000000000  0.0000000000000000  0.0000000000000000
  0.0000000000000000  0.0000000000000000  0.0000000000000000
  0.0000000000000000  0.0000000000000000  0.0000000000000000
  0.0000000000000000  0.0000000000000000  0.0000000000000000
  0.0000000000000000  0.0000000000000000  0.0000000000000000
  0.0000000000000000  0.0000000000000000  0.0000000000000000
  0.0000000000000000  0.0000000000000000  0.0000000000000000
  0.0000000000000000  0.0000000000000000  0.0000000000000000
  0.0000000000000000  0.0000000000000000  0.0000000000000000
  0.0000000000000000  0.0000000000000000  0.0000000000000000
  0.0000000000000000  0.0000000000000000  0.0000000000000000
  0.0000000000000000  0.0000000000000000  0.0000000000000000
  0.0000000000000000  0.0000000000000000  0.0000000000000000
  0.0000000000000000  0.0000000000000000  0.0000000000000000
  0.0000000000000000  0.0000000000000000  0.0000000000000000
  0.0000000000000000  0.0000000000000000  0.0000000000000000
  0.0000000000000000  0.0000000000000000  0.0000000000000000
  0.0000000000000000  0.0000000000000000  0.0000000000000000
  0.0000000000000000  0.0000000000000000  0.0000000000000000
  0.0000000000000000  0.0000000000000000  0.0000000000000000
  0.0000000000000000  0.0000000000000000  0.0000000000000000
  0.0000000000000000  0.0000000000000000  0.0000000000000000
  0.0000000000000000  0.0000000000000000  0.0000000000000000
  0.0000000000000000  0.0000000000000000  0.0000000000000000
  0.0000000000000000  0.0000000000000000  0.0000000000000000
  0.0000000000000000  0.0000000000000000  0.0000000000000000
  0.0000000000000000  0.0000000000000000  0.0000000000000000
  0.0000000000000000  0.0000000000000000  0.0000000000000000
  0.0000000000000000  0.0000000000000000  0.0000000000000000
  0.0000000000000000  0.0000000000000000  0.0000000000000000
  0.0000000000000000  0.0000000000000000  0.0000000000000000
  0.0000000000000000  0.0000000000000000  0.0000000000000000
  0.0000000000000000  0.0000000000000000  0.0000000000000000
  0.0000000000000000  0.0000000000000000  0.0000000000000000
  0.0000000000000000  0.0000000000000000  0.0000000000000000
  0.0000000000000000  0.0000000000000000  0.0000000000000000
  0.0000000000000000  0.0000000000000000  0.0000000000000000
  0.0000000000000000  0.0000000000000000  0.0000000000000000
  0.0000000000000000  0.0000000000000000  0.0000000000000000
  0.0000000000000000  0.0000000000000000  0.0000000000000000
  0.0000000000000000  0.0000000000000000  0.0000000000000000
  0.0000000000000000  0.0000000000000000  0.0000000000000000
  0.0000000000000000  0.0000000000000000  0.0000000000000000
  0.0000000000000000  0.0000000000000000  0.0000000000000000
  0.0000000000000000  0.0000000000000000  0.0000000000000000
  0.0000000000000000  0.0000000000000000  0.0000000000000000
  0.0000000000000000  0.0000000000000000  0.0000000000000000
  0.0000000000000000  0.0000000000000000  0.0000000000000000
  0.0000000000000000  0.0000000000000000  0.0000000000000000
  0.0000000000000000  0.0000000000000000  0.0000000000000000
  0.0000000000000000  0.0000000000000000  0.0000000000000000
  0.0000000000000000  0.0000000000000000  0.0000000000000000
  0.0000000000000000  0.0000000000000000  0.0000000000000000
  0.0000000000000000  0.0000000000000000  0.0000000000000000
  0.0000000000000000  0.0000000000000000  0.0000000000000000
  0.0000000000000000  0.0000000000000000  0.0000000000000000
