
     Program PWSCF v.7.4.1 starts on 27Jul2026 at  0:44:43 

     This program is part of the open-source Quantum ESPRESSO suite
     for quantum simulation of materials; please cite
         "P. Giannozzi et al., J. Phys.:Condens. Matter 21 395502 (2009);
         "P. Giannozzi et al., J. Phys.:Condens. Matter 29 465901 (2017);
         "P. Giannozzi et al., J. Chem. Phys. 152 154105 (2020);
          URL http://www.quantum-espresso.org", 
     in publications or presentations arising from this work. More details at
     http://www.quantum-espresso.org/quote

     Parallel version (MPI), running on    36 processors

     MPI processes distributed on     1 nodes
     291047 MiB available memory on the printing compute node when the environment starts
 
     Reading input from diamond_nscf.in

     Current dimensions of program PWSCF are:
     Max number of different atomic species (ntypx) = 10
     Max number of k-points (npk) =  40000
     Max angular momentum in pseudopotentials (lmaxx) =  4
     file C.pbe-n-kjpaw_psl.1.0.0.UPF: wavefunction(s)  2S 2P renormalized

     Atomic positions and unit cell read from directory:
     ../tmp/diamond.save/
 
     Message from routine setup:
     using ibrav=0 with symmetry is DISCOURAGED, use correct ibrav instead
 
     K-points division:     npool     =       3
     R & G space division:  proc/nbgrp/npool/nimage =      12
     Subspace diagonalization in iterative solution of the eigenvalue problem:
     a serial algorithm will be used

 
     Parallelization info
     --------------------
     sticks:   dense  smooth     PW     G-vecs:    dense   smooth      PW
     Min          23      23      8                  259      259      53
     Max          24      24      9                  261      261      56
     Sum         283     283     97                 3119     3119     645
 
     Using Slab Decomposition
 


     bravais-lattice index     =            0
     lattice parameter (alat)  =       4.7733  a.u.
     unit-cell volume          =      76.9035 (a.u.)^3
     number of atoms/cell      =            2
     number of atomic types    =            1
     number of electrons       =         8.00
     number of Kohn-Sham states=            8
     kinetic-energy cutoff     =      45.0000  Ry
     charge density cutoff     =     180.0000  Ry
     Exchange-correlation= SLA  PW   PBX  PBC
                           (   1   4   3   4   0   0   0)

     celldm(1)=   4.773317  celldm(2)=   0.000000  celldm(3)=   0.000000
     celldm(4)=   0.000000  celldm(5)=   0.000000  celldm(6)=   0.000000

     crystal axes: (cart. coord. in units of alat)
               a(1) = (  -0.707107   0.000000   0.707107 )  
               a(2) = (   0.000000   0.707107   0.707107 )  
               a(3) = (  -0.707107   0.707107   0.000000 )  

     reciprocal axes: (cart. coord. in units 2 pi/alat)
               b(1) = ( -0.707107 -0.707107  0.707107 )  
               b(2) = (  0.707107  0.707107  0.707107 )  
               b(3) = ( -0.707107  0.707107 -0.707107 )  


     PseudoPot. # 1 for C  read from file:
     ../../pseudos/C.pbe-n-kjpaw_psl.1.0.0.UPF
     MD5 check sum: 5f16ad9a65e90284d1d834d4ab3b0f7d
     Pseudo is Projector augmented-wave + core cor, Zval =  4.0
     Generated using &quot;atomic&quot; code by A. Dal Corso  v.6.3
     Shape of augmentation charge: PSQ
     Using radial grid of 1073 points,  4 beta functions with: 
                l(1) =   0
                l(2) =   0
                l(3) =   1
                l(4) =   1
     Q(r) pseudized with 0 coefficients 


     atomic species   valence    mass     pseudopotential
     C                 4.00    12.01070     C ( 1.00)

      6 Sym. Ops. (no inversion) found


                                    s                        frac. trans.

      isym =  1     identity                                     

 cryst.   s( 1) = (     1          0          0      )
                  (     0          1          0      )
                  (     0          0          1      )

 cart.    s( 1) = (  1.0000000  0.0000000  0.0000000 )
                  (  0.0000000  1.0000000  0.0000000 )
                  (  0.0000000  0.0000000  1.0000000 )


      isym =  2     120 deg rotation - cart. axis [-1,1,1]       

 cryst.   s( 2) = (     0          1          0      )
                  (     0          0          1      )
                  (     1          0          0      )

 cart.    s( 2) = (  0.0000000 -1.0000000  0.0000000 )
                  (  0.0000000  0.0000000  1.0000000 )
                  ( -1.0000000  0.0000000  0.0000000 )


      isym =  3     120 deg rotation - cart. axis [1,-1,-1]      

 cryst.   s( 3) = (     0          0          1      )
                  (     1          0          0      )
                  (     0          1          0      )

 cart.    s( 3) = (  0.0000000  0.0000000 -1.0000000 )
                  ( -1.0000000  0.0000000  0.0000000 )
                  (  0.0000000  1.0000000  0.0000000 )


      isym =  4     inv. 180 deg rotation - cart. axis [1,1,0]   

 cryst.   s( 4) = (     0          1          0      )
                  (     1          0          0      )
                  (     0          0          1      )

 cart.    s( 4) = (  0.0000000 -1.0000000  0.0000000 )
                  ( -1.0000000  0.0000000  0.0000000 )
                  (  0.0000000  0.0000000  1.0000000 )


      isym =  5     inv. 180 deg rotation - cart. axis [1,0,1]   

 cryst.   s( 5) = (     1          0          0      )
                  (     0          0          1      )
                  (     0          1          0      )

 cart.    s( 5) = (  0.0000000  0.0000000 -1.0000000 )
                  (  0.0000000  1.0000000  0.0000000 )
                  ( -1.0000000  0.0000000  0.0000000 )


      isym =  6     inv. 180 deg rotation - cart. axis [0,1,-1]  

 cryst.   s( 6) = (     0          0          1      )
                  (     0          1          0      )
                  (     1          0          0      )

 cart.    s( 6) = (  1.0000000  0.0000000  0.0000000 )
                  (  0.0000000  0.0000000  1.0000000 )
                  (  0.0000000  1.0000000  0.0000000 )


   Cartesian axes

     site n.     atom                  positions (alat units)
         1        C      tau(   1) = (   0.0000000   0.0000000   0.0000000  )
         2        C      tau(   2) = (  -0.3541036   0.3541036   0.3541036  )

   Crystallographic axes

     site n.     atom                  positions (cryst. coord.)
         1        C      tau(   1) = (  0.0000000  0.0000000  0.0000000  )
         2        C      tau(   2) = (  0.2503890  0.2503890  0.2503890  )

     number of k points=  1313
                       cart. coord. in units 2pi/alat
        k(    1) = (   0.0000000   0.0000000   0.0000000), wk =   0.0001447
        k(    2) = (  -0.0294628   0.0294628  -0.0294628), wk =   0.0008681
        k(    3) = (  -0.0589256   0.0589256  -0.0589256), wk =   0.0008681
        k(    4) = (  -0.0883883   0.0883883  -0.0883883), wk =   0.0008681
        k(    5) = (  -0.1178511   0.1178511  -0.1178511), wk =   0.0008681
        k(    6) = (  -0.1473139   0.1473139  -0.1473139), wk =   0.0008681
        k(    7) = (  -0.1767767   0.1767767  -0.1767767), wk =   0.0008681
        k(    8) = (  -0.2062395   0.2062395  -0.2062395), wk =   0.0008681
        k(    9) = (  -0.2357023   0.2357023  -0.2357023), wk =   0.0008681
        k(   10) = (  -0.2651650   0.2651650  -0.2651650), wk =   0.0008681
        k(   11) = (  -0.2946278   0.2946278  -0.2946278), wk =   0.0008681
        k(   12) = (  -0.3240906   0.3240906  -0.3240906), wk =   0.0008681
        k(   13) = (   0.3535534  -0.3535534   0.3535534), wk =   0.0004340
        k(   14) = (   0.0000000   0.0589256   0.0000000), wk =   0.0008681
        k(   15) = (  -0.0294628   0.0883883  -0.0294628), wk =   0.0017361
        k(   16) = (  -0.0589256   0.1178511  -0.0589256), wk =   0.0017361
        k(   17) = (  -0.0883883   0.1473139  -0.0883883), wk =   0.0017361
        k(   18) = (  -0.1178511   0.1767767  -0.1178511), wk =   0.0017361
        k(   19) = (  -0.1473139   0.2062395  -0.1473139), wk =   0.0017361
        k(   20) = (  -0.1767767   0.2357023  -0.1767767), wk =   0.0017361
        k(   21) = (  -0.2062395   0.2651650  -0.2062395), wk =   0.0017361
        k(   22) = (  -0.2357023   0.2946278  -0.2357023), wk =   0.0017361
        k(   23) = (  -0.2651650   0.3240906  -0.2651650), wk =   0.0017361
        k(   24) = (  -0.2946278   0.3535534  -0.2946278), wk =   0.0017361
        k(   25) = (   0.3830162  -0.3240906   0.3830162), wk =   0.0017361
        k(   26) = (   0.3535534  -0.2946278   0.3535534), wk =   0.0017361
        k(   27) = (   0.3240906  -0.2651650   0.3240906), wk =   0.0017361
        k(   28) = (   0.2946278  -0.2357023   0.2946278), wk =   0.0017361
        k(   29) = (   0.2651650  -0.2062395   0.2651650), wk =   0.0017361
        k(   30) = (   0.2357023  -0.1767767   0.2357023), wk =   0.0017361
        k(   31) = (   0.2062395  -0.1473139   0.2062395), wk =   0.0017361
        k(   32) = (   0.1767767  -0.1178511   0.1767767), wk =   0.0017361
        k(   33) = (   0.1473139  -0.0883883   0.1473139), wk =   0.0017361
        k(   34) = (   0.1178511  -0.0589256   0.1178511), wk =   0.0017361
        k(   35) = (   0.0883883  -0.0294628   0.0883883), wk =   0.0017361
        k(   36) = (   0.0589256  -0.0000000   0.0589256), wk =   0.0008681
        k(   37) = (   0.0000000   0.1178511   0.0000000), wk =   0.0008681
        k(   38) = (  -0.0294628   0.1473139  -0.0294628), wk =   0.0017361
        k(   39) = (  -0.0589256   0.1767767  -0.0589256), wk =   0.0017361
        k(   40) = (  -0.0883883   0.2062395  -0.0883883), wk =   0.0017361
        k(   41) = (  -0.1178511   0.2357023  -0.1178511), wk =   0.0017361
        k(   42) = (  -0.1473139   0.2651650  -0.1473139), wk =   0.0017361
        k(   43) = (  -0.1767767   0.2946278  -0.1767767), wk =   0.0017361
        k(   44) = (  -0.2062395   0.3240906  -0.2062395), wk =   0.0017361
        k(   45) = (  -0.2357023   0.3535534  -0.2357023), wk =   0.0017361
        k(   46) = (  -0.2651650   0.3830162  -0.2651650), wk =   0.0017361
        k(   47) = (   0.4124790  -0.2946278   0.4124790), wk =   0.0017361
        k(   48) = (   0.3830162  -0.2651650   0.3830162), wk =   0.0017361
        k(   49) = (   0.3535534  -0.2357023   0.3535534), wk =   0.0017361
        k(   50) = (   0.3240906  -0.2062395   0.3240906), wk =   0.0017361
        k(   51) = (   0.2946278  -0.1767767   0.2946278), wk =   0.0017361
        k(   52) = (   0.2651650  -0.1473139   0.2651650), wk =   0.0017361
        k(   53) = (   0.2357023  -0.1178511   0.2357023), wk =   0.0017361
        k(   54) = (   0.2062395  -0.0883883   0.2062395), wk =   0.0017361
        k(   55) = (   0.1767767  -0.0589256   0.1767767), wk =   0.0017361
        k(   56) = (   0.1473139  -0.0294628   0.1473139), wk =   0.0017361
        k(   57) = (   0.1178511  -0.0000000   0.1178511), wk =   0.0008681
        k(   58) = (   0.0000000   0.1767767   0.0000000), wk =   0.0008681
        k(   59) = (  -0.0294628   0.2062395  -0.0294628), wk =   0.0017361
        k(   60) = (  -0.0589256   0.2357023  -0.0589256), wk =   0.0017361
        k(   61) = (  -0.0883883   0.2651650  -0.0883883), wk =   0.0017361
        k(   62) = (  -0.1178511   0.2946278  -0.1178511), wk =   0.0017361
        k(   63) = (  -0.1473139   0.3240906  -0.1473139), wk =   0.0017361
        k(   64) = (  -0.1767767   0.3535534  -0.1767767), wk =   0.0017361
        k(   65) = (  -0.2062395   0.3830162  -0.2062395), wk =   0.0017361
        k(   66) = (  -0.2357023   0.4124790  -0.2357023), wk =   0.0017361
        k(   67) = (   0.4419417  -0.2651650   0.4419417), wk =   0.0017361
        k(   68) = (   0.4124790  -0.2357023   0.4124790), wk =   0.0017361
        k(   69) = (   0.3830162  -0.2062395   0.3830162), wk =   0.0017361
        k(   70) = (   0.3535534  -0.1767767   0.3535534), wk =   0.0017361
        k(   71) = (   0.3240906  -0.1473139   0.3240906), wk =   0.0017361
        k(   72) = (   0.2946278  -0.1178511   0.2946278), wk =   0.0017361
        k(   73) = (   0.2651650  -0.0883883   0.2651650), wk =   0.0017361
        k(   74) = (   0.2357023  -0.0589256   0.2357023), wk =   0.0017361
        k(   75) = (   0.2062395  -0.0294628   0.2062395), wk =   0.0017361
        k(   76) = (   0.1767767   0.0000000   0.1767767), wk =   0.0008681
        k(   77) = (   0.0000000   0.2357023   0.0000000), wk =   0.0008681
        k(   78) = (  -0.0294628   0.2651650  -0.0294628), wk =   0.0017361
        k(   79) = (  -0.0589256   0.2946278  -0.0589256), wk =   0.0017361
        k(   80) = (  -0.0883883   0.3240906  -0.0883883), wk =   0.0017361
        k(   81) = (  -0.1178511   0.3535534  -0.1178511), wk =   0.0017361
        k(   82) = (  -0.1473139   0.3830162  -0.1473139), wk =   0.0017361
        k(   83) = (  -0.1767767   0.4124790  -0.1767767), wk =   0.0017361
        k(   84) = (  -0.2062395   0.4419417  -0.2062395), wk =   0.0017361
        k(   85) = (   0.4714045  -0.2357023   0.4714045), wk =   0.0017361
        k(   86) = (   0.4419417  -0.2062395   0.4419417), wk =   0.0017361
        k(   87) = (   0.4124790  -0.1767767   0.4124790), wk =   0.0017361
        k(   88) = (   0.3830162  -0.1473139   0.3830162), wk =   0.0017361
        k(   89) = (   0.3535534  -0.1178511   0.3535534), wk =   0.0017361
        k(   90) = (   0.3240906  -0.0883883   0.3240906), wk =   0.0017361
        k(   91) = (   0.2946278  -0.0589256   0.2946278), wk =   0.0017361
        k(   92) = (   0.2651650  -0.0294628   0.2651650), wk =   0.0017361
        k(   93) = (   0.2357023  -0.0000000   0.2357023), wk =   0.0008681
        k(   94) = (   0.0000000   0.2946278   0.0000000), wk =   0.0008681
        k(   95) = (  -0.0294628   0.3240906  -0.0294628), wk =   0.0017361
        k(   96) = (  -0.0589256   0.3535534  -0.0589256), wk =   0.0017361
        k(   97) = (  -0.0883883   0.3830162  -0.0883883), wk =   0.0017361
        k(   98) = (  -0.1178511   0.4124790  -0.1178511), wk =   0.0017361
        k(   99) = (  -0.1473139   0.4419417  -0.1473139), wk =   0.0017361
        k(  100) = (  -0.1767767   0.4714045  -0.1767767), wk =   0.0017361
        k(  101) = (   0.5008673  -0.2062395   0.5008673), wk =   0.0017361
        k(  102) = (   0.4714045  -0.1767767   0.4714045), wk =   0.0017361
        k(  103) = (   0.4419417  -0.1473139   0.4419417), wk =   0.0017361
        k(  104) = (   0.4124790  -0.1178511   0.4124790), wk =   0.0017361
        k(  105) = (   0.3830162  -0.0883883   0.3830162), wk =   0.0017361
        k(  106) = (   0.3535534  -0.0589256   0.3535534), wk =   0.0017361
        k(  107) = (   0.3240906  -0.0294628   0.3240906), wk =   0.0017361
        k(  108) = (   0.2946278  -0.0000000   0.2946278), wk =   0.0008681
        k(  109) = (   0.0000000   0.3535534   0.0000000), wk =   0.0008681
        k(  110) = (  -0.0294628   0.3830162  -0.0294628), wk =   0.0017361
        k(  111) = (  -0.0589256   0.4124790  -0.0589256), wk =   0.0017361
        k(  112) = (  -0.0883883   0.4419417  -0.0883883), wk =   0.0017361
        k(  113) = (  -0.1178511   0.4714045  -0.1178511), wk =   0.0017361
        k(  114) = (  -0.1473139   0.5008673  -0.1473139), wk =   0.0017361
        k(  115) = (   0.5303301  -0.1767767   0.5303301), wk =   0.0017361
        k(  116) = (   0.5008673  -0.1473139   0.5008673), wk =   0.0017361
        k(  117) = (   0.4714045  -0.1178511   0.4714045), wk =   0.0017361
        k(  118) = (   0.4419417  -0.0883883   0.4419417), wk =   0.0017361
        k(  119) = (   0.4124790  -0.0589256   0.4124790), wk =   0.0017361
        k(  120) = (   0.3830162  -0.0294628   0.3830162), wk =   0.0017361
        k(  121) = (   0.3535534   0.0000000   0.3535534), wk =   0.0008681
        k(  122) = (   0.0000000   0.4124790   0.0000000), wk =   0.0008681
        k(  123) = (  -0.0294628   0.4419417  -0.0294628), wk =   0.0017361
        k(  124) = (  -0.0589256   0.4714045  -0.0589256), wk =   0.0017361
        k(  125) = (  -0.0883883   0.5008673  -0.0883883), wk =   0.0017361
        k(  126) = (  -0.1178511   0.5303301  -0.1178511), wk =   0.0017361
        k(  127) = (   0.5597929  -0.1473139   0.5597929), wk =   0.0017361
        k(  128) = (   0.5303301  -0.1178511   0.5303301), wk =   0.0017361
        k(  129) = (   0.5008673  -0.0883883   0.5008673), wk =   0.0017361
        k(  130) = (   0.4714045  -0.0589256   0.4714045), wk =   0.0017361
        k(  131) = (   0.4419417  -0.0294628   0.4419417), wk =   0.0017361
        k(  132) = (   0.4124790  -0.0000000   0.4124790), wk =   0.0008681
        k(  133) = (   0.0000000   0.4714045   0.0000000), wk =   0.0008681
        k(  134) = (  -0.0294628   0.5008673  -0.0294628), wk =   0.0017361
        k(  135) = (  -0.0589256   0.5303301  -0.0589256), wk =   0.0017361
        k(  136) = (  -0.0883883   0.5597929  -0.0883883), wk =   0.0017361
        k(  137) = (   0.5892557  -0.1178511   0.5892557), wk =   0.0017361
        k(  138) = (   0.5597929  -0.0883883   0.5597929), wk =   0.0017361
        k(  139) = (   0.5303301  -0.0589256   0.5303301), wk =   0.0017361
        k(  140) = (   0.5008673  -0.0294628   0.5008673), wk =   0.0017361
        k(  141) = (   0.4714045  -0.0000000   0.4714045), wk =   0.0008681
        k(  142) = (   0.0000000   0.5303301   0.0000000), wk =   0.0008681
        k(  143) = (  -0.0294628   0.5597929  -0.0294628), wk =   0.0017361
        k(  144) = (  -0.0589256   0.5892557  -0.0589256), wk =   0.0017361
        k(  145) = (   0.6187184  -0.0883883   0.6187184), wk =   0.0017361
        k(  146) = (   0.5892557  -0.0589256   0.5892557), wk =   0.0017361
        k(  147) = (   0.5597929  -0.0294628   0.5597929), wk =   0.0017361
        k(  148) = (   0.5303301   0.0000000   0.5303301), wk =   0.0008681
        k(  149) = (   0.0000000   0.5892557   0.0000000), wk =   0.0008681
        k(  150) = (  -0.0294628   0.6187184  -0.0294628), wk =   0.0017361
        k(  151) = (   0.6481812  -0.0589256   0.6481812), wk =   0.0017361
        k(  152) = (   0.6187184  -0.0294628   0.6187184), wk =   0.0017361
        k(  153) = (   0.5892557  -0.0000000   0.5892557), wk =   0.0008681
        k(  154) = (   0.0000000   0.6481812   0.0000000), wk =   0.0008681
        k(  155) = (   0.6776440  -0.0294628   0.6776440), wk =   0.0017361
        k(  156) = (   0.6481812   0.0000000   0.6481812), wk =   0.0008681
        k(  157) = (   0.0000000  -0.7071068   0.0000000), wk =   0.0004340
        k(  158) = (  -0.0589256   0.1178511   0.0000000), wk =   0.0017361
        k(  159) = (  -0.0883883   0.1473139  -0.0294628), wk =   0.0017361
        k(  160) = (  -0.1178511   0.1767767  -0.0589256), wk =   0.0017361
        k(  161) = (  -0.1473139   0.2062395  -0.0883883), wk =   0.0017361
        k(  162) = (  -0.1767767   0.2357023  -0.1178511), wk =   0.0017361
        k(  163) = (  -0.2062395   0.2651650  -0.1473139), wk =   0.0017361
        k(  164) = (  -0.2357023   0.2946278  -0.1767767), wk =   0.0017361
        k(  165) = (  -0.2651650   0.3240906  -0.2062395), wk =   0.0017361
        k(  166) = (  -0.2946278   0.3535534  -0.2357023), wk =   0.0017361
        k(  167) = (   0.3830162  -0.3240906   0.4419417), wk =   0.0017361
        k(  168) = (   0.3535534  -0.2946278   0.4124790), wk =   0.0017361
        k(  169) = (  -0.0589256   0.1767767   0.0000000), wk =   0.0017361
        k(  170) = (  -0.0883883   0.2062395  -0.0294628), wk =   0.0017361
        k(  171) = (  -0.1178511   0.2357023  -0.0589256), wk =   0.0017361
        k(  172) = (  -0.1473139   0.2651650  -0.0883883), wk =   0.0017361
        k(  173) = (  -0.1767767   0.2946278  -0.1178511), wk =   0.0017361
        k(  174) = (  -0.2062395   0.3240906  -0.1473139), wk =   0.0017361
        k(  175) = (  -0.2357023   0.3535534  -0.1767767), wk =   0.0017361
        k(  176) = (  -0.2651650   0.3830162  -0.2062395), wk =   0.0017361
        k(  177) = (   0.4124790  -0.2946278   0.4714045), wk =   0.0017361
        k(  178) = (   0.3830162  -0.2651650   0.4419417), wk =   0.0017361
        k(  179) = (   0.3535534  -0.2357023   0.4124790), wk =   0.0017361
        k(  180) = (   0.3240906  -0.2062395   0.3830162), wk =   0.0017361
        k(  181) = (   0.2946278  -0.1767767   0.3535534), wk =   0.0017361
        k(  182) = (   0.2651650  -0.1473139   0.3240906), wk =   0.0017361
        k(  183) = (   0.2357023  -0.1178511   0.2946278), wk =   0.0017361
        k(  184) = (   0.2062395  -0.0883883   0.2651650), wk =   0.0017361
        k(  185) = (   0.1767767  -0.0589256   0.2357023), wk =   0.0017361
        k(  186) = (   0.1473139  -0.0294628   0.2062395), wk =   0.0017361
        k(  187) = (   0.1178511  -0.0000000   0.1767767), wk =   0.0017361
        k(  188) = (  -0.0589256   0.2357023   0.0000000), wk =   0.0017361
        k(  189) = (  -0.0883883   0.2651650  -0.0294628), wk =   0.0017361
        k(  190) = (  -0.1178511   0.2946278  -0.0589256), wk =   0.0017361
        k(  191) = (  -0.1473139   0.3240906  -0.0883883), wk =   0.0017361
        k(  192) = (  -0.1767767   0.3535534  -0.1178511), wk =   0.0017361
        k(  193) = (  -0.2062395   0.3830162  -0.1473139), wk =   0.0017361
        k(  194) = (  -0.2357023   0.4124790  -0.1767767), wk =   0.0017361
        k(  195) = (   0.4419417  -0.2651650   0.5008673), wk =   0.0017361
        k(  196) = (   0.4124790  -0.2357023   0.4714045), wk =   0.0017361
        k(  197) = (   0.3830162  -0.2062395   0.4419417), wk =   0.0017361
        k(  198) = (   0.3535534  -0.1767767   0.4124790), wk =   0.0017361
        k(  199) = (   0.3240906  -0.1473139   0.3830162), wk =   0.0017361
        k(  200) = (   0.2946278  -0.1178511   0.3535534), wk =   0.0017361
        k(  201) = (   0.2651650  -0.0883883   0.3240906), wk =   0.0017361
        k(  202) = (   0.2357023  -0.0589256   0.2946278), wk =   0.0017361
        k(  203) = (   0.2062395  -0.0294628   0.2651650), wk =   0.0017361
        k(  204) = (   0.1767767   0.0000000   0.2357023), wk =   0.0017361
        k(  205) = (  -0.0589256   0.2946278  -0.0000000), wk =   0.0017361
        k(  206) = (  -0.0883883   0.3240906  -0.0294628), wk =   0.0017361
        k(  207) = (  -0.1178511   0.3535534  -0.0589256), wk =   0.0017361
        k(  208) = (  -0.1473139   0.3830162  -0.0883883), wk =   0.0017361
        k(  209) = (  -0.1767767   0.4124790  -0.1178511), wk =   0.0017361
        k(  210) = (  -0.2062395   0.4419417  -0.1473139), wk =   0.0017361
        k(  211) = (   0.4714045  -0.2357023   0.5303301), wk =   0.0017361
        k(  212) = (   0.4419417  -0.2062395   0.5008673), wk =   0.0017361
        k(  213) = (   0.4124790  -0.1767767   0.4714045), wk =   0.0017361
        k(  214) = (   0.3830162  -0.1473139   0.4419417), wk =   0.0017361
        k(  215) = (   0.3535534  -0.1178511   0.4124790), wk =   0.0017361
        k(  216) = (   0.3240906  -0.0883883   0.3830162), wk =   0.0017361
        k(  217) = (   0.2946278  -0.0589256   0.3535534), wk =   0.0017361
        k(  218) = (   0.2651650  -0.0294628   0.3240906), wk =   0.0017361
        k(  219) = (   0.2357023  -0.0000000   0.2946278), wk =   0.0017361
        k(  220) = (  -0.0589256   0.3535534   0.0000000), wk =   0.0017361
        k(  221) = (  -0.0883883   0.3830162  -0.0294628), wk =   0.0017361
        k(  222) = (  -0.1178511   0.4124790  -0.0589256), wk =   0.0017361
        k(  223) = (  -0.1473139   0.4419417  -0.0883883), wk =   0.0017361
        k(  224) = (  -0.1767767   0.4714045  -0.1178511), wk =   0.0017361
        k(  225) = (   0.5008673  -0.2062395   0.5597929), wk =   0.0017361
        k(  226) = (   0.4714045  -0.1767767   0.5303301), wk =   0.0017361
        k(  227) = (   0.4419417  -0.1473139   0.5008673), wk =   0.0017361
        k(  228) = (   0.4124790  -0.1178511   0.4714045), wk =   0.0017361
        k(  229) = (   0.3830162  -0.0883883   0.4419417), wk =   0.0017361
        k(  230) = (   0.3535534  -0.0589256   0.4124790), wk =   0.0017361
        k(  231) = (   0.3240906  -0.0294628   0.3830162), wk =   0.0017361
        k(  232) = (   0.2946278  -0.0000000   0.3535534), wk =   0.0017361
        k(  233) = (  -0.0589256   0.4124790  -0.0000000), wk =   0.0017361
        k(  234) = (  -0.0883883   0.4419417  -0.0294628), wk =   0.0017361
        k(  235) = (  -0.1178511   0.4714045  -0.0589256), wk =   0.0017361
        k(  236) = (  -0.1473139   0.5008673  -0.0883883), wk =   0.0017361
        k(  237) = (   0.5303301  -0.1767767   0.5892557), wk =   0.0017361
        k(  238) = (   0.5008673  -0.1473139   0.5597929), wk =   0.0017361
        k(  239) = (   0.4714045  -0.1178511   0.5303301), wk =   0.0017361
        k(  240) = (   0.4419417  -0.0883883   0.5008673), wk =   0.0017361
        k(  241) = (   0.4124790  -0.0589256   0.4714045), wk =   0.0017361
        k(  242) = (   0.3830162  -0.0294628   0.4419417), wk =   0.0017361
        k(  243) = (   0.3535534  -0.0000000   0.4124790), wk =   0.0017361
        k(  244) = (  -0.0589256   0.4714045  -0.0000000), wk =   0.0017361
        k(  245) = (  -0.0883883   0.5008673  -0.0294628), wk =   0.0017361
        k(  246) = (  -0.1178511   0.5303301  -0.0589256), wk =   0.0017361
        k(  247) = (   0.5597929  -0.1473139   0.6187184), wk =   0.0017361
        k(  248) = (   0.5303301  -0.1178511   0.5892557), wk =   0.0017361
        k(  249) = (   0.5008673  -0.0883883   0.5597929), wk =   0.0017361
        k(  250) = (   0.4714045  -0.0589256   0.5303301), wk =   0.0017361
        k(  251) = (   0.4419417  -0.0294628   0.5008673), wk =   0.0017361
        k(  252) = (   0.4124790  -0.0000000   0.4714045), wk =   0.0017361
        k(  253) = (  -0.0589256   0.5303301   0.0000000), wk =   0.0017361
        k(  254) = (  -0.0883883   0.5597929  -0.0294628), wk =   0.0017361
        k(  255) = (   0.5892557  -0.1178511   0.6481812), wk =   0.0017361
        k(  256) = (   0.5597929  -0.0883883   0.6187184), wk =   0.0017361
        k(  257) = (   0.5303301  -0.0589256   0.5892557), wk =   0.0017361
        k(  258) = (   0.5008673  -0.0294628   0.5597929), wk =   0.0017361
        k(  259) = (   0.4714045   0.0000000   0.5303301), wk =   0.0017361
        k(  260) = (  -0.0589256   0.5892557  -0.0000000), wk =   0.0017361
        k(  261) = (   0.6187184  -0.0883883   0.6776440), wk =   0.0017361
        k(  262) = (   0.5892557  -0.0589256   0.6481812), wk =   0.0017361
        k(  263) = (   0.5597929  -0.0294628   0.6187184), wk =   0.0017361
        k(  264) = (   0.5303301  -0.0000000   0.5892557), wk =   0.0017361
        k(  265) = (   0.6481812  -0.0589256   0.7071068), wk =   0.0017361
        k(  266) = (   0.6187184  -0.0294628   0.6776440), wk =   0.0017361
        k(  267) = (   0.5892557  -0.0000000   0.6481812), wk =   0.0017361
        k(  268) = (  -0.0589256  -0.7071068   0.0000000), wk =   0.0017361
        k(  269) = (  -0.1178511   0.2357023   0.0000000), wk =   0.0017361
        k(  270) = (  -0.1473139   0.2651650  -0.0294628), wk =   0.0017361
        k(  271) = (  -0.1767767   0.2946278  -0.0589256), wk =   0.0017361
        k(  272) = (  -0.2062395   0.3240906  -0.0883883), wk =   0.0017361
        k(  273) = (  -0.2357023   0.3535534  -0.1178511), wk =   0.0017361
        k(  274) = (  -0.2651650   0.3830162  -0.1473139), wk =   0.0017361
        k(  275) = (   0.4124790  -0.2946278   0.5303301), wk =   0.0017361
        k(  276) = (   0.3830162  -0.2651650   0.5008673), wk =   0.0017361
        k(  277) = (   0.3535534  -0.2357023   0.4714045), wk =   0.0017361
        k(  278) = (  -0.1178511   0.2946278   0.0000000), wk =   0.0017361
        k(  279) = (  -0.1473139   0.3240906  -0.0294628), wk =   0.0017361
        k(  280) = (  -0.1767767   0.3535534  -0.0589256), wk =   0.0017361
        k(  281) = (  -0.2062395   0.3830162  -0.0883883), wk =   0.0017361
        k(  282) = (  -0.2357023   0.4124790  -0.1178511), wk =   0.0017361
        k(  283) = (   0.4419417  -0.2651650   0.5597929), wk =   0.0017361
        k(  284) = (   0.4124790  -0.2357023   0.5303301), wk =   0.0017361
        k(  285) = (   0.3830162  -0.2062395   0.5008673), wk =   0.0017361
        k(  286) = (   0.3535534  -0.1767767   0.4714045), wk =   0.0017361
        k(  287) = (   0.3240906  -0.1473139   0.4419417), wk =   0.0017361
        k(  288) = (   0.2946278  -0.1178511   0.4124790), wk =   0.0017361
        k(  289) = (   0.2651650  -0.0883883   0.3830162), wk =   0.0017361
        k(  290) = (   0.2357023  -0.0589256   0.3535534), wk =   0.0017361
        k(  291) = (   0.2062395  -0.0294628   0.3240906), wk =   0.0017361
        k(  292) = (   0.1767767  -0.0000000   0.2946278), wk =   0.0017361
        k(  293) = (  -0.1178511   0.3535534   0.0000000), wk =   0.0017361
        k(  294) = (  -0.1473139   0.3830162  -0.0294628), wk =   0.0017361
        k(  295) = (  -0.1767767   0.4124790  -0.0589256), wk =   0.0017361
        k(  296) = (  -0.2062395   0.4419417  -0.0883883), wk =   0.0017361
        k(  297) = (   0.4714045  -0.2357023   0.5892557), wk =   0.0017361
        k(  298) = (   0.4419417  -0.2062395   0.5597929), wk =   0.0017361
        k(  299) = (   0.4124790  -0.1767767   0.5303301), wk =   0.0017361
        k(  300) = (   0.3830162  -0.1473139   0.5008673), wk =   0.0017361
        k(  301) = (   0.3535534  -0.1178511   0.4714045), wk =   0.0017361
        k(  302) = (   0.3240906  -0.0883883   0.4419417), wk =   0.0017361
        k(  303) = (   0.2946278  -0.0589256   0.4124790), wk =   0.0017361
        k(  304) = (   0.2651650  -0.0294628   0.3830162), wk =   0.0017361
        k(  305) = (   0.2357023  -0.0000000   0.3535534), wk =   0.0017361
        k(  306) = (  -0.1178511   0.4124790  -0.0000000), wk =   0.0017361
        k(  307) = (  -0.1473139   0.4419417  -0.0294628), wk =   0.0017361
        k(  308) = (  -0.1767767   0.4714045  -0.0589256), wk =   0.0017361
        k(  309) = (   0.5008673  -0.2062395   0.6187184), wk =   0.0017361
        k(  310) = (   0.4714045  -0.1767767   0.5892557), wk =   0.0017361
        k(  311) = (   0.4419417  -0.1473139   0.5597929), wk =   0.0017361
        k(  312) = (   0.4124790  -0.1178511   0.5303301), wk =   0.0017361
        k(  313) = (   0.3830162  -0.0883883   0.5008673), wk =   0.0017361
        k(  314) = (   0.3535534  -0.0589256   0.4714045), wk =   0.0017361
        k(  315) = (   0.3240906  -0.0294628   0.4419417), wk =   0.0017361
        k(  316) = (   0.2946278  -0.0000000   0.4124790), wk =   0.0017361
        k(  317) = (  -0.1178511   0.4714045   0.0000000), wk =   0.0017361
        k(  318) = (  -0.1473139   0.5008673  -0.0294628), wk =   0.0017361
        k(  319) = (   0.5303301  -0.1767767   0.6481812), wk =   0.0017361
        k(  320) = (   0.5008673  -0.1473139   0.6187184), wk =   0.0017361
        k(  321) = (   0.4714045  -0.1178511   0.5892557), wk =   0.0017361
        k(  322) = (   0.4419417  -0.0883883   0.5597929), wk =   0.0017361
        k(  323) = (   0.4124790  -0.0589256   0.5303301), wk =   0.0017361
        k(  324) = (   0.3830162  -0.0294628   0.5008673), wk =   0.0017361
        k(  325) = (   0.3535534   0.0000000   0.4714045), wk =   0.0017361
        k(  326) = (  -0.1178511   0.5303301   0.0000000), wk =   0.0017361
        k(  327) = (   0.5597929  -0.1473139   0.6776440), wk =   0.0017361
        k(  328) = (   0.5303301  -0.1178511   0.6481812), wk =   0.0017361
        k(  329) = (   0.5008673  -0.0883883   0.6187184), wk =   0.0017361
        k(  330) = (   0.4714045  -0.0589256   0.5892557), wk =   0.0017361
        k(  331) = (   0.4419417  -0.0294628   0.5597929), wk =   0.0017361
        k(  332) = (   0.4124790   0.0000000   0.5303301), wk =   0.0017361
        k(  333) = (   0.5892557  -0.1178511   0.7071068), wk =   0.0017361
        k(  334) = (   0.5597929  -0.0883883   0.6776440), wk =   0.0017361
        k(  335) = (   0.5303301  -0.0589256   0.6481812), wk =   0.0017361
        k(  336) = (   0.5008673  -0.0294628   0.6187184), wk =   0.0017361
        k(  337) = (   0.4714045  -0.0000000   0.5892557), wk =   0.0017361
        k(  338) = (   0.5892557  -0.0589256   0.7071068), wk =   0.0017361
        k(  339) = (   0.5597929  -0.0294628   0.6776440), wk =   0.0017361
        k(  340) = (   0.5303301   0.0000000   0.6481812), wk =   0.0017361
        k(  341) = (  -0.1178511  -0.7071068   0.0000000), wk =   0.0017361
        k(  342) = (  -0.1767767   0.3535534   0.0000000), wk =   0.0017361
        k(  343) = (  -0.2062395   0.3830162  -0.0294628), wk =   0.0017361
        k(  344) = (  -0.2357023   0.4124790  -0.0589256), wk =   0.0017361
        k(  345) = (   0.4419417  -0.2651650   0.6187184), wk =   0.0017361
        k(  346) = (   0.4124790  -0.2357023   0.5892557), wk =   0.0017361
        k(  347) = (   0.3830162  -0.2062395   0.5597929), wk =   0.0017361
        k(  348) = (   0.3535534  -0.1767767   0.5303301), wk =   0.0017361
        k(  349) = (  -0.1767767   0.4124790   0.0000000), wk =   0.0017361
        k(  350) = (  -0.2062395   0.4419417  -0.0294628), wk =   0.0017361
        k(  351) = (   0.4714045  -0.2357023   0.6481812), wk =   0.0017361
        k(  352) = (   0.4419417  -0.2062395   0.6187184), wk =   0.0017361
        k(  353) = (   0.4124790  -0.1767767   0.5892557), wk =   0.0017361
        k(  354) = (   0.3830162  -0.1473139   0.5597929), wk =   0.0017361
        k(  355) = (   0.3535534  -0.1178511   0.5303301), wk =   0.0017361
        k(  356) = (   0.3240906  -0.0883883   0.5008673), wk =   0.0017361
        k(  357) = (   0.2946278  -0.0589256   0.4714045), wk =   0.0017361
        k(  358) = (   0.2651650  -0.0294628   0.4419417), wk =   0.0017361
        k(  359) = (   0.2357023  -0.0000000   0.4124790), wk =   0.0017361
        k(  360) = (  -0.1767767   0.4714045   0.0000000), wk =   0.0017361
        k(  361) = (   0.5008673  -0.2062395   0.6776440), wk =   0.0017361
        k(  362) = (   0.4714045  -0.1767767   0.6481812), wk =   0.0017361
        k(  363) = (   0.4419417  -0.1473139   0.6187184), wk =   0.0017361
        k(  364) = (   0.4124790  -0.1178511   0.5892557), wk =   0.0017361
        k(  365) = (   0.3830162  -0.0883883   0.5597929), wk =   0.0017361
        k(  366) = (   0.3535534  -0.0589256   0.5303301), wk =   0.0017361
        k(  367) = (   0.3240906  -0.0294628   0.5008673), wk =   0.0017361
        k(  368) = (   0.2946278  -0.0000000   0.4714045), wk =   0.0017361
        k(  369) = (   0.5303301  -0.1767767   0.7071068), wk =   0.0017361
        k(  370) = (   0.5008673  -0.1473139   0.6776440), wk =   0.0017361
        k(  371) = (   0.4714045  -0.1178511   0.6481812), wk =   0.0017361
        k(  372) = (   0.4419417  -0.0883883   0.6187184), wk =   0.0017361
        k(  373) = (   0.4124790  -0.0589256   0.5892557), wk =   0.0017361
        k(  374) = (   0.3830162  -0.0294628   0.5597929), wk =   0.0017361
        k(  375) = (   0.3535534   0.0000000   0.5303301), wk =   0.0017361
        k(  376) = (   0.5303301  -0.1178511   0.7071068), wk =   0.0017361
        k(  377) = (   0.5008673  -0.0883883   0.6776440), wk =   0.0017361
        k(  378) = (   0.4714045  -0.0589256   0.6481812), wk =   0.0017361
        k(  379) = (   0.4419417  -0.0294628   0.6187184), wk =   0.0017361
        k(  380) = (   0.4124790  -0.0000000   0.5892557), wk =   0.0017361
        k(  381) = (   0.5303301  -0.0589256   0.7071068), wk =   0.0017361
        k(  382) = (   0.5008673  -0.0294628   0.6776440), wk =   0.0017361
        k(  383) = (   0.4714045  -0.0000000   0.6481812), wk =   0.0017361
        k(  384) = (  -0.1767767  -0.7071068   0.0000000), wk =   0.0017361
        k(  385) = (   0.4714045  -0.2357023   0.7071068), wk =   0.0017361
        k(  386) = (   0.4419417  -0.2062395   0.6776440), wk =   0.0017361
        k(  387) = (   0.4124790  -0.1767767   0.6481812), wk =   0.0017361
        k(  388) = (   0.3830162  -0.1473139   0.6187184), wk =   0.0017361
        k(  389) = (   0.3535534  -0.1178511   0.5892557), wk =   0.0017361
        k(  390) = (   0.4714045  -0.1767767   0.7071068), wk =   0.0017361
        k(  391) = (   0.4419417  -0.1473139   0.6776440), wk =   0.0017361
        k(  392) = (   0.4124790  -0.1178511   0.6481812), wk =   0.0017361
        k(  393) = (   0.3830162  -0.0883883   0.6187184), wk =   0.0017361
        k(  394) = (   0.3535534  -0.0589256   0.5892557), wk =   0.0017361
        k(  395) = (   0.3240906  -0.0294628   0.5597929), wk =   0.0017361
        k(  396) = (   0.2946278   0.0000000   0.5303301), wk =   0.0017361
        k(  397) = (   0.4714045  -0.1178511   0.7071068), wk =   0.0017361
        k(  398) = (   0.4419417  -0.0883883   0.6776440), wk =   0.0017361
        k(  399) = (   0.4124790  -0.0589256   0.6481812), wk =   0.0017361
        k(  400) = (   0.3830162  -0.0294628   0.6187184), wk =   0.0017361
        k(  401) = (   0.3535534  -0.0000000   0.5892557), wk =   0.0017361
        k(  402) = (   0.4714045  -0.0589256   0.7071068), wk =   0.0017361
        k(  403) = (   0.4419417  -0.0294628   0.6776440), wk =   0.0017361
        k(  404) = (   0.4124790  -0.0000000   0.6481812), wk =   0.0017361
        k(  405) = (  -0.2357023  -0.7071068   0.0000000), wk =   0.0017361
        k(  406) = (   0.4124790  -0.1178511   0.7071068), wk =   0.0017361
        k(  407) = (   0.3830162  -0.0883883   0.6776440), wk =   0.0017361
        k(  408) = (   0.3535534  -0.0589256   0.6481812), wk =   0.0017361
        k(  409) = (   0.4124790  -0.0589256   0.7071068), wk =   0.0017361
        k(  410) = (   0.3830162  -0.0294628   0.6776440), wk =   0.0017361
        k(  411) = (   0.3535534   0.0000000   0.6481812), wk =   0.0017361
        k(  412) = (  -0.2946278  -0.7071068   0.0000000), wk =   0.0017361
        k(  413) = (  -0.3535534  -0.7071068   0.0000000), wk =   0.0008681
        k(  414) = (  -0.0294628   0.0294628   0.0294628), wk =   0.0002894
        k(  415) = (  -0.0589256   0.0589256   0.0589256), wk =   0.0002894
        k(  416) = (  -0.0883883   0.0883883   0.0883883), wk =   0.0002894
        k(  417) = (  -0.1178511   0.1178511   0.1178511), wk =   0.0002894
        k(  418) = (  -0.1473139   0.1473139   0.1473139), wk =   0.0002894
        k(  419) = (  -0.1767767   0.1767767   0.1767767), wk =   0.0002894
        k(  420) = (  -0.2062395   0.2062395   0.2062395), wk =   0.0002894
        k(  421) = (  -0.2357023   0.2357023   0.2357023), wk =   0.0002894
        k(  422) = (  -0.2651650   0.2651650   0.2651650), wk =   0.0002894
        k(  423) = (  -0.2946278   0.2946278   0.2946278), wk =   0.0002894
        k(  424) = (  -0.3240906   0.3240906   0.3240906), wk =   0.0002894
        k(  425) = (   0.3535534  -0.3535534  -0.3535534), wk =   0.0001447
        k(  426) = (  -0.0883883  -0.0294628  -0.0294628), wk =   0.0008681
        k(  427) = (  -0.0294628   0.0883883   0.0294628), wk =   0.0008681
        k(  428) = (  -0.1178511  -0.0589256  -0.0589256), wk =   0.0008681
        k(  429) = (  -0.0589256   0.1178511   0.0589256), wk =   0.0008681
        k(  430) = (  -0.1473139  -0.0883883  -0.0883883), wk =   0.0008681
        k(  431) = (  -0.0883883   0.1473139   0.0883883), wk =   0.0008681
        k(  432) = (  -0.1767767  -0.1178511  -0.1178511), wk =   0.0008681
        k(  433) = (  -0.1178511   0.1767767   0.1178511), wk =   0.0008681
        k(  434) = (  -0.2062395  -0.1473139  -0.1473139), wk =   0.0008681
        k(  435) = (  -0.1473139   0.2062395   0.1473139), wk =   0.0008681
        k(  436) = (  -0.2357023  -0.1767767  -0.1767767), wk =   0.0008681
        k(  437) = (  -0.1767767   0.2357023   0.1767767), wk =   0.0008681
        k(  438) = (  -0.2651650  -0.2062395  -0.2062395), wk =   0.0008681
        k(  439) = (  -0.2062395   0.2651650   0.2062395), wk =   0.0008681
        k(  440) = (  -0.2946278  -0.2357023  -0.2357023), wk =   0.0008681
        k(  441) = (  -0.2357023   0.2946278   0.2357023), wk =   0.0008681
        k(  442) = (  -0.3240906  -0.2651650  -0.2651650), wk =   0.0008681
        k(  443) = (  -0.2651650   0.3240906   0.2651650), wk =   0.0008681
        k(  444) = (  -0.3535534  -0.2946278  -0.2946278), wk =   0.0008681
        k(  445) = (  -0.2946278   0.3535534   0.2946278), wk =   0.0008681
        k(  446) = (   0.3240906   0.3830162   0.3830162), wk =   0.0008681
        k(  447) = (   0.3830162  -0.3240906  -0.3830162), wk =   0.0008681
        k(  448) = (   0.2946278   0.3535534   0.3535534), wk =   0.0008681
        k(  449) = (   0.3535534  -0.2946278  -0.3535534), wk =   0.0008681
        k(  450) = (   0.2651650   0.3240906   0.3240906), wk =   0.0008681
        k(  451) = (   0.3240906  -0.2651650  -0.3240906), wk =   0.0008681
        k(  452) = (   0.2357023   0.2946278   0.2946278), wk =   0.0008681
        k(  453) = (   0.2946278  -0.2357023  -0.2946278), wk =   0.0008681
        k(  454) = (   0.2062395   0.2651650   0.2651650), wk =   0.0008681
        k(  455) = (   0.2651650  -0.2062395  -0.2651650), wk =   0.0008681
        k(  456) = (   0.1767767   0.2357023   0.2357023), wk =   0.0008681
        k(  457) = (   0.2357023  -0.1767767  -0.2357023), wk =   0.0008681
        k(  458) = (   0.1473139   0.2062395   0.2062395), wk =   0.0008681
        k(  459) = (   0.2062395  -0.1473139  -0.2062395), wk =   0.0008681
        k(  460) = (   0.1178511   0.1767767   0.1767767), wk =   0.0008681
        k(  461) = (   0.1767767  -0.1178511  -0.1767767), wk =   0.0008681
        k(  462) = (   0.0883883   0.1473139   0.1473139), wk =   0.0008681
        k(  463) = (   0.1473139  -0.0883883  -0.1473139), wk =   0.0008681
        k(  464) = (   0.0589256   0.1178511   0.1178511), wk =   0.0008681
        k(  465) = (   0.1178511  -0.0589256  -0.1178511), wk =   0.0008681
        k(  466) = (   0.0294628   0.0883883   0.0883883), wk =   0.0008681
        k(  467) = (   0.0883883  -0.0294628  -0.0883883), wk =   0.0008681
        k(  468) = (   0.0000000   0.0589256   0.0589256), wk =   0.0008681
        k(  469) = (  -0.1473139  -0.0294628  -0.0294628), wk =   0.0008681
        k(  470) = (  -0.0294628   0.1473139   0.0294628), wk =   0.0008681
        k(  471) = (  -0.1767767  -0.0589256  -0.0589256), wk =   0.0008681
        k(  472) = (  -0.0589256   0.1767767   0.0589256), wk =   0.0008681
        k(  473) = (  -0.2062395  -0.0883883  -0.0883883), wk =   0.0008681
        k(  474) = (  -0.0883883   0.2062395   0.0883883), wk =   0.0008681
        k(  475) = (  -0.2357023  -0.1178511  -0.1178511), wk =   0.0008681
        k(  476) = (  -0.1178511   0.2357023   0.1178511), wk =   0.0008681
        k(  477) = (  -0.2651650  -0.1473139  -0.1473139), wk =   0.0008681
        k(  478) = (  -0.1473139   0.2651650   0.1473139), wk =   0.0008681
        k(  479) = (  -0.2946278  -0.1767767  -0.1767767), wk =   0.0008681
        k(  480) = (  -0.1767767   0.2946278   0.1767767), wk =   0.0008681
        k(  481) = (  -0.3240906  -0.2062395  -0.2062395), wk =   0.0008681
        k(  482) = (  -0.2062395   0.3240906   0.2062395), wk =   0.0008681
        k(  483) = (  -0.3535534  -0.2357023  -0.2357023), wk =   0.0008681
        k(  484) = (  -0.2357023   0.3535534   0.2357023), wk =   0.0008681
        k(  485) = (  -0.3830162  -0.2651650  -0.2651650), wk =   0.0008681
        k(  486) = (  -0.2651650   0.3830162   0.2651650), wk =   0.0008681
        k(  487) = (   0.2946278   0.4124790   0.4124790), wk =   0.0008681
        k(  488) = (   0.4124790  -0.2946278  -0.4124790), wk =   0.0008681
        k(  489) = (   0.2651650   0.3830162   0.3830162), wk =   0.0008681
        k(  490) = (   0.3830162  -0.2651650  -0.3830162), wk =   0.0008681
        k(  491) = (   0.2357023   0.3535534   0.3535534), wk =   0.0008681
        k(  492) = (   0.3535534  -0.2357023  -0.3535534), wk =   0.0008681
        k(  493) = (   0.2062395   0.3240906   0.3240906), wk =   0.0008681
        k(  494) = (   0.3240906  -0.2062395  -0.3240906), wk =   0.0008681
        k(  495) = (   0.1767767   0.2946278   0.2946278), wk =   0.0008681
        k(  496) = (   0.2946278  -0.1767767  -0.2946278), wk =   0.0008681
        k(  497) = (   0.1473139   0.2651650   0.2651650), wk =   0.0008681
        k(  498) = (   0.2651650  -0.1473139  -0.2651650), wk =   0.0008681
        k(  499) = (   0.1178511   0.2357023   0.2357023), wk =   0.0008681
        k(  500) = (   0.2357023  -0.1178511  -0.2357023), wk =   0.0008681
        k(  501) = (   0.0883883   0.2062395   0.2062395), wk =   0.0008681
        k(  502) = (   0.2062395  -0.0883883  -0.2062395), wk =   0.0008681
        k(  503) = (   0.0589256   0.1767767   0.1767767), wk =   0.0008681
        k(  504) = (   0.1767767  -0.0589256  -0.1767767), wk =   0.0008681
        k(  505) = (   0.0294628   0.1473139   0.1473139), wk =   0.0008681
        k(  506) = (   0.1473139  -0.0294628  -0.1473139), wk =   0.0008681
        k(  507) = (   0.0000000   0.1178511   0.1178511), wk =   0.0008681
        k(  508) = (  -0.2062395  -0.0294628  -0.0294628), wk =   0.0008681
        k(  509) = (  -0.0294628   0.2062395   0.0294628), wk =   0.0008681
        k(  510) = (  -0.2357023  -0.0589256  -0.0589256), wk =   0.0008681
        k(  511) = (  -0.0589256   0.2357023   0.0589256), wk =   0.0008681
        k(  512) = (  -0.2651650  -0.0883883  -0.0883883), wk =   0.0008681
        k(  513) = (  -0.0883883   0.2651650   0.0883883), wk =   0.0008681
        k(  514) = (  -0.2946278  -0.1178511  -0.1178511), wk =   0.0008681
        k(  515) = (  -0.1178511   0.2946278   0.1178511), wk =   0.0008681
        k(  516) = (  -0.3240906  -0.1473139  -0.1473139), wk =   0.0008681
        k(  517) = (  -0.1473139   0.3240906   0.1473139), wk =   0.0008681
        k(  518) = (  -0.3535534  -0.1767767  -0.1767767), wk =   0.0008681
        k(  519) = (  -0.1767767   0.3535534   0.1767767), wk =   0.0008681
        k(  520) = (  -0.3830162  -0.2062395  -0.2062395), wk =   0.0008681
        k(  521) = (  -0.2062395   0.3830162   0.2062395), wk =   0.0008681
        k(  522) = (  -0.4124790  -0.2357023  -0.2357023), wk =   0.0008681
        k(  523) = (  -0.2357023   0.4124790   0.2357023), wk =   0.0008681
        k(  524) = (   0.2651650   0.4419417   0.4419417), wk =   0.0008681
        k(  525) = (   0.4419417  -0.2651650  -0.4419417), wk =   0.0008681
        k(  526) = (   0.2357023   0.4124790   0.4124790), wk =   0.0008681
        k(  527) = (   0.4124790  -0.2357023  -0.4124790), wk =   0.0008681
        k(  528) = (   0.2062395   0.3830162   0.3830162), wk =   0.0008681
        k(  529) = (   0.3830162  -0.2062395  -0.3830162), wk =   0.0008681
        k(  530) = (   0.1767767   0.3535534   0.3535534), wk =   0.0008681
        k(  531) = (   0.3535534  -0.1767767  -0.3535534), wk =   0.0008681
        k(  532) = (   0.1473139   0.3240906   0.3240906), wk =   0.0008681
        k(  533) = (   0.3240906  -0.1473139  -0.3240906), wk =   0.0008681
        k(  534) = (   0.1178511   0.2946278   0.2946278), wk =   0.0008681
        k(  535) = (   0.2946278  -0.1178511  -0.2946278), wk =   0.0008681
        k(  536) = (   0.0883883   0.2651650   0.2651650), wk =   0.0008681
        k(  537) = (   0.2651650  -0.0883883  -0.2651650), wk =   0.0008681
        k(  538) = (   0.0589256   0.2357023   0.2357023), wk =   0.0008681
        k(  539) = (   0.2357023  -0.0589256  -0.2357023), wk =   0.0008681
        k(  540) = (   0.0294628   0.2062395   0.2062395), wk =   0.0008681
        k(  541) = (   0.2062395  -0.0294628  -0.2062395), wk =   0.0008681
        k(  542) = (   0.0000000   0.1767767   0.1767767), wk =   0.0008681
        k(  543) = (  -0.2651650  -0.0294628  -0.0294628), wk =   0.0008681
        k(  544) = (  -0.0294628   0.2651650   0.0294628), wk =   0.0008681
        k(  545) = (  -0.2946278  -0.0589256  -0.0589256), wk =   0.0008681
        k(  546) = (  -0.0589256   0.2946278   0.0589256), wk =   0.0008681
        k(  547) = (  -0.3240906  -0.0883883  -0.0883883), wk =   0.0008681
        k(  548) = (  -0.0883883   0.3240906   0.0883883), wk =   0.0008681
        k(  549) = (  -0.3535534  -0.1178511  -0.1178511), wk =   0.0008681
        k(  550) = (  -0.1178511   0.3535534   0.1178511), wk =   0.0008681
        k(  551) = (  -0.3830162  -0.1473139  -0.1473139), wk =   0.0008681
        k(  552) = (  -0.1473139   0.3830162   0.1473139), wk =   0.0008681
        k(  553) = (  -0.4124790  -0.1767767  -0.1767767), wk =   0.0008681
        k(  554) = (  -0.1767767   0.4124790   0.1767767), wk =   0.0008681
        k(  555) = (  -0.4419417  -0.2062395  -0.2062395), wk =   0.0008681
        k(  556) = (  -0.2062395   0.4419417   0.2062395), wk =   0.0008681
        k(  557) = (   0.2357023   0.4714045   0.4714045), wk =   0.0008681
        k(  558) = (   0.4714045  -0.2357023  -0.4714045), wk =   0.0008681
        k(  559) = (   0.2062395   0.4419417   0.4419417), wk =   0.0008681
        k(  560) = (   0.4419417  -0.2062395  -0.4419417), wk =   0.0008681
        k(  561) = (   0.1767767   0.4124790   0.4124790), wk =   0.0008681
        k(  562) = (   0.4124790  -0.1767767  -0.4124790), wk =   0.0008681
        k(  563) = (   0.1473139   0.3830162   0.3830162), wk =   0.0008681
        k(  564) = (   0.3830162  -0.1473139  -0.3830162), wk =   0.0008681
        k(  565) = (   0.1178511   0.3535534   0.3535534), wk =   0.0008681
        k(  566) = (   0.3535534  -0.1178511  -0.3535534), wk =   0.0008681
        k(  567) = (   0.0883883   0.3240906   0.3240906), wk =   0.0008681
        k(  568) = (   0.3240906  -0.0883883  -0.3240906), wk =   0.0008681
        k(  569) = (   0.0589256   0.2946278   0.2946278), wk =   0.0008681
        k(  570) = (   0.2946278  -0.0589256  -0.2946278), wk =   0.0008681
        k(  571) = (   0.0294628   0.2651650   0.2651650), wk =   0.0008681
        k(  572) = (   0.2651650  -0.0294628  -0.2651650), wk =   0.0008681
        k(  573) = (   0.0000000   0.2357023   0.2357023), wk =   0.0008681
        k(  574) = (  -0.3240906  -0.0294628  -0.0294628), wk =   0.0008681
        k(  575) = (  -0.0294628   0.3240906   0.0294628), wk =   0.0008681
        k(  576) = (  -0.3535534  -0.0589256  -0.0589256), wk =   0.0008681
        k(  577) = (  -0.0589256   0.3535534   0.0589256), wk =   0.0008681
        k(  578) = (  -0.3830162  -0.0883883  -0.0883883), wk =   0.0008681
        k(  579) = (  -0.0883883   0.3830162   0.0883883), wk =   0.0008681
        k(  580) = (  -0.4124790  -0.1178511  -0.1178511), wk =   0.0008681
        k(  581) = (  -0.1178511   0.4124790   0.1178511), wk =   0.0008681
        k(  582) = (  -0.4419417  -0.1473139  -0.1473139), wk =   0.0008681
        k(  583) = (  -0.1473139   0.4419417   0.1473139), wk =   0.0008681
        k(  584) = (  -0.4714045  -0.1767767  -0.1767767), wk =   0.0008681
        k(  585) = (  -0.1767767   0.4714045   0.1767767), wk =   0.0008681
        k(  586) = (   0.2062395   0.5008673   0.5008673), wk =   0.0008681
        k(  587) = (   0.5008673  -0.2062395  -0.5008673), wk =   0.0008681
        k(  588) = (   0.1767767   0.4714045   0.4714045), wk =   0.0008681
        k(  589) = (   0.4714045  -0.1767767  -0.4714045), wk =   0.0008681
        k(  590) = (   0.1473139   0.4419417   0.4419417), wk =   0.0008681
        k(  591) = (   0.4419417  -0.1473139  -0.4419417), wk =   0.0008681
        k(  592) = (   0.1178511   0.4124790   0.4124790), wk =   0.0008681
        k(  593) = (   0.4124790  -0.1178511  -0.4124790), wk =   0.0008681
        k(  594) = (   0.0883883   0.3830162   0.3830162), wk =   0.0008681
        k(  595) = (   0.3830162  -0.0883883  -0.3830162), wk =   0.0008681
        k(  596) = (   0.0589256   0.3535534   0.3535534), wk =   0.0008681
        k(  597) = (   0.3535534  -0.0589256  -0.3535534), wk =   0.0008681
        k(  598) = (   0.0294628   0.3240906   0.3240906), wk =   0.0008681
        k(  599) = (   0.3240906  -0.0294628  -0.3240906), wk =   0.0008681
        k(  600) = (   0.0000000   0.2946278   0.2946278), wk =   0.0008681
        k(  601) = (  -0.3830162  -0.0294628  -0.0294628), wk =   0.0008681
        k(  602) = (  -0.0294628   0.3830162   0.0294628), wk =   0.0008681
        k(  603) = (  -0.4124790  -0.0589256  -0.0589256), wk =   0.0008681
        k(  604) = (  -0.0589256   0.4124790   0.0589256), wk =   0.0008681
        k(  605) = (  -0.4419417  -0.0883883  -0.0883883), wk =   0.0008681
        k(  606) = (  -0.0883883   0.4419417   0.0883883), wk =   0.0008681
        k(  607) = (  -0.4714045  -0.1178511  -0.1178511), wk =   0.0008681
        k(  608) = (  -0.1178511   0.4714045   0.1178511), wk =   0.0008681
        k(  609) = (  -0.5008673  -0.1473139  -0.1473139), wk =   0.0008681
        k(  610) = (  -0.1473139   0.5008673   0.1473139), wk =   0.0008681
        k(  611) = (   0.1767767   0.5303301   0.5303301), wk =   0.0008681
        k(  612) = (   0.5303301  -0.1767767  -0.5303301), wk =   0.0008681
        k(  613) = (   0.1473139   0.5008673   0.5008673), wk =   0.0008681
        k(  614) = (   0.5008673  -0.1473139  -0.5008673), wk =   0.0008681
        k(  615) = (   0.1178511   0.4714045   0.4714045), wk =   0.0008681
        k(  616) = (   0.4714045  -0.1178511  -0.4714045), wk =   0.0008681
        k(  617) = (   0.0883883   0.4419417   0.4419417), wk =   0.0008681
        k(  618) = (   0.4419417  -0.0883883  -0.4419417), wk =   0.0008681
        k(  619) = (   0.0589256   0.4124790   0.4124790), wk =   0.0008681
        k(  620) = (   0.4124790  -0.0589256  -0.4124790), wk =   0.0008681
        k(  621) = (   0.0294628   0.3830162   0.3830162), wk =   0.0008681
        k(  622) = (   0.3830162  -0.0294628  -0.3830162), wk =   0.0008681
        k(  623) = (   0.0000000   0.3535534   0.3535534), wk =   0.0008681
        k(  624) = (  -0.4419417  -0.0294628  -0.0294628), wk =   0.0008681
        k(  625) = (  -0.0294628   0.4419417   0.0294628), wk =   0.0008681
        k(  626) = (  -0.4714045  -0.0589256  -0.0589256), wk =   0.0008681
        k(  627) = (  -0.0589256   0.4714045   0.0589256), wk =   0.0008681
        k(  628) = (  -0.5008673  -0.0883883  -0.0883883), wk =   0.0008681
        k(  629) = (  -0.0883883   0.5008673   0.0883883), wk =   0.0008681
        k(  630) = (  -0.5303301  -0.1178511  -0.1178511), wk =   0.0008681
        k(  631) = (  -0.1178511   0.5303301   0.1178511), wk =   0.0008681
        k(  632) = (   0.1473139   0.5597929   0.5597929), wk =   0.0008681
        k(  633) = (   0.5597929  -0.1473139  -0.5597929), wk =   0.0008681
        k(  634) = (   0.1178511   0.5303301   0.5303301), wk =   0.0008681
        k(  635) = (   0.5303301  -0.1178511  -0.5303301), wk =   0.0008681
        k(  636) = (   0.0883883   0.5008673   0.5008673), wk =   0.0008681
        k(  637) = (   0.5008673  -0.0883883  -0.5008673), wk =   0.0008681
        k(  638) = (   0.0589256   0.4714045   0.4714045), wk =   0.0008681
        k(  639) = (   0.4714045  -0.0589256  -0.4714045), wk =   0.0008681
        k(  640) = (   0.0294628   0.4419417   0.4419417), wk =   0.0008681
        k(  641) = (   0.4419417  -0.0294628  -0.4419417), wk =   0.0008681
        k(  642) = (   0.0000000   0.4124790   0.4124790), wk =   0.0008681
        k(  643) = (  -0.5008673  -0.0294628  -0.0294628), wk =   0.0008681
        k(  644) = (  -0.0294628   0.5008673   0.0294628), wk =   0.0008681
        k(  645) = (  -0.5303301  -0.0589256  -0.0589256), wk =   0.0008681
        k(  646) = (  -0.0589256   0.5303301   0.0589256), wk =   0.0008681
        k(  647) = (  -0.5597929  -0.0883883  -0.0883883), wk =   0.0008681
        k(  648) = (  -0.0883883   0.5597929   0.0883883), wk =   0.0008681
        k(  649) = (   0.1178511   0.5892557   0.5892557), wk =   0.0008681
        k(  650) = (   0.5892557  -0.1178511  -0.5892557), wk =   0.0008681
        k(  651) = (   0.0883883   0.5597929   0.5597929), wk =   0.0008681
        k(  652) = (   0.5597929  -0.0883883  -0.5597929), wk =   0.0008681
        k(  653) = (   0.0589256   0.5303301   0.5303301), wk =   0.0008681
        k(  654) = (   0.5303301  -0.0589256  -0.5303301), wk =   0.0008681
        k(  655) = (   0.0294628   0.5008673   0.5008673), wk =   0.0008681
        k(  656) = (   0.5008673  -0.0294628  -0.5008673), wk =   0.0008681
        k(  657) = (   0.0000000   0.4714045   0.4714045), wk =   0.0008681
        k(  658) = (  -0.5597929  -0.0294628  -0.0294628), wk =   0.0008681
        k(  659) = (  -0.0294628   0.5597929   0.0294628), wk =   0.0008681
        k(  660) = (  -0.5892557  -0.0589256  -0.0589256), wk =   0.0008681
        k(  661) = (  -0.0589256   0.5892557   0.0589256), wk =   0.0008681
        k(  662) = (   0.0883883   0.6187184   0.6187184), wk =   0.0008681
        k(  663) = (   0.6187184  -0.0883883  -0.6187184), wk =   0.0008681
        k(  664) = (   0.0589256   0.5892557   0.5892557), wk =   0.0008681
        k(  665) = (   0.5892557  -0.0589256  -0.5892557), wk =   0.0008681
        k(  666) = (   0.0294628   0.5597929   0.5597929), wk =   0.0008681
        k(  667) = (   0.5597929  -0.0294628  -0.5597929), wk =   0.0008681
        k(  668) = (   0.0000000   0.5303301   0.5303301), wk =   0.0008681
        k(  669) = (  -0.6187184  -0.0294628  -0.0294628), wk =   0.0008681
        k(  670) = (  -0.0294628   0.6187184   0.0294628), wk =   0.0008681
        k(  671) = (   0.0589256   0.6481812   0.6481812), wk =   0.0008681
        k(  672) = (   0.6481812  -0.0589256  -0.6481812), wk =   0.0008681
        k(  673) = (   0.0294628   0.6187184   0.6187184), wk =   0.0008681
        k(  674) = (   0.6187184  -0.0294628  -0.6187184), wk =   0.0008681
        k(  675) = (   0.0000000   0.5892557   0.5892557), wk =   0.0008681
        k(  676) = (   0.0294628   0.6776440   0.6776440), wk =   0.0008681
        k(  677) = (   0.6776440  -0.0294628  -0.6776440), wk =   0.0008681
        k(  678) = (   0.0000000   0.6481812   0.6481812), wk =   0.0008681
        k(  679) = (   0.1178511   0.0589256  -0.0000000), wk =   0.0017361
        k(  680) = (   0.1473139   0.0883883  -0.0294628), wk =   0.0017361
        k(  681) = (  -0.1473139  -0.0883883  -0.0294628), wk =   0.0017361
        k(  682) = (  -0.0294628   0.1473139   0.0883883), wk =   0.0017361
        k(  683) = (   0.1767767   0.1178511  -0.0589256), wk =   0.0017361
        k(  684) = (  -0.1767767  -0.1178511  -0.0589256), wk =   0.0017361
        k(  685) = (  -0.0589256   0.1767767   0.1178511), wk =   0.0017361
        k(  686) = (   0.2062395   0.1473139  -0.0883883), wk =   0.0017361
        k(  687) = (  -0.2062395  -0.1473139  -0.0883883), wk =   0.0017361
        k(  688) = (  -0.0883883   0.2062395   0.1473139), wk =   0.0017361
        k(  689) = (   0.2357023   0.1767767  -0.1178511), wk =   0.0017361
        k(  690) = (  -0.2357023  -0.1767767  -0.1178511), wk =   0.0017361
        k(  691) = (  -0.1178511   0.2357023   0.1767767), wk =   0.0017361
        k(  692) = (   0.2651650   0.2062395  -0.1473139), wk =   0.0017361
        k(  693) = (  -0.2651650  -0.2062395  -0.1473139), wk =   0.0017361
        k(  694) = (  -0.1473139   0.2651650   0.2062395), wk =   0.0017361
        k(  695) = (   0.2946278   0.2357023  -0.1767767), wk =   0.0017361
        k(  696) = (  -0.2946278  -0.2357023  -0.1767767), wk =   0.0017361
        k(  697) = (  -0.1767767   0.2946278   0.2357023), wk =   0.0017361
        k(  698) = (   0.3240906   0.2651650  -0.2062395), wk =   0.0017361
        k(  699) = (  -0.3240906  -0.2651650  -0.2062395), wk =   0.0017361
        k(  700) = (  -0.2062395   0.3240906   0.2651650), wk =   0.0017361
        k(  701) = (   0.3535534   0.2946278  -0.2357023), wk =   0.0017361
        k(  702) = (  -0.3535534  -0.2946278  -0.2357023), wk =   0.0017361
        k(  703) = (  -0.2357023   0.3535534   0.2946278), wk =   0.0017361
        k(  704) = (  -0.3240906  -0.3830162   0.4419417), wk =   0.0017361
        k(  705) = (   0.3240906   0.3830162   0.4419417), wk =   0.0017361
        k(  706) = (   0.4419417  -0.3240906  -0.3830162), wk =   0.0017361
        k(  707) = (  -0.2946278  -0.3535534   0.4124790), wk =   0.0008681
        k(  708) = (   0.4124790  -0.2946278  -0.3535534), wk =   0.0008681
        k(  709) = (   0.1767767   0.0589256   0.0000000), wk =   0.0017361
        k(  710) = (   0.2062395   0.0883883  -0.0294628), wk =   0.0017361
        k(  711) = (  -0.2062395  -0.0883883  -0.0294628), wk =   0.0017361
        k(  712) = (  -0.0294628   0.2062395   0.0883883), wk =   0.0017361
        k(  713) = (   0.2357023   0.1178511  -0.0589256), wk =   0.0017361
        k(  714) = (  -0.2357023  -0.1178511  -0.0589256), wk =   0.0017361
        k(  715) = (  -0.0589256   0.2357023   0.1178511), wk =   0.0017361
        k(  716) = (   0.2651650   0.1473139  -0.0883883), wk =   0.0017361
        k(  717) = (  -0.2651650  -0.1473139  -0.0883883), wk =   0.0017361
        k(  718) = (  -0.0883883   0.2651650   0.1473139), wk =   0.0017361
        k(  719) = (   0.2946278   0.1767767  -0.1178511), wk =   0.0017361
        k(  720) = (  -0.2946278  -0.1767767  -0.1178511), wk =   0.0017361
        k(  721) = (  -0.1178511   0.2946278   0.1767767), wk =   0.0017361
        k(  722) = (   0.3240906   0.2062395  -0.1473139), wk =   0.0017361
        k(  723) = (  -0.3240906  -0.2062395  -0.1473139), wk =   0.0017361
        k(  724) = (  -0.1473139   0.3240906   0.2062395), wk =   0.0017361
        k(  725) = (   0.3535534   0.2357023  -0.1767767), wk =   0.0017361
        k(  726) = (  -0.3535534  -0.2357023  -0.1767767), wk =   0.0017361
        k(  727) = (  -0.1767767   0.3535534   0.2357023), wk =   0.0017361
        k(  728) = (   0.3830162   0.2651650  -0.2062395), wk =   0.0017361
        k(  729) = (  -0.3830162  -0.2651650  -0.2062395), wk =   0.0017361
        k(  730) = (  -0.2062395   0.3830162   0.2651650), wk =   0.0017361
        k(  731) = (  -0.2946278  -0.4124790   0.4714045), wk =   0.0017361
        k(  732) = (   0.2946278   0.4124790   0.4714045), wk =   0.0017361
        k(  733) = (   0.4714045  -0.2946278  -0.4124790), wk =   0.0017361
        k(  734) = (  -0.2651650  -0.3830162   0.4419417), wk =   0.0017361
        k(  735) = (   0.2651650   0.3830162   0.4419417), wk =   0.0017361
        k(  736) = (   0.4419417  -0.2651650  -0.3830162), wk =   0.0017361
        k(  737) = (  -0.2357023  -0.3535534   0.4124790), wk =   0.0017361
        k(  738) = (   0.2357023   0.3535534   0.4124790), wk =   0.0017361
        k(  739) = (   0.4124790  -0.2357023  -0.3535534), wk =   0.0017361
        k(  740) = (  -0.2062395  -0.3240906   0.3830162), wk =   0.0017361
        k(  741) = (   0.2062395   0.3240906   0.3830162), wk =   0.0017361
        k(  742) = (   0.3830162  -0.2062395  -0.3240906), wk =   0.0017361
        k(  743) = (  -0.1767767  -0.2946278   0.3535534), wk =   0.0017361
        k(  744) = (   0.1767767   0.2946278   0.3535534), wk =   0.0017361
        k(  745) = (   0.3535534  -0.1767767  -0.2946278), wk =   0.0017361
        k(  746) = (  -0.1473139  -0.2651650   0.3240906), wk =   0.0017361
        k(  747) = (   0.1473139   0.2651650   0.3240906), wk =   0.0017361
        k(  748) = (   0.3240906  -0.1473139  -0.2651650), wk =   0.0017361
        k(  749) = (  -0.1178511  -0.2357023   0.2946278), wk =   0.0017361
        k(  750) = (   0.1178511   0.2357023   0.2946278), wk =   0.0017361
        k(  751) = (   0.2946278  -0.1178511  -0.2357023), wk =   0.0017361
        k(  752) = (  -0.0883883  -0.2062395   0.2651650), wk =   0.0017361
        k(  753) = (   0.0883883   0.2062395   0.2651650), wk =   0.0017361
        k(  754) = (   0.2651650  -0.0883883  -0.2062395), wk =   0.0017361
        k(  755) = (  -0.0589256  -0.1767767   0.2357023), wk =   0.0017361
        k(  756) = (   0.0589256   0.1767767   0.2357023), wk =   0.0017361
        k(  757) = (   0.2357023  -0.0589256  -0.1767767), wk =   0.0017361
        k(  758) = (  -0.0294628  -0.1473139   0.2062395), wk =   0.0017361
        k(  759) = (   0.0294628   0.1473139   0.2062395), wk =   0.0017361
        k(  760) = (   0.2062395  -0.0294628  -0.1473139), wk =   0.0017361
        k(  761) = (   0.0000000   0.1178511   0.1767767), wk =   0.0017361
        k(  762) = (   0.2357023   0.0589256   0.0000000), wk =   0.0017361
        k(  763) = (   0.2651650   0.0883883  -0.0294628), wk =   0.0017361
        k(  764) = (  -0.2651650  -0.0883883  -0.0294628), wk =   0.0017361
        k(  765) = (  -0.0294628   0.2651650   0.0883883), wk =   0.0017361
        k(  766) = (   0.2946278   0.1178511  -0.0589256), wk =   0.0017361
        k(  767) = (  -0.2946278  -0.1178511  -0.0589256), wk =   0.0017361
        k(  768) = (  -0.0589256   0.2946278   0.1178511), wk =   0.0017361
        k(  769) = (   0.3240906   0.1473139  -0.0883883), wk =   0.0017361
        k(  770) = (  -0.3240906  -0.1473139  -0.0883883), wk =   0.0017361
        k(  771) = (  -0.0883883   0.3240906   0.1473139), wk =   0.0017361
        k(  772) = (   0.3535534   0.1767767  -0.1178511), wk =   0.0017361
        k(  773) = (  -0.3535534  -0.1767767  -0.1178511), wk =   0.0017361
        k(  774) = (  -0.1178511   0.3535534   0.1767767), wk =   0.0017361
        k(  775) = (   0.3830162   0.2062395  -0.1473139), wk =   0.0017361
        k(  776) = (  -0.3830162  -0.2062395  -0.1473139), wk =   0.0017361
        k(  777) = (  -0.1473139   0.3830162   0.2062395), wk =   0.0017361
        k(  778) = (   0.4124790   0.2357023  -0.1767767), wk =   0.0017361
        k(  779) = (  -0.4124790  -0.2357023  -0.1767767), wk =   0.0017361
        k(  780) = (  -0.1767767   0.4124790   0.2357023), wk =   0.0017361
        k(  781) = (  -0.2651650  -0.4419417   0.5008673), wk =   0.0017361
        k(  782) = (   0.2651650   0.4419417   0.5008673), wk =   0.0017361
        k(  783) = (   0.5008673  -0.2651650  -0.4419417), wk =   0.0017361
        k(  784) = (  -0.2357023  -0.4124790   0.4714045), wk =   0.0017361
        k(  785) = (   0.2357023   0.4124790   0.4714045), wk =   0.0017361
        k(  786) = (   0.4714045  -0.2357023  -0.4124790), wk =   0.0017361
        k(  787) = (  -0.2062395  -0.3830162   0.4419417), wk =   0.0017361
        k(  788) = (   0.2062395   0.3830162   0.4419417), wk =   0.0017361
        k(  789) = (   0.4419417  -0.2062395  -0.3830162), wk =   0.0017361
        k(  790) = (  -0.1767767  -0.3535534   0.4124790), wk =   0.0017361
        k(  791) = (   0.1767767   0.3535534   0.4124790), wk =   0.0017361
        k(  792) = (   0.4124790  -0.1767767  -0.3535534), wk =   0.0017361
        k(  793) = (  -0.1473139  -0.3240906   0.3830162), wk =   0.0017361
        k(  794) = (   0.1473139   0.3240906   0.3830162), wk =   0.0017361
        k(  795) = (   0.3830162  -0.1473139  -0.3240906), wk =   0.0017361
        k(  796) = (  -0.1178511  -0.2946278   0.3535534), wk =   0.0017361
        k(  797) = (   0.1178511   0.2946278   0.3535534), wk =   0.0017361
        k(  798) = (   0.3535534  -0.1178511  -0.2946278), wk =   0.0017361
        k(  799) = (  -0.0883883  -0.2651650   0.3240906), wk =   0.0017361
        k(  800) = (   0.0883883   0.2651650   0.3240906), wk =   0.0017361
        k(  801) = (   0.3240906  -0.0883883  -0.2651650), wk =   0.0017361
        k(  802) = (  -0.0589256  -0.2357023   0.2946278), wk =   0.0017361
        k(  803) = (   0.0589256   0.2357023   0.2946278), wk =   0.0017361
        k(  804) = (   0.2946278  -0.0589256  -0.2357023), wk =   0.0017361
        k(  805) = (  -0.0294628  -0.2062395   0.2651650), wk =   0.0017361
        k(  806) = (   0.0294628   0.2062395   0.2651650), wk =   0.0017361
        k(  807) = (   0.2651650  -0.0294628  -0.2062395), wk =   0.0017361
        k(  808) = (  -0.0000000   0.1767767   0.2357023), wk =   0.0017361
        k(  809) = (   0.2946278   0.0589256  -0.0000000), wk =   0.0017361
        k(  810) = (   0.3240906   0.0883883  -0.0294628), wk =   0.0017361
        k(  811) = (  -0.3240906  -0.0883883  -0.0294628), wk =   0.0017361
        k(  812) = (  -0.0294628   0.3240906   0.0883883), wk =   0.0017361
        k(  813) = (   0.3535534   0.1178511  -0.0589256), wk =   0.0017361
        k(  814) = (  -0.3535534  -0.1178511  -0.0589256), wk =   0.0017361
        k(  815) = (  -0.0589256   0.3535534   0.1178511), wk =   0.0017361
        k(  816) = (   0.3830162   0.1473139  -0.0883883), wk =   0.0017361
        k(  817) = (  -0.3830162  -0.1473139  -0.0883883), wk =   0.0017361
        k(  818) = (  -0.0883883   0.3830162   0.1473139), wk =   0.0017361
        k(  819) = (   0.4124790   0.1767767  -0.1178511), wk =   0.0017361
        k(  820) = (  -0.4124790  -0.1767767  -0.1178511), wk =   0.0017361
        k(  821) = (  -0.1178511   0.4124790   0.1767767), wk =   0.0017361
        k(  822) = (   0.4419417   0.2062395  -0.1473139), wk =   0.0017361
        k(  823) = (  -0.4419417  -0.2062395  -0.1473139), wk =   0.0017361
        k(  824) = (  -0.1473139   0.4419417   0.2062395), wk =   0.0017361
        k(  825) = (  -0.2357023  -0.4714045   0.5303301), wk =   0.0017361
        k(  826) = (   0.2357023   0.4714045   0.5303301), wk =   0.0017361
        k(  827) = (   0.5303301  -0.2357023  -0.4714045), wk =   0.0017361
        k(  828) = (  -0.2062395  -0.4419417   0.5008673), wk =   0.0017361
        k(  829) = (   0.2062395   0.4419417   0.5008673), wk =   0.0017361
        k(  830) = (   0.5008673  -0.2062395  -0.4419417), wk =   0.0017361
        k(  831) = (  -0.1767767  -0.4124790   0.4714045), wk =   0.0017361
        k(  832) = (   0.1767767   0.4124790   0.4714045), wk =   0.0017361
        k(  833) = (   0.4714045  -0.1767767  -0.4124790), wk =   0.0017361
        k(  834) = (  -0.1473139  -0.3830162   0.4419417), wk =   0.0017361
        k(  835) = (   0.1473139   0.3830162   0.4419417), wk =   0.0017361
        k(  836) = (   0.4419417  -0.1473139  -0.3830162), wk =   0.0017361
        k(  837) = (  -0.1178511  -0.3535534   0.4124790), wk =   0.0017361
        k(  838) = (   0.1178511   0.3535534   0.4124790), wk =   0.0017361
        k(  839) = (   0.4124790  -0.1178511  -0.3535534), wk =   0.0017361
        k(  840) = (  -0.0883883  -0.3240906   0.3830162), wk =   0.0017361
        k(  841) = (   0.0883883   0.3240906   0.3830162), wk =   0.0017361
        k(  842) = (   0.3830162  -0.0883883  -0.3240906), wk =   0.0017361
        k(  843) = (  -0.0589256  -0.2946278   0.3535534), wk =   0.0017361
        k(  844) = (   0.0589256   0.2946278   0.3535534), wk =   0.0017361
        k(  845) = (   0.3535534  -0.0589256  -0.2946278), wk =   0.0017361
        k(  846) = (  -0.0294628  -0.2651650   0.3240906), wk =   0.0017361
        k(  847) = (   0.0294628   0.2651650   0.3240906), wk =   0.0017361
        k(  848) = (   0.3240906  -0.0294628  -0.2651650), wk =   0.0017361
        k(  849) = (   0.0000000   0.2357023   0.2946278), wk =   0.0017361
        k(  850) = (   0.3535534   0.0589256   0.0000000), wk =   0.0017361
        k(  851) = (   0.3830162   0.0883883  -0.0294628), wk =   0.0017361
        k(  852) = (  -0.3830162  -0.0883883  -0.0294628), wk =   0.0017361
        k(  853) = (  -0.0294628   0.3830162   0.0883883), wk =   0.0017361
        k(  854) = (   0.4124790   0.1178511  -0.0589256), wk =   0.0017361
        k(  855) = (  -0.4124790  -0.1178511  -0.0589256), wk =   0.0017361
        k(  856) = (  -0.0589256   0.4124790   0.1178511), wk =   0.0017361
        k(  857) = (   0.4419417   0.1473139  -0.0883883), wk =   0.0017361
        k(  858) = (  -0.4419417  -0.1473139  -0.0883883), wk =   0.0017361
        k(  859) = (  -0.0883883   0.4419417   0.1473139), wk =   0.0017361
        k(  860) = (   0.4714045   0.1767767  -0.1178511), wk =   0.0017361
        k(  861) = (  -0.4714045  -0.1767767  -0.1178511), wk =   0.0017361
        k(  862) = (  -0.1178511   0.4714045   0.1767767), wk =   0.0017361
        k(  863) = (  -0.2062395  -0.5008673   0.5597929), wk =   0.0017361
        k(  864) = (   0.2062395   0.5008673   0.5597929), wk =   0.0017361
        k(  865) = (   0.5597929  -0.2062395  -0.5008673), wk =   0.0017361
        k(  866) = (  -0.1767767  -0.4714045   0.5303301), wk =   0.0017361
        k(  867) = (   0.1767767   0.4714045   0.5303301), wk =   0.0017361
        k(  868) = (   0.5303301  -0.1767767  -0.4714045), wk =   0.0017361
        k(  869) = (  -0.1473139  -0.4419417   0.5008673), wk =   0.0017361
        k(  870) = (   0.1473139   0.4419417   0.5008673), wk =   0.0017361
        k(  871) = (   0.5008673  -0.1473139  -0.4419417), wk =   0.0017361
        k(  872) = (  -0.1178511  -0.4124790   0.4714045), wk =   0.0017361
        k(  873) = (   0.1178511   0.4124790   0.4714045), wk =   0.0017361
        k(  874) = (   0.4714045  -0.1178511  -0.4124790), wk =   0.0017361
        k(  875) = (  -0.0883883  -0.3830162   0.4419417), wk =   0.0017361
        k(  876) = (   0.0883883   0.3830162   0.4419417), wk =   0.0017361
        k(  877) = (   0.4419417  -0.0883883  -0.3830162), wk =   0.0017361
        k(  878) = (  -0.0589256  -0.3535534   0.4124790), wk =   0.0017361
        k(  879) = (   0.0589256   0.3535534   0.4124790), wk =   0.0017361
        k(  880) = (   0.4124790  -0.0589256  -0.3535534), wk =   0.0017361
        k(  881) = (  -0.0294628  -0.3240906   0.3830162), wk =   0.0017361
        k(  882) = (   0.0294628   0.3240906   0.3830162), wk =   0.0017361
        k(  883) = (   0.3830162  -0.0294628  -0.3240906), wk =   0.0017361
        k(  884) = (   0.0000000   0.2946278   0.3535534), wk =   0.0017361
        k(  885) = (   0.4124790   0.0589256  -0.0000000), wk =   0.0017361
        k(  886) = (   0.4419417   0.0883883  -0.0294628), wk =   0.0017361
        k(  887) = (  -0.4419417  -0.0883883  -0.0294628), wk =   0.0017361
        k(  888) = (  -0.0294628   0.4419417   0.0883883), wk =   0.0017361
        k(  889) = (   0.4714045   0.1178511  -0.0589256), wk =   0.0017361
        k(  890) = (  -0.4714045  -0.1178511  -0.0589256), wk =   0.0017361
        k(  891) = (  -0.0589256   0.4714045   0.1178511), wk =   0.0017361
        k(  892) = (   0.5008673   0.1473139  -0.0883883), wk =   0.0017361
        k(  893) = (  -0.5008673  -0.1473139  -0.0883883), wk =   0.0017361
        k(  894) = (  -0.0883883   0.5008673   0.1473139), wk =   0.0017361
        k(  895) = (  -0.1767767  -0.5303301   0.5892557), wk =   0.0017361
        k(  896) = (   0.1767767   0.5303301   0.5892557), wk =   0.0017361
        k(  897) = (   0.5892557  -0.1767767  -0.5303301), wk =   0.0017361
        k(  898) = (  -0.1473139  -0.5008673   0.5597929), wk =   0.0017361
        k(  899) = (   0.1473139   0.5008673   0.5597929), wk =   0.0017361
        k(  900) = (   0.5597929  -0.1473139  -0.5008673), wk =   0.0017361
        k(  901) = (  -0.1178511  -0.4714045   0.5303301), wk =   0.0017361
        k(  902) = (   0.1178511   0.4714045   0.5303301), wk =   0.0017361
        k(  903) = (   0.5303301  -0.1178511  -0.4714045), wk =   0.0017361
        k(  904) = (  -0.0883883  -0.4419417   0.5008673), wk =   0.0017361
        k(  905) = (   0.0883883   0.4419417   0.5008673), wk =   0.0017361
        k(  906) = (   0.5008673  -0.0883883  -0.4419417), wk =   0.0017361
        k(  907) = (  -0.0589256  -0.4124790   0.4714045), wk =   0.0017361
        k(  908) = (   0.0589256   0.4124790   0.4714045), wk =   0.0017361
        k(  909) = (   0.4714045  -0.0589256  -0.4124790), wk =   0.0017361
        k(  910) = (  -0.0294628  -0.3830162   0.4419417), wk =   0.0017361
        k(  911) = (   0.0294628   0.3830162   0.4419417), wk =   0.0017361
        k(  912) = (   0.4419417  -0.0294628  -0.3830162), wk =   0.0017361
        k(  913) = (   0.0000000   0.3535534   0.4124790), wk =   0.0017361
        k(  914) = (   0.4714045   0.0589256  -0.0000000), wk =   0.0017361
        k(  915) = (   0.5008673   0.0883883  -0.0294628), wk =   0.0017361
        k(  916) = (  -0.5008673  -0.0883883  -0.0294628), wk =   0.0017361
        k(  917) = (  -0.0294628   0.5008673   0.0883883), wk =   0.0017361
        k(  918) = (   0.5303301   0.1178511  -0.0589256), wk =   0.0017361
        k(  919) = (  -0.5303301  -0.1178511  -0.0589256), wk =   0.0017361
        k(  920) = (  -0.0589256   0.5303301   0.1178511), wk =   0.0017361
        k(  921) = (  -0.1473139  -0.5597929   0.6187184), wk =   0.0017361
        k(  922) = (   0.1473139   0.5597929   0.6187184), wk =   0.0017361
        k(  923) = (   0.6187184  -0.1473139  -0.5597929), wk =   0.0017361
        k(  924) = (  -0.1178511  -0.5303301   0.5892557), wk =   0.0017361
        k(  925) = (   0.1178511   0.5303301   0.5892557), wk =   0.0017361
        k(  926) = (   0.5892557  -0.1178511  -0.5303301), wk =   0.0017361
        k(  927) = (  -0.0883883  -0.5008673   0.5597929), wk =   0.0017361
        k(  928) = (   0.0883883   0.5008673   0.5597929), wk =   0.0017361
        k(  929) = (   0.5597929  -0.0883883  -0.5008673), wk =   0.0017361
        k(  930) = (  -0.0589256  -0.4714045   0.5303301), wk =   0.0017361
        k(  931) = (   0.0589256   0.4714045   0.5303301), wk =   0.0017361
        k(  932) = (   0.5303301  -0.0589256  -0.4714045), wk =   0.0017361
        k(  933) = (  -0.0294628  -0.4419417   0.5008673), wk =   0.0017361
        k(  934) = (   0.0294628   0.4419417   0.5008673), wk =   0.0017361
        k(  935) = (   0.5008673  -0.0294628  -0.4419417), wk =   0.0017361
        k(  936) = (   0.0000000   0.4124790   0.4714045), wk =   0.0017361
        k(  937) = (   0.5303301   0.0589256   0.0000000), wk =   0.0017361
        k(  938) = (   0.5597929   0.0883883  -0.0294628), wk =   0.0017361
        k(  939) = (  -0.5597929  -0.0883883  -0.0294628), wk =   0.0017361
        k(  940) = (  -0.0294628   0.5597929   0.0883883), wk =   0.0017361
        k(  941) = (  -0.1178511  -0.5892557   0.6481812), wk =   0.0017361
        k(  942) = (   0.1178511   0.5892557   0.6481812), wk =   0.0017361
        k(  943) = (   0.6481812  -0.1178511  -0.5892557), wk =   0.0017361
        k(  944) = (  -0.0883883  -0.5597929   0.6187184), wk =   0.0017361
        k(  945) = (   0.0883883   0.5597929   0.6187184), wk =   0.0017361
        k(  946) = (   0.6187184  -0.0883883  -0.5597929), wk =   0.0017361
        k(  947) = (  -0.0589256  -0.5303301   0.5892557), wk =   0.0017361
        k(  948) = (   0.0589256   0.5303301   0.5892557), wk =   0.0017361
        k(  949) = (   0.5892557  -0.0589256  -0.5303301), wk =   0.0017361
        k(  950) = (  -0.0294628  -0.5008673   0.5597929), wk =   0.0017361
        k(  951) = (   0.0294628   0.5008673   0.5597929), wk =   0.0017361
        k(  952) = (   0.5597929  -0.0294628  -0.5008673), wk =   0.0017361
        k(  953) = (   0.0000000   0.4714045   0.5303301), wk =   0.0017361
        k(  954) = (   0.5892557   0.0589256  -0.0000000), wk =   0.0017361
        k(  955) = (  -0.0883883  -0.6187184   0.6776440), wk =   0.0017361
        k(  956) = (   0.0883883   0.6187184   0.6776440), wk =   0.0017361
        k(  957) = (   0.6776440  -0.0883883  -0.6187184), wk =   0.0017361
        k(  958) = (  -0.0589256  -0.5892557   0.6481812), wk =   0.0017361
        k(  959) = (   0.0589256   0.5892557   0.6481812), wk =   0.0017361
        k(  960) = (   0.6481812  -0.0589256  -0.5892557), wk =   0.0017361
        k(  961) = (  -0.0294628  -0.5597929   0.6187184), wk =   0.0017361
        k(  962) = (   0.0294628   0.5597929   0.6187184), wk =   0.0017361
        k(  963) = (   0.6187184  -0.0294628  -0.5597929), wk =   0.0017361
        k(  964) = (   0.0000000   0.5303301   0.5892557), wk =   0.0017361
        k(  965) = (  -0.0589256  -0.6481812   0.7071068), wk =   0.0017361
        k(  966) = (  -0.0294628  -0.6187184   0.6776440), wk =   0.0017361
        k(  967) = (   0.0294628   0.6187184   0.6776440), wk =   0.0017361
        k(  968) = (   0.6776440  -0.0294628  -0.6187184), wk =   0.0017361
        k(  969) = (   0.0000000   0.5892557   0.6481812), wk =   0.0017361
        k(  970) = (   0.2357023   0.1178511  -0.0000000), wk =   0.0017361
        k(  971) = (   0.2651650   0.1473139  -0.0294628), wk =   0.0017361
        k(  972) = (  -0.2651650  -0.1473139  -0.0294628), wk =   0.0017361
        k(  973) = (  -0.0294628   0.2651650   0.1473139), wk =   0.0017361
        k(  974) = (   0.2946278   0.1767767  -0.0589256), wk =   0.0017361
        k(  975) = (  -0.2946278  -0.1767767  -0.0589256), wk =   0.0017361
        k(  976) = (  -0.0589256   0.2946278   0.1767767), wk =   0.0017361
        k(  977) = (   0.3240906   0.2062395  -0.0883883), wk =   0.0017361
        k(  978) = (  -0.3240906  -0.2062395  -0.0883883), wk =   0.0017361
        k(  979) = (  -0.0883883   0.3240906   0.2062395), wk =   0.0017361
        k(  980) = (   0.3535534   0.2357023  -0.1178511), wk =   0.0017361
        k(  981) = (  -0.3535534  -0.2357023  -0.1178511), wk =   0.0017361
        k(  982) = (  -0.1178511   0.3535534   0.2357023), wk =   0.0017361
        k(  983) = (   0.3830162   0.2651650  -0.1473139), wk =   0.0017361
        k(  984) = (  -0.3830162  -0.2651650  -0.1473139), wk =   0.0017361
        k(  985) = (  -0.1473139   0.3830162   0.2651650), wk =   0.0017361
        k(  986) = (  -0.2946278  -0.4124790   0.5303301), wk =   0.0017361
        k(  987) = (   0.2946278   0.4124790   0.5303301), wk =   0.0017361
        k(  988) = (   0.5303301  -0.2946278  -0.4124790), wk =   0.0017361
        k(  989) = (  -0.2651650  -0.3830162   0.5008673), wk =   0.0017361
        k(  990) = (   0.2651650   0.3830162   0.5008673), wk =   0.0017361
        k(  991) = (   0.5008673  -0.2651650  -0.3830162), wk =   0.0017361
        k(  992) = (  -0.2357023  -0.3535534   0.4714045), wk =   0.0008681
        k(  993) = (   0.4714045  -0.2357023  -0.3535534), wk =   0.0008681
        k(  994) = (   0.2946278   0.1178511   0.0000000), wk =   0.0017361
        k(  995) = (   0.3240906   0.1473139  -0.0294628), wk =   0.0017361
        k(  996) = (  -0.3240906  -0.1473139  -0.0294628), wk =   0.0017361
        k(  997) = (  -0.0294628   0.3240906   0.1473139), wk =   0.0017361
        k(  998) = (   0.3535534   0.1767767  -0.0589256), wk =   0.0017361
        k(  999) = (  -0.3535534  -0.1767767  -0.0589256), wk =   0.0017361
        k( 1000) = (  -0.0589256   0.3535534   0.1767767), wk =   0.0017361
        k( 1001) = (   0.3830162   0.2062395  -0.0883883), wk =   0.0017361
        k( 1002) = (  -0.3830162  -0.2062395  -0.0883883), wk =   0.0017361
        k( 1003) = (  -0.0883883   0.3830162   0.2062395), wk =   0.0017361
        k( 1004) = (   0.4124790   0.2357023  -0.1178511), wk =   0.0017361
        k( 1005) = (  -0.4124790  -0.2357023  -0.1178511), wk =   0.0017361
        k( 1006) = (  -0.1178511   0.4124790   0.2357023), wk =   0.0017361
        k( 1007) = (  -0.2651650  -0.4419417   0.5597929), wk =   0.0017361
        k( 1008) = (   0.2651650   0.4419417   0.5597929), wk =   0.0017361
        k( 1009) = (   0.5597929  -0.2651650  -0.4419417), wk =   0.0017361
        k( 1010) = (  -0.2357023  -0.4124790   0.5303301), wk =   0.0017361
        k( 1011) = (   0.2357023   0.4124790   0.5303301), wk =   0.0017361
        k( 1012) = (   0.5303301  -0.2357023  -0.4124790), wk =   0.0017361
        k( 1013) = (  -0.2062395  -0.3830162   0.5008673), wk =   0.0017361
        k( 1014) = (   0.2062395   0.3830162   0.5008673), wk =   0.0017361
        k( 1015) = (   0.5008673  -0.2062395  -0.3830162), wk =   0.0017361
        k( 1016) = (  -0.1767767  -0.3535534   0.4714045), wk =   0.0017361
        k( 1017) = (   0.1767767   0.3535534   0.4714045), wk =   0.0017361
        k( 1018) = (   0.4714045  -0.1767767  -0.3535534), wk =   0.0017361
        k( 1019) = (  -0.1473139  -0.3240906   0.4419417), wk =   0.0017361
        k( 1020) = (   0.1473139   0.3240906   0.4419417), wk =   0.0017361
        k( 1021) = (   0.4419417  -0.1473139  -0.3240906), wk =   0.0017361
        k( 1022) = (  -0.1178511  -0.2946278   0.4124790), wk =   0.0017361
        k( 1023) = (   0.1178511   0.2946278   0.4124790), wk =   0.0017361
        k( 1024) = (   0.4124790  -0.1178511  -0.2946278), wk =   0.0017361
        k( 1025) = (  -0.0883883  -0.2651650   0.3830162), wk =   0.0017361
        k( 1026) = (   0.0883883   0.2651650   0.3830162), wk =   0.0017361
        k( 1027) = (   0.3830162  -0.0883883  -0.2651650), wk =   0.0017361
        k( 1028) = (  -0.0589256  -0.2357023   0.3535534), wk =   0.0017361
        k( 1029) = (   0.0589256   0.2357023   0.3535534), wk =   0.0017361
        k( 1030) = (   0.3535534  -0.0589256  -0.2357023), wk =   0.0017361
        k( 1031) = (  -0.0294628  -0.2062395   0.3240906), wk =   0.0017361
        k( 1032) = (   0.0294628   0.2062395   0.3240906), wk =   0.0017361
        k( 1033) = (   0.3240906  -0.0294628  -0.2062395), wk =   0.0017361
        k( 1034) = (   0.0000000   0.1767767   0.2946278), wk =   0.0017361
        k( 1035) = (   0.3535534   0.1178511   0.0000000), wk =   0.0017361
        k( 1036) = (   0.3830162   0.1473139  -0.0294628), wk =   0.0017361
        k( 1037) = (  -0.3830162  -0.1473139  -0.0294628), wk =   0.0017361
        k( 1038) = (  -0.0294628   0.3830162   0.1473139), wk =   0.0017361
        k( 1039) = (   0.4124790   0.1767767  -0.0589256), wk =   0.0017361
        k( 1040) = (  -0.4124790  -0.1767767  -0.0589256), wk =   0.0017361
        k( 1041) = (  -0.0589256   0.4124790   0.1767767), wk =   0.0017361
        k( 1042) = (   0.4419417   0.2062395  -0.0883883), wk =   0.0017361
        k( 1043) = (  -0.4419417  -0.2062395  -0.0883883), wk =   0.0017361
        k( 1044) = (  -0.0883883   0.4419417   0.2062395), wk =   0.0017361
        k( 1045) = (  -0.2357023  -0.4714045   0.5892557), wk =   0.0017361
        k( 1046) = (   0.2357023   0.4714045   0.5892557), wk =   0.0017361
        k( 1047) = (   0.5892557  -0.2357023  -0.4714045), wk =   0.0017361
        k( 1048) = (  -0.2062395  -0.4419417   0.5597929), wk =   0.0017361
        k( 1049) = (   0.2062395   0.4419417   0.5597929), wk =   0.0017361
        k( 1050) = (   0.5597929  -0.2062395  -0.4419417), wk =   0.0017361
        k( 1051) = (  -0.1767767  -0.4124790   0.5303301), wk =   0.0017361
        k( 1052) = (   0.1767767   0.4124790   0.5303301), wk =   0.0017361
        k( 1053) = (   0.5303301  -0.1767767  -0.4124790), wk =   0.0017361
        k( 1054) = (  -0.1473139  -0.3830162   0.5008673), wk =   0.0017361
        k( 1055) = (   0.1473139   0.3830162   0.5008673), wk =   0.0017361
        k( 1056) = (   0.5008673  -0.1473139  -0.3830162), wk =   0.0017361
        k( 1057) = (  -0.1178511  -0.3535534   0.4714045), wk =   0.0017361
        k( 1058) = (   0.1178511   0.3535534   0.4714045), wk =   0.0017361
        k( 1059) = (   0.4714045  -0.1178511  -0.3535534), wk =   0.0017361
        k( 1060) = (  -0.0883883  -0.3240906   0.4419417), wk =   0.0017361
        k( 1061) = (   0.0883883   0.3240906   0.4419417), wk =   0.0017361
        k( 1062) = (   0.4419417  -0.0883883  -0.3240906), wk =   0.0017361
        k( 1063) = (  -0.0589256  -0.2946278   0.4124790), wk =   0.0017361
        k( 1064) = (   0.0589256   0.2946278   0.4124790), wk =   0.0017361
        k( 1065) = (   0.4124790  -0.0589256  -0.2946278), wk =   0.0017361
        k( 1066) = (  -0.0294628  -0.2651650   0.3830162), wk =   0.0017361
        k( 1067) = (   0.0294628   0.2651650   0.3830162), wk =   0.0017361
        k( 1068) = (   0.3830162  -0.0294628  -0.2651650), wk =   0.0017361
        k( 1069) = (   0.0000000   0.2357023   0.3535534), wk =   0.0017361
        k( 1070) = (   0.4124790   0.1178511  -0.0000000), wk =   0.0017361
        k( 1071) = (   0.4419417   0.1473139  -0.0294628), wk =   0.0017361
        k( 1072) = (  -0.4419417  -0.1473139  -0.0294628), wk =   0.0017361
        k( 1073) = (  -0.0294628   0.4419417   0.1473139), wk =   0.0017361
        k( 1074) = (   0.4714045   0.1767767  -0.0589256), wk =   0.0017361
        k( 1075) = (  -0.4714045  -0.1767767  -0.0589256), wk =   0.0017361
        k( 1076) = (  -0.0589256   0.4714045   0.1767767), wk =   0.0017361
        k( 1077) = (  -0.2062395  -0.5008673   0.6187184), wk =   0.0017361
        k( 1078) = (   0.2062395   0.5008673   0.6187184), wk =   0.0017361
        k( 1079) = (   0.6187184  -0.2062395  -0.5008673), wk =   0.0017361
        k( 1080) = (  -0.1767767  -0.4714045   0.5892557), wk =   0.0017361
        k( 1081) = (   0.1767767   0.4714045   0.5892557), wk =   0.0017361
        k( 1082) = (   0.5892557  -0.1767767  -0.4714045), wk =   0.0017361
        k( 1083) = (  -0.1473139  -0.4419417   0.5597929), wk =   0.0017361
        k( 1084) = (   0.1473139   0.4419417   0.5597929), wk =   0.0017361
        k( 1085) = (   0.5597929  -0.1473139  -0.4419417), wk =   0.0017361
        k( 1086) = (  -0.1178511  -0.4124790   0.5303301), wk =   0.0017361
        k( 1087) = (   0.1178511   0.4124790   0.5303301), wk =   0.0017361
        k( 1088) = (   0.5303301  -0.1178511  -0.4124790), wk =   0.0017361
        k( 1089) = (  -0.0883883  -0.3830162   0.5008673), wk =   0.0017361
        k( 1090) = (   0.0883883   0.3830162   0.5008673), wk =   0.0017361
        k( 1091) = (   0.5008673  -0.0883883  -0.3830162), wk =   0.0017361
        k( 1092) = (  -0.0589256  -0.3535534   0.4714045), wk =   0.0017361
        k( 1093) = (   0.0589256   0.3535534   0.4714045), wk =   0.0017361
        k( 1094) = (   0.4714045  -0.0589256  -0.3535534), wk =   0.0017361
        k( 1095) = (  -0.0294628  -0.3240906   0.4419417), wk =   0.0017361
        k( 1096) = (   0.0294628   0.3240906   0.4419417), wk =   0.0017361
        k( 1097) = (   0.4419417  -0.0294628  -0.3240906), wk =   0.0017361
        k( 1098) = (   0.0000000   0.2946278   0.4124790), wk =   0.0017361
        k( 1099) = (   0.4714045   0.1178511   0.0000000), wk =   0.0017361
        k( 1100) = (   0.5008673   0.1473139  -0.0294628), wk =   0.0017361
        k( 1101) = (  -0.5008673  -0.1473139  -0.0294628), wk =   0.0017361
        k( 1102) = (  -0.0294628   0.5008673   0.1473139), wk =   0.0017361
        k( 1103) = (  -0.1767767  -0.5303301   0.6481812), wk =   0.0017361
        k( 1104) = (   0.1767767   0.5303301   0.6481812), wk =   0.0017361
        k( 1105) = (   0.6481812  -0.1767767  -0.5303301), wk =   0.0017361
        k( 1106) = (  -0.1473139  -0.5008673   0.6187184), wk =   0.0017361
        k( 1107) = (   0.1473139   0.5008673   0.6187184), wk =   0.0017361
        k( 1108) = (   0.6187184  -0.1473139  -0.5008673), wk =   0.0017361
        k( 1109) = (  -0.1178511  -0.4714045   0.5892557), wk =   0.0017361
        k( 1110) = (   0.1178511   0.4714045   0.5892557), wk =   0.0017361
        k( 1111) = (   0.5892557  -0.1178511  -0.4714045), wk =   0.0017361
        k( 1112) = (  -0.0883883  -0.4419417   0.5597929), wk =   0.0017361
        k( 1113) = (   0.0883883   0.4419417   0.5597929), wk =   0.0017361
        k( 1114) = (   0.5597929  -0.0883883  -0.4419417), wk =   0.0017361
        k( 1115) = (  -0.0589256  -0.4124790   0.5303301), wk =   0.0017361
        k( 1116) = (   0.0589256   0.4124790   0.5303301), wk =   0.0017361
        k( 1117) = (   0.5303301  -0.0589256  -0.4124790), wk =   0.0017361
        k( 1118) = (  -0.0294628  -0.3830162   0.5008673), wk =   0.0017361
        k( 1119) = (   0.0294628   0.3830162   0.5008673), wk =   0.0017361
        k( 1120) = (   0.5008673  -0.0294628  -0.3830162), wk =   0.0017361
        k( 1121) = (  -0.0000000   0.3535534   0.4714045), wk =   0.0017361
        k( 1122) = (   0.5303301   0.1178511   0.0000000), wk =   0.0017361
        k( 1123) = (  -0.1473139  -0.5597929   0.6776440), wk =   0.0017361
        k( 1124) = (   0.1473139   0.5597929   0.6776440), wk =   0.0017361
        k( 1125) = (   0.6776440  -0.1473139  -0.5597929), wk =   0.0017361
        k( 1126) = (  -0.1178511  -0.5303301   0.6481812), wk =   0.0017361
        k( 1127) = (   0.1178511   0.5303301   0.6481812), wk =   0.0017361
        k( 1128) = (   0.6481812  -0.1178511  -0.5303301), wk =   0.0017361
        k( 1129) = (  -0.0883883  -0.5008673   0.6187184), wk =   0.0017361
        k( 1130) = (   0.0883883   0.5008673   0.6187184), wk =   0.0017361
        k( 1131) = (   0.6187184  -0.0883883  -0.5008673), wk =   0.0017361
        k( 1132) = (  -0.0589256  -0.4714045   0.5892557), wk =   0.0017361
        k( 1133) = (   0.0589256   0.4714045   0.5892557), wk =   0.0017361
        k( 1134) = (   0.5892557  -0.0589256  -0.4714045), wk =   0.0017361
        k( 1135) = (  -0.0294628  -0.4419417   0.5597929), wk =   0.0017361
        k( 1136) = (   0.0294628   0.4419417   0.5597929), wk =   0.0017361
        k( 1137) = (   0.5597929  -0.0294628  -0.4419417), wk =   0.0017361
        k( 1138) = (   0.0000000   0.4124790   0.5303301), wk =   0.0017361
        k( 1139) = (  -0.1178511  -0.5892557   0.7071068), wk =   0.0017361
        k( 1140) = (  -0.0883883  -0.5597929   0.6776440), wk =   0.0017361
        k( 1141) = (   0.0883883   0.5597929   0.6776440), wk =   0.0017361
        k( 1142) = (   0.6776440  -0.0883883  -0.5597929), wk =   0.0017361
        k( 1143) = (  -0.0589256  -0.5303301   0.6481812), wk =   0.0017361
        k( 1144) = (   0.0589256   0.5303301   0.6481812), wk =   0.0017361
        k( 1145) = (   0.6481812  -0.0589256  -0.5303301), wk =   0.0017361
        k( 1146) = (  -0.0294628  -0.5008673   0.6187184), wk =   0.0017361
        k( 1147) = (   0.0294628   0.5008673   0.6187184), wk =   0.0017361
        k( 1148) = (   0.6187184  -0.0294628  -0.5008673), wk =   0.0017361
        k( 1149) = (   0.0000000   0.4714045   0.5892557), wk =   0.0017361
        k( 1150) = (  -0.0589256  -0.5892557   0.7071068), wk =   0.0017361
        k( 1151) = (  -0.0294628  -0.5597929   0.6776440), wk =   0.0017361
        k( 1152) = (   0.0294628   0.5597929   0.6776440), wk =   0.0017361
        k( 1153) = (   0.6776440  -0.0294628  -0.5597929), wk =   0.0017361
        k( 1154) = (   0.0000000   0.5303301   0.6481812), wk =   0.0017361
        k( 1155) = (   0.3535534   0.1767767   0.0000000), wk =   0.0017361
        k( 1156) = (   0.3830162   0.2062395  -0.0294628), wk =   0.0017361
        k( 1157) = (  -0.3830162  -0.2062395  -0.0294628), wk =   0.0017361
        k( 1158) = (  -0.0294628   0.3830162   0.2062395), wk =   0.0017361
        k( 1159) = (   0.4124790   0.2357023  -0.0589256), wk =   0.0017361
        k( 1160) = (  -0.4124790  -0.2357023  -0.0589256), wk =   0.0017361
        k( 1161) = (  -0.0589256   0.4124790   0.2357023), wk =   0.0017361
        k( 1162) = (  -0.2651650  -0.4419417   0.6187184), wk =   0.0017361
        k( 1163) = (   0.2651650   0.4419417   0.6187184), wk =   0.0017361
        k( 1164) = (   0.6187184  -0.2651650  -0.4419417), wk =   0.0017361
        k( 1165) = (  -0.2357023  -0.4124790   0.5892557), wk =   0.0017361
        k( 1166) = (   0.2357023   0.4124790   0.5892557), wk =   0.0017361
        k( 1167) = (   0.5892557  -0.2357023  -0.4124790), wk =   0.0017361
        k( 1168) = (  -0.2062395  -0.3830162   0.5597929), wk =   0.0017361
        k( 1169) = (   0.2062395   0.3830162   0.5597929), wk =   0.0017361
        k( 1170) = (   0.5597929  -0.2062395  -0.3830162), wk =   0.0017361
        k( 1171) = (  -0.1767767  -0.3535534   0.5303301), wk =   0.0008681
        k( 1172) = (   0.5303301  -0.1767767  -0.3535534), wk =   0.0008681
        k( 1173) = (   0.4124790   0.1767767   0.0000000), wk =   0.0017361
        k( 1174) = (   0.4419417   0.2062395  -0.0294628), wk =   0.0017361
        k( 1175) = (  -0.4419417  -0.2062395  -0.0294628), wk =   0.0017361
        k( 1176) = (  -0.0294628   0.4419417   0.2062395), wk =   0.0017361
        k( 1177) = (  -0.2357023  -0.4714045   0.6481812), wk =   0.0017361
        k( 1178) = (   0.2357023   0.4714045   0.6481812), wk =   0.0017361
        k( 1179) = (   0.6481812  -0.2357023  -0.4714045), wk =   0.0017361
        k( 1180) = (  -0.2062395  -0.4419417   0.6187184), wk =   0.0017361
        k( 1181) = (   0.2062395   0.4419417   0.6187184), wk =   0.0017361
        k( 1182) = (   0.6187184  -0.2062395  -0.4419417), wk =   0.0017361
        k( 1183) = (  -0.1767767  -0.4124790   0.5892557), wk =   0.0017361
        k( 1184) = (   0.1767767   0.4124790   0.5892557), wk =   0.0017361
        k( 1185) = (   0.5892557  -0.1767767  -0.4124790), wk =   0.0017361
        k( 1186) = (  -0.1473139  -0.3830162   0.5597929), wk =   0.0017361
        k( 1187) = (   0.1473139   0.3830162   0.5597929), wk =   0.0017361
        k( 1188) = (   0.5597929  -0.1473139  -0.3830162), wk =   0.0017361
        k( 1189) = (  -0.1178511  -0.3535534   0.5303301), wk =   0.0017361
        k( 1190) = (   0.1178511   0.3535534   0.5303301), wk =   0.0017361
        k( 1191) = (   0.5303301  -0.1178511  -0.3535534), wk =   0.0017361
        k( 1192) = (  -0.0883883  -0.3240906   0.5008673), wk =   0.0017361
        k( 1193) = (   0.0883883   0.3240906   0.5008673), wk =   0.0017361
        k( 1194) = (   0.5008673  -0.0883883  -0.3240906), wk =   0.0017361
        k( 1195) = (  -0.0589256  -0.2946278   0.4714045), wk =   0.0017361
        k( 1196) = (   0.0589256   0.2946278   0.4714045), wk =   0.0017361
        k( 1197) = (   0.4714045  -0.0589256  -0.2946278), wk =   0.0017361
        k( 1198) = (  -0.0294628  -0.2651650   0.4419417), wk =   0.0017361
        k( 1199) = (   0.0294628   0.2651650   0.4419417), wk =   0.0017361
        k( 1200) = (   0.4419417  -0.0294628  -0.2651650), wk =   0.0017361
        k( 1201) = (   0.0000000   0.2357023   0.4124790), wk =   0.0017361
        k( 1202) = (   0.4714045   0.1767767  -0.0000000), wk =   0.0017361
        k( 1203) = (  -0.2062395  -0.5008673   0.6776440), wk =   0.0017361
        k( 1204) = (   0.2062395   0.5008673   0.6776440), wk =   0.0017361
        k( 1205) = (   0.6776440  -0.2062395  -0.5008673), wk =   0.0017361
        k( 1206) = (  -0.1767767  -0.4714045   0.6481812), wk =   0.0017361
        k( 1207) = (   0.1767767   0.4714045   0.6481812), wk =   0.0017361
        k( 1208) = (   0.6481812  -0.1767767  -0.4714045), wk =   0.0017361
        k( 1209) = (  -0.1473139  -0.4419417   0.6187184), wk =   0.0017361
        k( 1210) = (   0.1473139   0.4419417   0.6187184), wk =   0.0017361
        k( 1211) = (   0.6187184  -0.1473139  -0.4419417), wk =   0.0017361
        k( 1212) = (  -0.1178511  -0.4124790   0.5892557), wk =   0.0017361
        k( 1213) = (   0.1178511   0.4124790   0.5892557), wk =   0.0017361
        k( 1214) = (   0.5892557  -0.1178511  -0.4124790), wk =   0.0017361
        k( 1215) = (  -0.0883883  -0.3830162   0.5597929), wk =   0.0017361
        k( 1216) = (   0.0883883   0.3830162   0.5597929), wk =   0.0017361
        k( 1217) = (   0.5597929  -0.0883883  -0.3830162), wk =   0.0017361
        k( 1218) = (  -0.0589256  -0.3535534   0.5303301), wk =   0.0017361
        k( 1219) = (   0.0589256   0.3535534   0.5303301), wk =   0.0017361
        k( 1220) = (   0.5303301  -0.0589256  -0.3535534), wk =   0.0017361
        k( 1221) = (  -0.0294628  -0.3240906   0.5008673), wk =   0.0017361
        k( 1222) = (   0.0294628   0.3240906   0.5008673), wk =   0.0017361
        k( 1223) = (   0.5008673  -0.0294628  -0.3240906), wk =   0.0017361
        k( 1224) = (   0.0000000   0.2946278   0.4714045), wk =   0.0017361
        k( 1225) = (  -0.1767767  -0.5303301   0.7071068), wk =   0.0017361
        k( 1226) = (  -0.1473139  -0.5008673   0.6776440), wk =   0.0017361
        k( 1227) = (   0.1473139   0.5008673   0.6776440), wk =   0.0017361
        k( 1228) = (   0.6776440  -0.1473139  -0.5008673), wk =   0.0017361
        k( 1229) = (  -0.1178511  -0.4714045   0.6481812), wk =   0.0017361
        k( 1230) = (   0.1178511   0.4714045   0.6481812), wk =   0.0017361
        k( 1231) = (   0.6481812  -0.1178511  -0.4714045), wk =   0.0017361
        k( 1232) = (  -0.0883883  -0.4419417   0.6187184), wk =   0.0017361
        k( 1233) = (   0.0883883   0.4419417   0.6187184), wk =   0.0017361
        k( 1234) = (   0.6187184  -0.0883883  -0.4419417), wk =   0.0017361
        k( 1235) = (  -0.0589256  -0.4124790   0.5892557), wk =   0.0017361
        k( 1236) = (   0.0589256   0.4124790   0.5892557), wk =   0.0017361
        k( 1237) = (   0.5892557  -0.0589256  -0.4124790), wk =   0.0017361
        k( 1238) = (  -0.0294628  -0.3830162   0.5597929), wk =   0.0017361
        k( 1239) = (   0.0294628   0.3830162   0.5597929), wk =   0.0017361
        k( 1240) = (   0.5597929  -0.0294628  -0.3830162), wk =   0.0017361
        k( 1241) = (  -0.0000000   0.3535534   0.5303301), wk =   0.0017361
        k( 1242) = (  -0.1178511  -0.5303301   0.7071068), wk =   0.0017361
        k( 1243) = (  -0.0883883  -0.5008673   0.6776440), wk =   0.0017361
        k( 1244) = (   0.0883883   0.5008673   0.6776440), wk =   0.0017361
        k( 1245) = (   0.6776440  -0.0883883  -0.5008673), wk =   0.0017361
        k( 1246) = (  -0.0589256  -0.4714045   0.6481812), wk =   0.0017361
        k( 1247) = (   0.0589256   0.4714045   0.6481812), wk =   0.0017361
        k( 1248) = (   0.6481812  -0.0589256  -0.4714045), wk =   0.0017361
        k( 1249) = (  -0.0294628  -0.4419417   0.6187184), wk =   0.0017361
        k( 1250) = (   0.0294628   0.4419417   0.6187184), wk =   0.0017361
        k( 1251) = (   0.6187184  -0.0294628  -0.4419417), wk =   0.0017361
        k( 1252) = (   0.0000000   0.4124790   0.5892557), wk =   0.0017361
        k( 1253) = (  -0.0589256  -0.5303301   0.7071068), wk =   0.0017361
        k( 1254) = (  -0.0294628  -0.5008673   0.6776440), wk =   0.0017361
        k( 1255) = (   0.0294628   0.5008673   0.6776440), wk =   0.0017361
        k( 1256) = (   0.6776440  -0.0294628  -0.5008673), wk =   0.0017361
        k( 1257) = (   0.0000000   0.4714045   0.6481812), wk =   0.0017361
        k( 1258) = (  -0.2357023  -0.4714045   0.7071068), wk =   0.0017361
        k( 1259) = (  -0.2062395  -0.4419417   0.6776440), wk =   0.0017361
        k( 1260) = (   0.2062395   0.4419417   0.6776440), wk =   0.0017361
        k( 1261) = (   0.6776440  -0.2062395  -0.4419417), wk =   0.0017361
        k( 1262) = (  -0.1767767  -0.4124790   0.6481812), wk =   0.0017361
        k( 1263) = (   0.1767767   0.4124790   0.6481812), wk =   0.0017361
        k( 1264) = (   0.6481812  -0.1767767  -0.4124790), wk =   0.0017361
        k( 1265) = (  -0.1473139  -0.3830162   0.6187184), wk =   0.0017361
        k( 1266) = (   0.1473139   0.3830162   0.6187184), wk =   0.0017361
        k( 1267) = (   0.6187184  -0.1473139  -0.3830162), wk =   0.0017361
        k( 1268) = (  -0.1178511  -0.3535534   0.5892557), wk =   0.0008681
        k( 1269) = (   0.5892557  -0.1178511  -0.3535534), wk =   0.0008681
        k( 1270) = (  -0.1767767  -0.4714045   0.7071068), wk =   0.0017361
        k( 1271) = (  -0.1473139  -0.4419417   0.6776440), wk =   0.0017361
        k( 1272) = (   0.1473139   0.4419417   0.6776440), wk =   0.0017361
        k( 1273) = (   0.6776440  -0.1473139  -0.4419417), wk =   0.0017361
        k( 1274) = (  -0.1178511  -0.4124790   0.6481812), wk =   0.0017361
        k( 1275) = (   0.1178511   0.4124790   0.6481812), wk =   0.0017361
        k( 1276) = (   0.6481812  -0.1178511  -0.4124790), wk =   0.0017361
        k( 1277) = (  -0.0883883  -0.3830162   0.6187184), wk =   0.0017361
        k( 1278) = (   0.0883883   0.3830162   0.6187184), wk =   0.0017361
        k( 1279) = (   0.6187184  -0.0883883  -0.3830162), wk =   0.0017361
        k( 1280) = (  -0.0589256  -0.3535534   0.5892557), wk =   0.0017361
        k( 1281) = (   0.0589256   0.3535534   0.5892557), wk =   0.0017361
        k( 1282) = (   0.5892557  -0.0589256  -0.3535534), wk =   0.0017361
        k( 1283) = (  -0.0294628  -0.3240906   0.5597929), wk =   0.0017361
        k( 1284) = (   0.0294628   0.3240906   0.5597929), wk =   0.0017361
        k( 1285) = (   0.5597929  -0.0294628  -0.3240906), wk =   0.0017361
        k( 1286) = (   0.0000000   0.2946278   0.5303301), wk =   0.0017361
        k( 1287) = (  -0.1178511  -0.4714045   0.7071068), wk =   0.0017361
        k( 1288) = (  -0.0883883  -0.4419417   0.6776440), wk =   0.0017361
        k( 1289) = (   0.0883883   0.4419417   0.6776440), wk =   0.0017361
        k( 1290) = (   0.6776440  -0.0883883  -0.4419417), wk =   0.0017361
        k( 1291) = (  -0.0589256  -0.4124790   0.6481812), wk =   0.0017361
        k( 1292) = (   0.0589256   0.4124790   0.6481812), wk =   0.0017361
        k( 1293) = (   0.6481812  -0.0589256  -0.4124790), wk =   0.0017361
        k( 1294) = (  -0.0294628  -0.3830162   0.6187184), wk =   0.0017361
        k( 1295) = (   0.0294628   0.3830162   0.6187184), wk =   0.0017361
        k( 1296) = (   0.6187184  -0.0294628  -0.3830162), wk =   0.0017361
        k( 1297) = (   0.0000000   0.3535534   0.5892557), wk =   0.0017361
        k( 1298) = (  -0.0589256  -0.4714045   0.7071068), wk =   0.0017361
        k( 1299) = (  -0.0294628  -0.4419417   0.6776440), wk =   0.0017361
        k( 1300) = (   0.0294628   0.4419417   0.6776440), wk =   0.0017361
        k( 1301) = (   0.6776440  -0.0294628  -0.4419417), wk =   0.0017361
        k( 1302) = (   0.0000000   0.4124790   0.6481812), wk =   0.0017361
        k( 1303) = (  -0.1178511  -0.4124790   0.7071068), wk =   0.0017361
        k( 1304) = (  -0.0883883  -0.3830162   0.6776440), wk =   0.0017361
        k( 1305) = (   0.0883883   0.3830162   0.6776440), wk =   0.0017361
        k( 1306) = (   0.6776440  -0.0883883  -0.3830162), wk =   0.0017361
        k( 1307) = (  -0.0589256  -0.3535534   0.6481812), wk =   0.0008681
        k( 1308) = (   0.6481812  -0.0589256  -0.3535534), wk =   0.0008681
        k( 1309) = (  -0.0589256  -0.4124790   0.7071068), wk =   0.0017361
        k( 1310) = (  -0.0294628  -0.3830162   0.6776440), wk =   0.0017361
        k( 1311) = (   0.0294628   0.3830162   0.6776440), wk =   0.0017361
        k( 1312) = (   0.6776440  -0.0294628  -0.3830162), wk =   0.0017361
        k( 1313) = (  -0.0000000   0.3535534   0.6481812), wk =   0.0017361

                       cryst. coord.
        k(    1) = (   0.0000000   0.0000000   0.0000000), wk =   0.0001447
        k(    2) = (   0.0000000   0.0000000   0.0416667), wk =   0.0008681
        k(    3) = (   0.0000000   0.0000000   0.0833333), wk =   0.0008681
        k(    4) = (   0.0000000   0.0000000   0.1250000), wk =   0.0008681
        k(    5) = (   0.0000000   0.0000000   0.1666667), wk =   0.0008681
        k(    6) = (   0.0000000   0.0000000   0.2083333), wk =   0.0008681
        k(    7) = (   0.0000000   0.0000000   0.2500000), wk =   0.0008681
        k(    8) = (   0.0000000   0.0000000   0.2916667), wk =   0.0008681
        k(    9) = (   0.0000000   0.0000000   0.3333333), wk =   0.0008681
        k(   10) = (   0.0000000   0.0000000   0.3750000), wk =   0.0008681
        k(   11) = (   0.0000000   0.0000000   0.4166667), wk =   0.0008681
        k(   12) = (   0.0000000   0.0000000   0.4583333), wk =   0.0008681
        k(   13) = (   0.0000000   0.0000000  -0.5000000), wk =   0.0004340
        k(   14) = (   0.0000000   0.0416667   0.0416667), wk =   0.0008681
        k(   15) = (   0.0000000   0.0416667   0.0833333), wk =   0.0017361
        k(   16) = (   0.0000000   0.0416667   0.1250000), wk =   0.0017361
        k(   17) = (   0.0000000   0.0416667   0.1666667), wk =   0.0017361
        k(   18) = (   0.0000000   0.0416667   0.2083333), wk =   0.0017361
        k(   19) = (   0.0000000   0.0416667   0.2500000), wk =   0.0017361
        k(   20) = (   0.0000000   0.0416667   0.2916667), wk =   0.0017361
        k(   21) = (   0.0000000   0.0416667   0.3333333), wk =   0.0017361
        k(   22) = (   0.0000000   0.0416667   0.3750000), wk =   0.0017361
        k(   23) = (   0.0000000   0.0416667   0.4166667), wk =   0.0017361
        k(   24) = (   0.0000000   0.0416667   0.4583333), wk =   0.0017361
        k(   25) = (   0.0000000   0.0416667  -0.5000000), wk =   0.0017361
        k(   26) = (   0.0000000   0.0416667  -0.4583333), wk =   0.0017361
        k(   27) = (   0.0000000   0.0416667  -0.4166667), wk =   0.0017361
        k(   28) = (   0.0000000   0.0416667  -0.3750000), wk =   0.0017361
        k(   29) = (   0.0000000   0.0416667  -0.3333333), wk =   0.0017361
        k(   30) = (   0.0000000   0.0416667  -0.2916667), wk =   0.0017361
        k(   31) = (   0.0000000   0.0416667  -0.2500000), wk =   0.0017361
        k(   32) = (   0.0000000   0.0416667  -0.2083333), wk =   0.0017361
        k(   33) = (   0.0000000   0.0416667  -0.1666667), wk =   0.0017361
        k(   34) = (   0.0000000   0.0416667  -0.1250000), wk =   0.0017361
        k(   35) = (   0.0000000   0.0416667  -0.0833333), wk =   0.0017361
        k(   36) = (   0.0000000   0.0416667  -0.0416667), wk =   0.0008681
        k(   37) = (   0.0000000   0.0833333   0.0833333), wk =   0.0008681
        k(   38) = (   0.0000000   0.0833333   0.1250000), wk =   0.0017361
        k(   39) = (   0.0000000   0.0833333   0.1666667), wk =   0.0017361
        k(   40) = (   0.0000000   0.0833333   0.2083333), wk =   0.0017361
        k(   41) = (   0.0000000   0.0833333   0.2500000), wk =   0.0017361
        k(   42) = (   0.0000000   0.0833333   0.2916667), wk =   0.0017361
        k(   43) = (   0.0000000   0.0833333   0.3333333), wk =   0.0017361
        k(   44) = (   0.0000000   0.0833333   0.3750000), wk =   0.0017361
        k(   45) = (   0.0000000   0.0833333   0.4166667), wk =   0.0017361
        k(   46) = (   0.0000000   0.0833333   0.4583333), wk =   0.0017361
        k(   47) = (   0.0000000   0.0833333  -0.5000000), wk =   0.0017361
        k(   48) = (   0.0000000   0.0833333  -0.4583333), wk =   0.0017361
        k(   49) = (   0.0000000   0.0833333  -0.4166667), wk =   0.0017361
        k(   50) = (   0.0000000   0.0833333  -0.3750000), wk =   0.0017361
        k(   51) = (   0.0000000   0.0833333  -0.3333333), wk =   0.0017361
        k(   52) = (   0.0000000   0.0833333  -0.2916667), wk =   0.0017361
        k(   53) = (   0.0000000   0.0833333  -0.2500000), wk =   0.0017361
        k(   54) = (   0.0000000   0.0833333  -0.2083333), wk =   0.0017361
        k(   55) = (   0.0000000   0.0833333  -0.1666667), wk =   0.0017361
        k(   56) = (   0.0000000   0.0833333  -0.1250000), wk =   0.0017361
        k(   57) = (   0.0000000   0.0833333  -0.0833333), wk =   0.0008681
        k(   58) = (   0.0000000   0.1250000   0.1250000), wk =   0.0008681
        k(   59) = (   0.0000000   0.1250000   0.1666667), wk =   0.0017361
        k(   60) = (   0.0000000   0.1250000   0.2083333), wk =   0.0017361
        k(   61) = (   0.0000000   0.1250000   0.2500000), wk =   0.0017361
        k(   62) = (   0.0000000   0.1250000   0.2916667), wk =   0.0017361
        k(   63) = (   0.0000000   0.1250000   0.3333333), wk =   0.0017361
        k(   64) = (   0.0000000   0.1250000   0.3750000), wk =   0.0017361
        k(   65) = (   0.0000000   0.1250000   0.4166667), wk =   0.0017361
        k(   66) = (   0.0000000   0.1250000   0.4583333), wk =   0.0017361
        k(   67) = (   0.0000000   0.1250000  -0.5000000), wk =   0.0017361
        k(   68) = (   0.0000000   0.1250000  -0.4583333), wk =   0.0017361
        k(   69) = (   0.0000000   0.1250000  -0.4166667), wk =   0.0017361
        k(   70) = (   0.0000000   0.1250000  -0.3750000), wk =   0.0017361
        k(   71) = (   0.0000000   0.1250000  -0.3333333), wk =   0.0017361
        k(   72) = (   0.0000000   0.1250000  -0.2916667), wk =   0.0017361
        k(   73) = (   0.0000000   0.1250000  -0.2500000), wk =   0.0017361
        k(   74) = (   0.0000000   0.1250000  -0.2083333), wk =   0.0017361
        k(   75) = (   0.0000000   0.1250000  -0.1666667), wk =   0.0017361
        k(   76) = (   0.0000000   0.1250000  -0.1250000), wk =   0.0008681
        k(   77) = (   0.0000000   0.1666667   0.1666667), wk =   0.0008681
        k(   78) = (   0.0000000   0.1666667   0.2083333), wk =   0.0017361
        k(   79) = (   0.0000000   0.1666667   0.2500000), wk =   0.0017361
        k(   80) = (   0.0000000   0.1666667   0.2916667), wk =   0.0017361
        k(   81) = (   0.0000000   0.1666667   0.3333333), wk =   0.0017361
        k(   82) = (   0.0000000   0.1666667   0.3750000), wk =   0.0017361
        k(   83) = (   0.0000000   0.1666667   0.4166667), wk =   0.0017361
        k(   84) = (   0.0000000   0.1666667   0.4583333), wk =   0.0017361
        k(   85) = (   0.0000000   0.1666667  -0.5000000), wk =   0.0017361
        k(   86) = (   0.0000000   0.1666667  -0.4583333), wk =   0.0017361
        k(   87) = (   0.0000000   0.1666667  -0.4166667), wk =   0.0017361
        k(   88) = (   0.0000000   0.1666667  -0.3750000), wk =   0.0017361
        k(   89) = (   0.0000000   0.1666667  -0.3333333), wk =   0.0017361
        k(   90) = (   0.0000000   0.1666667  -0.2916667), wk =   0.0017361
        k(   91) = (   0.0000000   0.1666667  -0.2500000), wk =   0.0017361
        k(   92) = (   0.0000000   0.1666667  -0.2083333), wk =   0.0017361
        k(   93) = (   0.0000000   0.1666667  -0.1666667), wk =   0.0008681
        k(   94) = (   0.0000000   0.2083333   0.2083333), wk =   0.0008681
        k(   95) = (   0.0000000   0.2083333   0.2500000), wk =   0.0017361
        k(   96) = (   0.0000000   0.2083333   0.2916667), wk =   0.0017361
        k(   97) = (   0.0000000   0.2083333   0.3333333), wk =   0.0017361
        k(   98) = (   0.0000000   0.2083333   0.3750000), wk =   0.0017361
        k(   99) = (   0.0000000   0.2083333   0.4166667), wk =   0.0017361
        k(  100) = (   0.0000000   0.2083333   0.4583333), wk =   0.0017361
        k(  101) = (   0.0000000   0.2083333  -0.5000000), wk =   0.0017361
        k(  102) = (   0.0000000   0.2083333  -0.4583333), wk =   0.0017361
        k(  103) = (   0.0000000   0.2083333  -0.4166667), wk =   0.0017361
        k(  104) = (   0.0000000   0.2083333  -0.3750000), wk =   0.0017361
        k(  105) = (   0.0000000   0.2083333  -0.3333333), wk =   0.0017361
        k(  106) = (   0.0000000   0.2083333  -0.2916667), wk =   0.0017361
        k(  107) = (   0.0000000   0.2083333  -0.2500000), wk =   0.0017361
        k(  108) = (   0.0000000   0.2083333  -0.2083333), wk =   0.0008681
        k(  109) = (   0.0000000   0.2500000   0.2500000), wk =   0.0008681
        k(  110) = (   0.0000000   0.2500000   0.2916667), wk =   0.0017361
        k(  111) = (   0.0000000   0.2500000   0.3333333), wk =   0.0017361
        k(  112) = (   0.0000000   0.2500000   0.3750000), wk =   0.0017361
        k(  113) = (   0.0000000   0.2500000   0.4166667), wk =   0.0017361
        k(  114) = (   0.0000000   0.2500000   0.4583333), wk =   0.0017361
        k(  115) = (   0.0000000   0.2500000  -0.5000000), wk =   0.0017361
        k(  116) = (   0.0000000   0.2500000  -0.4583333), wk =   0.0017361
        k(  117) = (   0.0000000   0.2500000  -0.4166667), wk =   0.0017361
        k(  118) = (   0.0000000   0.2500000  -0.3750000), wk =   0.0017361
        k(  119) = (   0.0000000   0.2500000  -0.3333333), wk =   0.0017361
        k(  120) = (   0.0000000   0.2500000  -0.2916667), wk =   0.0017361
        k(  121) = (   0.0000000   0.2500000  -0.2500000), wk =   0.0008681
        k(  122) = (   0.0000000   0.2916667   0.2916667), wk =   0.0008681
        k(  123) = (   0.0000000   0.2916667   0.3333333), wk =   0.0017361
        k(  124) = (   0.0000000   0.2916667   0.3750000), wk =   0.0017361
        k(  125) = (   0.0000000   0.2916667   0.4166667), wk =   0.0017361
        k(  126) = (   0.0000000   0.2916667   0.4583333), wk =   0.0017361
        k(  127) = (   0.0000000   0.2916667  -0.5000000), wk =   0.0017361
        k(  128) = (   0.0000000   0.2916667  -0.4583333), wk =   0.0017361
        k(  129) = (   0.0000000   0.2916667  -0.4166667), wk =   0.0017361
        k(  130) = (   0.0000000   0.2916667  -0.3750000), wk =   0.0017361
        k(  131) = (   0.0000000   0.2916667  -0.3333333), wk =   0.0017361
        k(  132) = (   0.0000000   0.2916667  -0.2916667), wk =   0.0008681
        k(  133) = (   0.0000000   0.3333333   0.3333333), wk =   0.0008681
        k(  134) = (   0.0000000   0.3333333   0.3750000), wk =   0.0017361
        k(  135) = (   0.0000000   0.3333333   0.4166667), wk =   0.0017361
        k(  136) = (   0.0000000   0.3333333   0.4583333), wk =   0.0017361
        k(  137) = (   0.0000000   0.3333333  -0.5000000), wk =   0.0017361
        k(  138) = (   0.0000000   0.3333333  -0.4583333), wk =   0.0017361
        k(  139) = (   0.0000000   0.3333333  -0.4166667), wk =   0.0017361
        k(  140) = (   0.0000000   0.3333333  -0.3750000), wk =   0.0017361
        k(  141) = (   0.0000000   0.3333333  -0.3333333), wk =   0.0008681
        k(  142) = (   0.0000000   0.3750000   0.3750000), wk =   0.0008681
        k(  143) = (   0.0000000   0.3750000   0.4166667), wk =   0.0017361
        k(  144) = (   0.0000000   0.3750000   0.4583333), wk =   0.0017361
        k(  145) = (   0.0000000   0.3750000  -0.5000000), wk =   0.0017361
        k(  146) = (   0.0000000   0.3750000  -0.4583333), wk =   0.0017361
        k(  147) = (   0.0000000   0.3750000  -0.4166667), wk =   0.0017361
        k(  148) = (   0.0000000   0.3750000  -0.3750000), wk =   0.0008681
        k(  149) = (   0.0000000   0.4166667   0.4166667), wk =   0.0008681
        k(  150) = (   0.0000000   0.4166667   0.4583333), wk =   0.0017361
        k(  151) = (   0.0000000   0.4166667  -0.5000000), wk =   0.0017361
        k(  152) = (   0.0000000   0.4166667  -0.4583333), wk =   0.0017361
        k(  153) = (   0.0000000   0.4166667  -0.4166667), wk =   0.0008681
        k(  154) = (   0.0000000   0.4583333   0.4583333), wk =   0.0008681
        k(  155) = (   0.0000000   0.4583333  -0.5000000), wk =   0.0017361
        k(  156) = (   0.0000000   0.4583333  -0.4583333), wk =   0.0008681
        k(  157) = (   0.0000000  -0.5000000  -0.5000000), wk =   0.0004340
        k(  158) = (   0.0416667   0.0833333   0.1250000), wk =   0.0017361
        k(  159) = (   0.0416667   0.0833333   0.1666667), wk =   0.0017361
        k(  160) = (   0.0416667   0.0833333   0.2083333), wk =   0.0017361
        k(  161) = (   0.0416667   0.0833333   0.2500000), wk =   0.0017361
        k(  162) = (   0.0416667   0.0833333   0.2916667), wk =   0.0017361
        k(  163) = (   0.0416667   0.0833333   0.3333333), wk =   0.0017361
        k(  164) = (   0.0416667   0.0833333   0.3750000), wk =   0.0017361
        k(  165) = (   0.0416667   0.0833333   0.4166667), wk =   0.0017361
        k(  166) = (   0.0416667   0.0833333   0.4583333), wk =   0.0017361
        k(  167) = (   0.0416667   0.0833333  -0.5000000), wk =   0.0017361
        k(  168) = (   0.0416667   0.0833333  -0.4583333), wk =   0.0017361
        k(  169) = (   0.0416667   0.1250000   0.1666667), wk =   0.0017361
        k(  170) = (   0.0416667   0.1250000   0.2083333), wk =   0.0017361
        k(  171) = (   0.0416667   0.1250000   0.2500000), wk =   0.0017361
        k(  172) = (   0.0416667   0.1250000   0.2916667), wk =   0.0017361
        k(  173) = (   0.0416667   0.1250000   0.3333333), wk =   0.0017361
        k(  174) = (   0.0416667   0.1250000   0.3750000), wk =   0.0017361
        k(  175) = (   0.0416667   0.1250000   0.4166667), wk =   0.0017361
        k(  176) = (   0.0416667   0.1250000   0.4583333), wk =   0.0017361
        k(  177) = (   0.0416667   0.1250000  -0.5000000), wk =   0.0017361
        k(  178) = (   0.0416667   0.1250000  -0.4583333), wk =   0.0017361
        k(  179) = (   0.0416667   0.1250000  -0.4166667), wk =   0.0017361
        k(  180) = (   0.0416667   0.1250000  -0.3750000), wk =   0.0017361
        k(  181) = (   0.0416667   0.1250000  -0.3333333), wk =   0.0017361
        k(  182) = (   0.0416667   0.1250000  -0.2916667), wk =   0.0017361
        k(  183) = (   0.0416667   0.1250000  -0.2500000), wk =   0.0017361
        k(  184) = (   0.0416667   0.1250000  -0.2083333), wk =   0.0017361
        k(  185) = (   0.0416667   0.1250000  -0.1666667), wk =   0.0017361
        k(  186) = (   0.0416667   0.1250000  -0.1250000), wk =   0.0017361
        k(  187) = (   0.0416667   0.1250000  -0.0833333), wk =   0.0017361
        k(  188) = (   0.0416667   0.1666667   0.2083333), wk =   0.0017361
        k(  189) = (   0.0416667   0.1666667   0.2500000), wk =   0.0017361
        k(  190) = (   0.0416667   0.1666667   0.2916667), wk =   0.0017361
        k(  191) = (   0.0416667   0.1666667   0.3333333), wk =   0.0017361
        k(  192) = (   0.0416667   0.1666667   0.3750000), wk =   0.0017361
        k(  193) = (   0.0416667   0.1666667   0.4166667), wk =   0.0017361
        k(  194) = (   0.0416667   0.1666667   0.4583333), wk =   0.0017361
        k(  195) = (   0.0416667   0.1666667  -0.5000000), wk =   0.0017361
        k(  196) = (   0.0416667   0.1666667  -0.4583333), wk =   0.0017361
        k(  197) = (   0.0416667   0.1666667  -0.4166667), wk =   0.0017361
        k(  198) = (   0.0416667   0.1666667  -0.3750000), wk =   0.0017361
        k(  199) = (   0.0416667   0.1666667  -0.3333333), wk =   0.0017361
        k(  200) = (   0.0416667   0.1666667  -0.2916667), wk =   0.0017361
        k(  201) = (   0.0416667   0.1666667  -0.2500000), wk =   0.0017361
        k(  202) = (   0.0416667   0.1666667  -0.2083333), wk =   0.0017361
        k(  203) = (   0.0416667   0.1666667  -0.1666667), wk =   0.0017361
        k(  204) = (   0.0416667   0.1666667  -0.1250000), wk =   0.0017361
        k(  205) = (   0.0416667   0.2083333   0.2500000), wk =   0.0017361
        k(  206) = (   0.0416667   0.2083333   0.2916667), wk =   0.0017361
        k(  207) = (   0.0416667   0.2083333   0.3333333), wk =   0.0017361
        k(  208) = (   0.0416667   0.2083333   0.3750000), wk =   0.0017361
        k(  209) = (   0.0416667   0.2083333   0.4166667), wk =   0.0017361
        k(  210) = (   0.0416667   0.2083333   0.4583333), wk =   0.0017361
        k(  211) = (   0.0416667   0.2083333  -0.5000000), wk =   0.0017361
        k(  212) = (   0.0416667   0.2083333  -0.4583333), wk =   0.0017361
        k(  213) = (   0.0416667   0.2083333  -0.4166667), wk =   0.0017361
        k(  214) = (   0.0416667   0.2083333  -0.3750000), wk =   0.0017361
        k(  215) = (   0.0416667   0.2083333  -0.3333333), wk =   0.0017361
        k(  216) = (   0.0416667   0.2083333  -0.2916667), wk =   0.0017361
        k(  217) = (   0.0416667   0.2083333  -0.2500000), wk =   0.0017361
        k(  218) = (   0.0416667   0.2083333  -0.2083333), wk =   0.0017361
        k(  219) = (   0.0416667   0.2083333  -0.1666667), wk =   0.0017361
        k(  220) = (   0.0416667   0.2500000   0.2916667), wk =   0.0017361
        k(  221) = (   0.0416667   0.2500000   0.3333333), wk =   0.0017361
        k(  222) = (   0.0416667   0.2500000   0.3750000), wk =   0.0017361
        k(  223) = (   0.0416667   0.2500000   0.4166667), wk =   0.0017361
        k(  224) = (   0.0416667   0.2500000   0.4583333), wk =   0.0017361
        k(  225) = (   0.0416667   0.2500000  -0.5000000), wk =   0.0017361
        k(  226) = (   0.0416667   0.2500000  -0.4583333), wk =   0.0017361
        k(  227) = (   0.0416667   0.2500000  -0.4166667), wk =   0.0017361
        k(  228) = (   0.0416667   0.2500000  -0.3750000), wk =   0.0017361
        k(  229) = (   0.0416667   0.2500000  -0.3333333), wk =   0.0017361
        k(  230) = (   0.0416667   0.2500000  -0.2916667), wk =   0.0017361
        k(  231) = (   0.0416667   0.2500000  -0.2500000), wk =   0.0017361
        k(  232) = (   0.0416667   0.2500000  -0.2083333), wk =   0.0017361
        k(  233) = (   0.0416667   0.2916667   0.3333333), wk =   0.0017361
        k(  234) = (   0.0416667   0.2916667   0.3750000), wk =   0.0017361
        k(  235) = (   0.0416667   0.2916667   0.4166667), wk =   0.0017361
        k(  236) = (   0.0416667   0.2916667   0.4583333), wk =   0.0017361
        k(  237) = (   0.0416667   0.2916667  -0.5000000), wk =   0.0017361
        k(  238) = (   0.0416667   0.2916667  -0.4583333), wk =   0.0017361
        k(  239) = (   0.0416667   0.2916667  -0.4166667), wk =   0.0017361
        k(  240) = (   0.0416667   0.2916667  -0.3750000), wk =   0.0017361
        k(  241) = (   0.0416667   0.2916667  -0.3333333), wk =   0.0017361
        k(  242) = (   0.0416667   0.2916667  -0.2916667), wk =   0.0017361
        k(  243) = (   0.0416667   0.2916667  -0.2500000), wk =   0.0017361
        k(  244) = (   0.0416667   0.3333333   0.3750000), wk =   0.0017361
        k(  245) = (   0.0416667   0.3333333   0.4166667), wk =   0.0017361
        k(  246) = (   0.0416667   0.3333333   0.4583333), wk =   0.0017361
        k(  247) = (   0.0416667   0.3333333  -0.5000000), wk =   0.0017361
        k(  248) = (   0.0416667   0.3333333  -0.4583333), wk =   0.0017361
        k(  249) = (   0.0416667   0.3333333  -0.4166667), wk =   0.0017361
        k(  250) = (   0.0416667   0.3333333  -0.3750000), wk =   0.0017361
        k(  251) = (   0.0416667   0.3333333  -0.3333333), wk =   0.0017361
        k(  252) = (   0.0416667   0.3333333  -0.2916667), wk =   0.0017361
        k(  253) = (   0.0416667   0.3750000   0.4166667), wk =   0.0017361
        k(  254) = (   0.0416667   0.3750000   0.4583333), wk =   0.0017361
        k(  255) = (   0.0416667   0.3750000  -0.5000000), wk =   0.0017361
        k(  256) = (   0.0416667   0.3750000  -0.4583333), wk =   0.0017361
        k(  257) = (   0.0416667   0.3750000  -0.4166667), wk =   0.0017361
        k(  258) = (   0.0416667   0.3750000  -0.3750000), wk =   0.0017361
        k(  259) = (   0.0416667   0.3750000  -0.3333333), wk =   0.0017361
        k(  260) = (   0.0416667   0.4166667   0.4583333), wk =   0.0017361
        k(  261) = (   0.0416667   0.4166667  -0.5000000), wk =   0.0017361
        k(  262) = (   0.0416667   0.4166667  -0.4583333), wk =   0.0017361
        k(  263) = (   0.0416667   0.4166667  -0.4166667), wk =   0.0017361
        k(  264) = (   0.0416667   0.4166667  -0.3750000), wk =   0.0017361
        k(  265) = (   0.0416667   0.4583333  -0.5000000), wk =   0.0017361
        k(  266) = (   0.0416667   0.4583333  -0.4583333), wk =   0.0017361
        k(  267) = (   0.0416667   0.4583333  -0.4166667), wk =   0.0017361
        k(  268) = (   0.0416667  -0.5000000  -0.4583333), wk =   0.0017361
        k(  269) = (   0.0833333   0.1666667   0.2500000), wk =   0.0017361
        k(  270) = (   0.0833333   0.1666667   0.2916667), wk =   0.0017361
        k(  271) = (   0.0833333   0.1666667   0.3333333), wk =   0.0017361
        k(  272) = (   0.0833333   0.1666667   0.3750000), wk =   0.0017361
        k(  273) = (   0.0833333   0.1666667   0.4166667), wk =   0.0017361
        k(  274) = (   0.0833333   0.1666667   0.4583333), wk =   0.0017361
        k(  275) = (   0.0833333   0.1666667  -0.5000000), wk =   0.0017361
        k(  276) = (   0.0833333   0.1666667  -0.4583333), wk =   0.0017361
        k(  277) = (   0.0833333   0.1666667  -0.4166667), wk =   0.0017361
        k(  278) = (   0.0833333   0.2083333   0.2916667), wk =   0.0017361
        k(  279) = (   0.0833333   0.2083333   0.3333333), wk =   0.0017361
        k(  280) = (   0.0833333   0.2083333   0.3750000), wk =   0.0017361
        k(  281) = (   0.0833333   0.2083333   0.4166667), wk =   0.0017361
        k(  282) = (   0.0833333   0.2083333   0.4583333), wk =   0.0017361
        k(  283) = (   0.0833333   0.2083333  -0.5000000), wk =   0.0017361
        k(  284) = (   0.0833333   0.2083333  -0.4583333), wk =   0.0017361
        k(  285) = (   0.0833333   0.2083333  -0.4166667), wk =   0.0017361
        k(  286) = (   0.0833333   0.2083333  -0.3750000), wk =   0.0017361
        k(  287) = (   0.0833333   0.2083333  -0.3333333), wk =   0.0017361
        k(  288) = (   0.0833333   0.2083333  -0.2916667), wk =   0.0017361
        k(  289) = (   0.0833333   0.2083333  -0.2500000), wk =   0.0017361
        k(  290) = (   0.0833333   0.2083333  -0.2083333), wk =   0.0017361
        k(  291) = (   0.0833333   0.2083333  -0.1666667), wk =   0.0017361
        k(  292) = (   0.0833333   0.2083333  -0.1250000), wk =   0.0017361
        k(  293) = (   0.0833333   0.2500000   0.3333333), wk =   0.0017361
        k(  294) = (   0.0833333   0.2500000   0.3750000), wk =   0.0017361
        k(  295) = (   0.0833333   0.2500000   0.4166667), wk =   0.0017361
        k(  296) = (   0.0833333   0.2500000   0.4583333), wk =   0.0017361
        k(  297) = (   0.0833333   0.2500000  -0.5000000), wk =   0.0017361
        k(  298) = (   0.0833333   0.2500000  -0.4583333), wk =   0.0017361
        k(  299) = (   0.0833333   0.2500000  -0.4166667), wk =   0.0017361
        k(  300) = (   0.0833333   0.2500000  -0.3750000), wk =   0.0017361
        k(  301) = (   0.0833333   0.2500000  -0.3333333), wk =   0.0017361
        k(  302) = (   0.0833333   0.2500000  -0.2916667), wk =   0.0017361
        k(  303) = (   0.0833333   0.2500000  -0.2500000), wk =   0.0017361
        k(  304) = (   0.0833333   0.2500000  -0.2083333), wk =   0.0017361
        k(  305) = (   0.0833333   0.2500000  -0.1666667), wk =   0.0017361
        k(  306) = (   0.0833333   0.2916667   0.3750000), wk =   0.0017361
        k(  307) = (   0.0833333   0.2916667   0.4166667), wk =   0.0017361
        k(  308) = (   0.0833333   0.2916667   0.4583333), wk =   0.0017361
        k(  309) = (   0.0833333   0.2916667  -0.5000000), wk =   0.0017361
        k(  310) = (   0.0833333   0.2916667  -0.4583333), wk =   0.0017361
        k(  311) = (   0.0833333   0.2916667  -0.4166667), wk =   0.0017361
        k(  312) = (   0.0833333   0.2916667  -0.3750000), wk =   0.0017361
        k(  313) = (   0.0833333   0.2916667  -0.3333333), wk =   0.0017361
        k(  314) = (   0.0833333   0.2916667  -0.2916667), wk =   0.0017361
        k(  315) = (   0.0833333   0.2916667  -0.2500000), wk =   0.0017361
        k(  316) = (   0.0833333   0.2916667  -0.2083333), wk =   0.0017361
        k(  317) = (   0.0833333   0.3333333   0.4166667), wk =   0.0017361
        k(  318) = (   0.0833333   0.3333333   0.4583333), wk =   0.0017361
        k(  319) = (   0.0833333   0.3333333  -0.5000000), wk =   0.0017361
        k(  320) = (   0.0833333   0.3333333  -0.4583333), wk =   0.0017361
        k(  321) = (   0.0833333   0.3333333  -0.4166667), wk =   0.0017361
        k(  322) = (   0.0833333   0.3333333  -0.3750000), wk =   0.0017361
        k(  323) = (   0.0833333   0.3333333  -0.3333333), wk =   0.0017361
        k(  324) = (   0.0833333   0.3333333  -0.2916667), wk =   0.0017361
        k(  325) = (   0.0833333   0.3333333  -0.2500000), wk =   0.0017361
        k(  326) = (   0.0833333   0.3750000   0.4583333), wk =   0.0017361
        k(  327) = (   0.0833333   0.3750000  -0.5000000), wk =   0.0017361
        k(  328) = (   0.0833333   0.3750000  -0.4583333), wk =   0.0017361
        k(  329) = (   0.0833333   0.3750000  -0.4166667), wk =   0.0017361
        k(  330) = (   0.0833333   0.3750000  -0.3750000), wk =   0.0017361
        k(  331) = (   0.0833333   0.3750000  -0.3333333), wk =   0.0017361
        k(  332) = (   0.0833333   0.3750000  -0.2916667), wk =   0.0017361
        k(  333) = (   0.0833333   0.4166667  -0.5000000), wk =   0.0017361
        k(  334) = (   0.0833333   0.4166667  -0.4583333), wk =   0.0017361
        k(  335) = (   0.0833333   0.4166667  -0.4166667), wk =   0.0017361
        k(  336) = (   0.0833333   0.4166667  -0.3750000), wk =   0.0017361
        k(  337) = (   0.0833333   0.4166667  -0.3333333), wk =   0.0017361
        k(  338) = (   0.0833333   0.4583333  -0.4583333), wk =   0.0017361
        k(  339) = (   0.0833333   0.4583333  -0.4166667), wk =   0.0017361
        k(  340) = (   0.0833333   0.4583333  -0.3750000), wk =   0.0017361
        k(  341) = (   0.0833333  -0.5000000  -0.4166667), wk =   0.0017361
        k(  342) = (   0.1250000   0.2500000   0.3750000), wk =   0.0017361
        k(  343) = (   0.1250000   0.2500000   0.4166667), wk =   0.0017361
        k(  344) = (   0.1250000   0.2500000   0.4583333), wk =   0.0017361
        k(  345) = (   0.1250000   0.2500000  -0.5000000), wk =   0.0017361
        k(  346) = (   0.1250000   0.2500000  -0.4583333), wk =   0.0017361
        k(  347) = (   0.1250000   0.2500000  -0.4166667), wk =   0.0017361
        k(  348) = (   0.1250000   0.2500000  -0.3750000), wk =   0.0017361
        k(  349) = (   0.1250000   0.2916667   0.4166667), wk =   0.0017361
        k(  350) = (   0.1250000   0.2916667   0.4583333), wk =   0.0017361
        k(  351) = (   0.1250000   0.2916667  -0.5000000), wk =   0.0017361
        k(  352) = (   0.1250000   0.2916667  -0.4583333), wk =   0.0017361
        k(  353) = (   0.1250000   0.2916667  -0.4166667), wk =   0.0017361
        k(  354) = (   0.1250000   0.2916667  -0.3750000), wk =   0.0017361
        k(  355) = (   0.1250000   0.2916667  -0.3333333), wk =   0.0017361
        k(  356) = (   0.1250000   0.2916667  -0.2916667), wk =   0.0017361
        k(  357) = (   0.1250000   0.2916667  -0.2500000), wk =   0.0017361
        k(  358) = (   0.1250000   0.2916667  -0.2083333), wk =   0.0017361
        k(  359) = (   0.1250000   0.2916667  -0.1666667), wk =   0.0017361
        k(  360) = (   0.1250000   0.3333333   0.4583333), wk =   0.0017361
        k(  361) = (   0.1250000   0.3333333  -0.5000000), wk =   0.0017361
        k(  362) = (   0.1250000   0.3333333  -0.4583333), wk =   0.0017361
        k(  363) = (   0.1250000   0.3333333  -0.4166667), wk =   0.0017361
        k(  364) = (   0.1250000   0.3333333  -0.3750000), wk =   0.0017361
        k(  365) = (   0.1250000   0.3333333  -0.3333333), wk =   0.0017361
        k(  366) = (   0.1250000   0.3333333  -0.2916667), wk =   0.0017361
        k(  367) = (   0.1250000   0.3333333  -0.2500000), wk =   0.0017361
        k(  368) = (   0.1250000   0.3333333  -0.2083333), wk =   0.0017361
        k(  369) = (   0.1250000   0.3750000  -0.5000000), wk =   0.0017361
        k(  370) = (   0.1250000   0.3750000  -0.4583333), wk =   0.0017361
        k(  371) = (   0.1250000   0.3750000  -0.4166667), wk =   0.0017361
        k(  372) = (   0.1250000   0.3750000  -0.3750000), wk =   0.0017361
        k(  373) = (   0.1250000   0.3750000  -0.3333333), wk =   0.0017361
        k(  374) = (   0.1250000   0.3750000  -0.2916667), wk =   0.0017361
        k(  375) = (   0.1250000   0.3750000  -0.2500000), wk =   0.0017361
        k(  376) = (   0.1250000   0.4166667  -0.4583333), wk =   0.0017361
        k(  377) = (   0.1250000   0.4166667  -0.4166667), wk =   0.0017361
        k(  378) = (   0.1250000   0.4166667  -0.3750000), wk =   0.0017361
        k(  379) = (   0.1250000   0.4166667  -0.3333333), wk =   0.0017361
        k(  380) = (   0.1250000   0.4166667  -0.2916667), wk =   0.0017361
        k(  381) = (   0.1250000   0.4583333  -0.4166667), wk =   0.0017361
        k(  382) = (   0.1250000   0.4583333  -0.3750000), wk =   0.0017361
        k(  383) = (   0.1250000   0.4583333  -0.3333333), wk =   0.0017361
        k(  384) = (   0.1250000  -0.5000000  -0.3750000), wk =   0.0017361
        k(  385) = (   0.1666667   0.3333333  -0.5000000), wk =   0.0017361
        k(  386) = (   0.1666667   0.3333333  -0.4583333), wk =   0.0017361
        k(  387) = (   0.1666667   0.3333333  -0.4166667), wk =   0.0017361
        k(  388) = (   0.1666667   0.3333333  -0.3750000), wk =   0.0017361
        k(  389) = (   0.1666667   0.3333333  -0.3333333), wk =   0.0017361
        k(  390) = (   0.1666667   0.3750000  -0.4583333), wk =   0.0017361
        k(  391) = (   0.1666667   0.3750000  -0.4166667), wk =   0.0017361
        k(  392) = (   0.1666667   0.3750000  -0.3750000), wk =   0.0017361
        k(  393) = (   0.1666667   0.3750000  -0.3333333), wk =   0.0017361
        k(  394) = (   0.1666667   0.3750000  -0.2916667), wk =   0.0017361
        k(  395) = (   0.1666667   0.3750000  -0.2500000), wk =   0.0017361
        k(  396) = (   0.1666667   0.3750000  -0.2083333), wk =   0.0017361
        k(  397) = (   0.1666667   0.4166667  -0.4166667), wk =   0.0017361
        k(  398) = (   0.1666667   0.4166667  -0.3750000), wk =   0.0017361
        k(  399) = (   0.1666667   0.4166667  -0.3333333), wk =   0.0017361
        k(  400) = (   0.1666667   0.4166667  -0.2916667), wk =   0.0017361
        k(  401) = (   0.1666667   0.4166667  -0.2500000), wk =   0.0017361
        k(  402) = (   0.1666667   0.4583333  -0.3750000), wk =   0.0017361
        k(  403) = (   0.1666667   0.4583333  -0.3333333), wk =   0.0017361
        k(  404) = (   0.1666667   0.4583333  -0.2916667), wk =   0.0017361
        k(  405) = (   0.1666667  -0.5000000  -0.3333333), wk =   0.0017361
        k(  406) = (   0.2083333   0.4166667  -0.3750000), wk =   0.0017361
        k(  407) = (   0.2083333   0.4166667  -0.3333333), wk =   0.0017361
        k(  408) = (   0.2083333   0.4166667  -0.2916667), wk =   0.0017361
        k(  409) = (   0.2083333   0.4583333  -0.3333333), wk =   0.0017361
        k(  410) = (   0.2083333   0.4583333  -0.2916667), wk =   0.0017361
        k(  411) = (   0.2083333   0.4583333  -0.2500000), wk =   0.0017361
        k(  412) = (   0.2083333  -0.5000000  -0.2916667), wk =   0.0017361
        k(  413) = (   0.2500000  -0.5000000  -0.2500000), wk =   0.0008681
        k(  414) = (   0.0416667   0.0416667   0.0416667), wk =   0.0002894
        k(  415) = (   0.0833333   0.0833333   0.0833333), wk =   0.0002894
        k(  416) = (   0.1250000   0.1250000   0.1250000), wk =   0.0002894
        k(  417) = (   0.1666667   0.1666667   0.1666667), wk =   0.0002894
        k(  418) = (   0.2083333   0.2083333   0.2083333), wk =   0.0002894
        k(  419) = (   0.2500000   0.2500000   0.2500000), wk =   0.0002894
        k(  420) = (   0.2916667   0.2916667   0.2916667), wk =   0.0002894
        k(  421) = (   0.3333333   0.3333333   0.3333333), wk =   0.0002894
        k(  422) = (   0.3750000   0.3750000   0.3750000), wk =   0.0002894
        k(  423) = (   0.4166667   0.4166667   0.4166667), wk =   0.0002894
        k(  424) = (   0.4583333   0.4583333   0.4583333), wk =   0.0002894
        k(  425) = (  -0.5000000  -0.5000000  -0.5000000), wk =   0.0001447
        k(  426) = (   0.0416667  -0.0416667   0.0416667), wk =   0.0008681
        k(  427) = (   0.0416667   0.0833333   0.0833333), wk =   0.0008681
        k(  428) = (   0.0416667  -0.0833333   0.0416667), wk =   0.0008681
        k(  429) = (   0.0833333   0.1250000   0.1250000), wk =   0.0008681
        k(  430) = (   0.0416667  -0.1250000   0.0416667), wk =   0.0008681
        k(  431) = (   0.1250000   0.1666667   0.1666667), wk =   0.0008681
        k(  432) = (   0.0416667  -0.1666667   0.0416667), wk =   0.0008681
        k(  433) = (   0.1666667   0.2083333   0.2083333), wk =   0.0008681
        k(  434) = (   0.0416667  -0.2083333   0.0416667), wk =   0.0008681
        k(  435) = (   0.2083333   0.2500000   0.2500000), wk =   0.0008681
        k(  436) = (   0.0416667  -0.2500000   0.0416667), wk =   0.0008681
        k(  437) = (   0.2500000   0.2916667   0.2916667), wk =   0.0008681
        k(  438) = (   0.0416667  -0.2916667   0.0416667), wk =   0.0008681
        k(  439) = (   0.2916667   0.3333333   0.3333333), wk =   0.0008681
        k(  440) = (   0.0416667  -0.3333333   0.0416667), wk =   0.0008681
        k(  441) = (   0.3333333   0.3750000   0.3750000), wk =   0.0008681
        k(  442) = (   0.0416667  -0.3750000   0.0416667), wk =   0.0008681
        k(  443) = (   0.3750000   0.4166667   0.4166667), wk =   0.0008681
        k(  444) = (   0.0416667  -0.4166667   0.0416667), wk =   0.0008681
        k(  445) = (   0.4166667   0.4583333   0.4583333), wk =   0.0008681
        k(  446) = (   0.0416667   0.5416667   0.0416667), wk =   0.0008681
        k(  447) = (  -0.5416667  -0.5000000  -0.5000000), wk =   0.0008681
        k(  448) = (   0.0416667   0.5000000   0.0416667), wk =   0.0008681
        k(  449) = (  -0.5000000  -0.4583333  -0.4583333), wk =   0.0008681
        k(  450) = (   0.0416667   0.4583333   0.0416667), wk =   0.0008681
        k(  451) = (  -0.4583333  -0.4166667  -0.4166667), wk =   0.0008681
        k(  452) = (   0.0416667   0.4166667   0.0416667), wk =   0.0008681
        k(  453) = (  -0.4166667  -0.3750000  -0.3750000), wk =   0.0008681
        k(  454) = (   0.0416667   0.3750000   0.0416667), wk =   0.0008681
        k(  455) = (  -0.3750000  -0.3333333  -0.3333333), wk =   0.0008681
        k(  456) = (   0.0416667   0.3333333   0.0416667), wk =   0.0008681
        k(  457) = (  -0.3333333  -0.2916667  -0.2916667), wk =   0.0008681
        k(  458) = (   0.0416667   0.2916667   0.0416667), wk =   0.0008681
        k(  459) = (  -0.2916667  -0.2500000  -0.2500000), wk =   0.0008681
        k(  460) = (   0.0416667   0.2500000   0.0416667), wk =   0.0008681
        k(  461) = (  -0.2500000  -0.2083333  -0.2083333), wk =   0.0008681
        k(  462) = (   0.0416667   0.2083333   0.0416667), wk =   0.0008681
        k(  463) = (  -0.2083333  -0.1666667  -0.1666667), wk =   0.0008681
        k(  464) = (   0.0416667   0.1666667   0.0416667), wk =   0.0008681
        k(  465) = (  -0.1666667  -0.1250000  -0.1250000), wk =   0.0008681
        k(  466) = (   0.0416667   0.1250000   0.0416667), wk =   0.0008681
        k(  467) = (  -0.1250000  -0.0833333  -0.0833333), wk =   0.0008681
        k(  468) = (   0.0416667   0.0833333   0.0416667), wk =   0.0008681
        k(  469) = (   0.0833333  -0.0416667   0.0833333), wk =   0.0008681
        k(  470) = (   0.0416667   0.1250000   0.1250000), wk =   0.0008681
        k(  471) = (   0.0833333  -0.0833333   0.0833333), wk =   0.0008681
        k(  472) = (   0.0833333   0.1666667   0.1666667), wk =   0.0008681
        k(  473) = (   0.0833333  -0.1250000   0.0833333), wk =   0.0008681
        k(  474) = (   0.1250000   0.2083333   0.2083333), wk =   0.0008681
        k(  475) = (   0.0833333  -0.1666667   0.0833333), wk =   0.0008681
        k(  476) = (   0.1666667   0.2500000   0.2500000), wk =   0.0008681
        k(  477) = (   0.0833333  -0.2083333   0.0833333), wk =   0.0008681
        k(  478) = (   0.2083333   0.2916667   0.2916667), wk =   0.0008681
        k(  479) = (   0.0833333  -0.2500000   0.0833333), wk =   0.0008681
        k(  480) = (   0.2500000   0.3333333   0.3333333), wk =   0.0008681
        k(  481) = (   0.0833333  -0.2916667   0.0833333), wk =   0.0008681
        k(  482) = (   0.2916667   0.3750000   0.3750000), wk =   0.0008681
        k(  483) = (   0.0833333  -0.3333333   0.0833333), wk =   0.0008681
        k(  484) = (   0.3333333   0.4166667   0.4166667), wk =   0.0008681
        k(  485) = (   0.0833333  -0.3750000   0.0833333), wk =   0.0008681
        k(  486) = (   0.3750000   0.4583333   0.4583333), wk =   0.0008681
        k(  487) = (   0.0833333   0.5833333   0.0833333), wk =   0.0008681
        k(  488) = (  -0.5833333  -0.5000000  -0.5000000), wk =   0.0008681
        k(  489) = (   0.0833333   0.5416667   0.0833333), wk =   0.0008681
        k(  490) = (  -0.5416667  -0.4583333  -0.4583333), wk =   0.0008681
        k(  491) = (   0.0833333   0.5000000   0.0833333), wk =   0.0008681
        k(  492) = (  -0.5000000  -0.4166667  -0.4166667), wk =   0.0008681
        k(  493) = (   0.0833333   0.4583333   0.0833333), wk =   0.0008681
        k(  494) = (  -0.4583333  -0.3750000  -0.3750000), wk =   0.0008681
        k(  495) = (   0.0833333   0.4166667   0.0833333), wk =   0.0008681
        k(  496) = (  -0.4166667  -0.3333333  -0.3333333), wk =   0.0008681
        k(  497) = (   0.0833333   0.3750000   0.0833333), wk =   0.0008681
        k(  498) = (  -0.3750000  -0.2916667  -0.2916667), wk =   0.0008681
        k(  499) = (   0.0833333   0.3333333   0.0833333), wk =   0.0008681
        k(  500) = (  -0.3333333  -0.2500000  -0.2500000), wk =   0.0008681
        k(  501) = (   0.0833333   0.2916667   0.0833333), wk =   0.0008681
        k(  502) = (  -0.2916667  -0.2083333  -0.2083333), wk =   0.0008681
        k(  503) = (   0.0833333   0.2500000   0.0833333), wk =   0.0008681
        k(  504) = (  -0.2500000  -0.1666667  -0.1666667), wk =   0.0008681
        k(  505) = (   0.0833333   0.2083333   0.0833333), wk =   0.0008681
        k(  506) = (  -0.2083333  -0.1250000  -0.1250000), wk =   0.0008681
        k(  507) = (   0.0833333   0.1666667   0.0833333), wk =   0.0008681
        k(  508) = (   0.1250000  -0.0416667   0.1250000), wk =   0.0008681
        k(  509) = (   0.0416667   0.1666667   0.1666667), wk =   0.0008681
        k(  510) = (   0.1250000  -0.0833333   0.1250000), wk =   0.0008681
        k(  511) = (   0.0833333   0.2083333   0.2083333), wk =   0.0008681
        k(  512) = (   0.1250000  -0.1250000   0.1250000), wk =   0.0008681
        k(  513) = (   0.1250000   0.2500000   0.2500000), wk =   0.0008681
        k(  514) = (   0.1250000  -0.1666667   0.1250000), wk =   0.0008681
        k(  515) = (   0.1666667   0.2916667   0.2916667), wk =   0.0008681
        k(  516) = (   0.1250000  -0.2083333   0.1250000), wk =   0.0008681
        k(  517) = (   0.2083333   0.3333333   0.3333333), wk =   0.0008681
        k(  518) = (   0.1250000  -0.2500000   0.1250000), wk =   0.0008681
        k(  519) = (   0.2500000   0.3750000   0.3750000), wk =   0.0008681
        k(  520) = (   0.1250000  -0.2916667   0.1250000), wk =   0.0008681
        k(  521) = (   0.2916667   0.4166667   0.4166667), wk =   0.0008681
        k(  522) = (   0.1250000  -0.3333333   0.1250000), wk =   0.0008681
        k(  523) = (   0.3333333   0.4583333   0.4583333), wk =   0.0008681
        k(  524) = (   0.1250000   0.6250000   0.1250000), wk =   0.0008681
        k(  525) = (  -0.6250000  -0.5000000  -0.5000000), wk =   0.0008681
        k(  526) = (   0.1250000   0.5833333   0.1250000), wk =   0.0008681
        k(  527) = (  -0.5833333  -0.4583333  -0.4583333), wk =   0.0008681
        k(  528) = (   0.1250000   0.5416667   0.1250000), wk =   0.0008681
        k(  529) = (  -0.5416667  -0.4166667  -0.4166667), wk =   0.0008681
        k(  530) = (   0.1250000   0.5000000   0.1250000), wk =   0.0008681
        k(  531) = (  -0.5000000  -0.3750000  -0.3750000), wk =   0.0008681
        k(  532) = (   0.1250000   0.4583333   0.1250000), wk =   0.0008681
        k(  533) = (  -0.4583333  -0.3333333  -0.3333333), wk =   0.0008681
        k(  534) = (   0.1250000   0.4166667   0.1250000), wk =   0.0008681
        k(  535) = (  -0.4166667  -0.2916667  -0.2916667), wk =   0.0008681
        k(  536) = (   0.1250000   0.3750000   0.1250000), wk =   0.0008681
        k(  537) = (  -0.3750000  -0.2500000  -0.2500000), wk =   0.0008681
        k(  538) = (   0.1250000   0.3333333   0.1250000), wk =   0.0008681
        k(  539) = (  -0.3333333  -0.2083333  -0.2083333), wk =   0.0008681
        k(  540) = (   0.1250000   0.2916667   0.1250000), wk =   0.0008681
        k(  541) = (  -0.2916667  -0.1666667  -0.1666667), wk =   0.0008681
        k(  542) = (   0.1250000   0.2500000   0.1250000), wk =   0.0008681
        k(  543) = (   0.1666667  -0.0416667   0.1666667), wk =   0.0008681
        k(  544) = (   0.0416667   0.2083333   0.2083333), wk =   0.0008681
        k(  545) = (   0.1666667  -0.0833333   0.1666667), wk =   0.0008681
        k(  546) = (   0.0833333   0.2500000   0.2500000), wk =   0.0008681
        k(  547) = (   0.1666667  -0.1250000   0.1666667), wk =   0.0008681
        k(  548) = (   0.1250000   0.2916667   0.2916667), wk =   0.0008681
        k(  549) = (   0.1666667  -0.1666667   0.1666667), wk =   0.0008681
        k(  550) = (   0.1666667   0.3333333   0.3333333), wk =   0.0008681
        k(  551) = (   0.1666667  -0.2083333   0.1666667), wk =   0.0008681
        k(  552) = (   0.2083333   0.3750000   0.3750000), wk =   0.0008681
        k(  553) = (   0.1666667  -0.2500000   0.1666667), wk =   0.0008681
        k(  554) = (   0.2500000   0.4166667   0.4166667), wk =   0.0008681
        k(  555) = (   0.1666667  -0.2916667   0.1666667), wk =   0.0008681
        k(  556) = (   0.2916667   0.4583333   0.4583333), wk =   0.0008681
        k(  557) = (   0.1666667   0.6666667   0.1666667), wk =   0.0008681
        k(  558) = (  -0.6666667  -0.5000000  -0.5000000), wk =   0.0008681
        k(  559) = (   0.1666667   0.6250000   0.1666667), wk =   0.0008681
        k(  560) = (  -0.6250000  -0.4583333  -0.4583333), wk =   0.0008681
        k(  561) = (   0.1666667   0.5833333   0.1666667), wk =   0.0008681
        k(  562) = (  -0.5833333  -0.4166667  -0.4166667), wk =   0.0008681
        k(  563) = (   0.1666667   0.5416667   0.1666667), wk =   0.0008681
        k(  564) = (  -0.5416667  -0.3750000  -0.3750000), wk =   0.0008681
        k(  565) = (   0.1666667   0.5000000   0.1666667), wk =   0.0008681
        k(  566) = (  -0.5000000  -0.3333333  -0.3333333), wk =   0.0008681
        k(  567) = (   0.1666667   0.4583333   0.1666667), wk =   0.0008681
        k(  568) = (  -0.4583333  -0.2916667  -0.2916667), wk =   0.0008681
        k(  569) = (   0.1666667   0.4166667   0.1666667), wk =   0.0008681
        k(  570) = (  -0.4166667  -0.2500000  -0.2500000), wk =   0.0008681
        k(  571) = (   0.1666667   0.3750000   0.1666667), wk =   0.0008681
        k(  572) = (  -0.3750000  -0.2083333  -0.2083333), wk =   0.0008681
        k(  573) = (   0.1666667   0.3333333   0.1666667), wk =   0.0008681
        k(  574) = (   0.2083333  -0.0416667   0.2083333), wk =   0.0008681
        k(  575) = (   0.0416667   0.2500000   0.2500000), wk =   0.0008681
        k(  576) = (   0.2083333  -0.0833333   0.2083333), wk =   0.0008681
        k(  577) = (   0.0833333   0.2916667   0.2916667), wk =   0.0008681
        k(  578) = (   0.2083333  -0.1250000   0.2083333), wk =   0.0008681
        k(  579) = (   0.1250000   0.3333333   0.3333333), wk =   0.0008681
        k(  580) = (   0.2083333  -0.1666667   0.2083333), wk =   0.0008681
        k(  581) = (   0.1666667   0.3750000   0.3750000), wk =   0.0008681
        k(  582) = (   0.2083333  -0.2083333   0.2083333), wk =   0.0008681
        k(  583) = (   0.2083333   0.4166667   0.4166667), wk =   0.0008681
        k(  584) = (   0.2083333  -0.2500000   0.2083333), wk =   0.0008681
        k(  585) = (   0.2500000   0.4583333   0.4583333), wk =   0.0008681
        k(  586) = (   0.2083333   0.7083333   0.2083333), wk =   0.0008681
        k(  587) = (  -0.7083333  -0.5000000  -0.5000000), wk =   0.0008681
        k(  588) = (   0.2083333   0.6666667   0.2083333), wk =   0.0008681
        k(  589) = (  -0.6666667  -0.4583333  -0.4583333), wk =   0.0008681
        k(  590) = (   0.2083333   0.6250000   0.2083333), wk =   0.0008681
        k(  591) = (  -0.6250000  -0.4166667  -0.4166667), wk =   0.0008681
        k(  592) = (   0.2083333   0.5833333   0.2083333), wk =   0.0008681
        k(  593) = (  -0.5833333  -0.3750000  -0.3750000), wk =   0.0008681
        k(  594) = (   0.2083333   0.5416667   0.2083333), wk =   0.0008681
        k(  595) = (  -0.5416667  -0.3333333  -0.3333333), wk =   0.0008681
        k(  596) = (   0.2083333   0.5000000   0.2083333), wk =   0.0008681
        k(  597) = (  -0.5000000  -0.2916667  -0.2916667), wk =   0.0008681
        k(  598) = (   0.2083333   0.4583333   0.2083333), wk =   0.0008681
        k(  599) = (  -0.4583333  -0.2500000  -0.2500000), wk =   0.0008681
        k(  600) = (   0.2083333   0.4166667   0.2083333), wk =   0.0008681
        k(  601) = (   0.2500000  -0.0416667   0.2500000), wk =   0.0008681
        k(  602) = (   0.0416667   0.2916667   0.2916667), wk =   0.0008681
        k(  603) = (   0.2500000  -0.0833333   0.2500000), wk =   0.0008681
        k(  604) = (   0.0833333   0.3333333   0.3333333), wk =   0.0008681
        k(  605) = (   0.2500000  -0.1250000   0.2500000), wk =   0.0008681
        k(  606) = (   0.1250000   0.3750000   0.3750000), wk =   0.0008681
        k(  607) = (   0.2500000  -0.1666667   0.2500000), wk =   0.0008681
        k(  608) = (   0.1666667   0.4166667   0.4166667), wk =   0.0008681
        k(  609) = (   0.2500000  -0.2083333   0.2500000), wk =   0.0008681
        k(  610) = (   0.2083333   0.4583333   0.4583333), wk =   0.0008681
        k(  611) = (   0.2500000   0.7500000   0.2500000), wk =   0.0008681
        k(  612) = (  -0.7500000  -0.5000000  -0.5000000), wk =   0.0008681
        k(  613) = (   0.2500000   0.7083333   0.2500000), wk =   0.0008681
        k(  614) = (  -0.7083333  -0.4583333  -0.4583333), wk =   0.0008681
        k(  615) = (   0.2500000   0.6666667   0.2500000), wk =   0.0008681
        k(  616) = (  -0.6666667  -0.4166667  -0.4166667), wk =   0.0008681
        k(  617) = (   0.2500000   0.6250000   0.2500000), wk =   0.0008681
        k(  618) = (  -0.6250000  -0.3750000  -0.3750000), wk =   0.0008681
        k(  619) = (   0.2500000   0.5833333   0.2500000), wk =   0.0008681
        k(  620) = (  -0.5833333  -0.3333333  -0.3333333), wk =   0.0008681
        k(  621) = (   0.2500000   0.5416667   0.2500000), wk =   0.0008681
        k(  622) = (  -0.5416667  -0.2916667  -0.2916667), wk =   0.0008681
        k(  623) = (   0.2500000   0.5000000   0.2500000), wk =   0.0008681
        k(  624) = (   0.2916667  -0.0416667   0.2916667), wk =   0.0008681
        k(  625) = (   0.0416667   0.3333333   0.3333333), wk =   0.0008681
        k(  626) = (   0.2916667  -0.0833333   0.2916667), wk =   0.0008681
        k(  627) = (   0.0833333   0.3750000   0.3750000), wk =   0.0008681
        k(  628) = (   0.2916667  -0.1250000   0.2916667), wk =   0.0008681
        k(  629) = (   0.1250000   0.4166667   0.4166667), wk =   0.0008681
        k(  630) = (   0.2916667  -0.1666667   0.2916667), wk =   0.0008681
        k(  631) = (   0.1666667   0.4583333   0.4583333), wk =   0.0008681
        k(  632) = (   0.2916667   0.7916667   0.2916667), wk =   0.0008681
        k(  633) = (  -0.7916667  -0.5000000  -0.5000000), wk =   0.0008681
        k(  634) = (   0.2916667   0.7500000   0.2916667), wk =   0.0008681
        k(  635) = (  -0.7500000  -0.4583333  -0.4583333), wk =   0.0008681
        k(  636) = (   0.2916667   0.7083333   0.2916667), wk =   0.0008681
        k(  637) = (  -0.7083333  -0.4166667  -0.4166667), wk =   0.0008681
        k(  638) = (   0.2916667   0.6666667   0.2916667), wk =   0.0008681
        k(  639) = (  -0.6666667  -0.3750000  -0.3750000), wk =   0.0008681
        k(  640) = (   0.2916667   0.6250000   0.2916667), wk =   0.0008681
        k(  641) = (  -0.6250000  -0.3333333  -0.3333333), wk =   0.0008681
        k(  642) = (   0.2916667   0.5833333   0.2916667), wk =   0.0008681
        k(  643) = (   0.3333333  -0.0416667   0.3333333), wk =   0.0008681
        k(  644) = (   0.0416667   0.3750000   0.3750000), wk =   0.0008681
        k(  645) = (   0.3333333  -0.0833333   0.3333333), wk =   0.0008681
        k(  646) = (   0.0833333   0.4166667   0.4166667), wk =   0.0008681
        k(  647) = (   0.3333333  -0.1250000   0.3333333), wk =   0.0008681
        k(  648) = (   0.1250000   0.4583333   0.4583333), wk =   0.0008681
        k(  649) = (   0.3333333   0.8333333   0.3333333), wk =   0.0008681
        k(  650) = (  -0.8333333  -0.5000000  -0.5000000), wk =   0.0008681
        k(  651) = (   0.3333333   0.7916667   0.3333333), wk =   0.0008681
        k(  652) = (  -0.7916667  -0.4583333  -0.4583333), wk =   0.0008681
        k(  653) = (   0.3333333   0.7500000   0.3333333), wk =   0.0008681
        k(  654) = (  -0.7500000  -0.4166667  -0.4166667), wk =   0.0008681
        k(  655) = (   0.3333333   0.7083333   0.3333333), wk =   0.0008681
        k(  656) = (  -0.7083333  -0.3750000  -0.3750000), wk =   0.0008681
        k(  657) = (   0.3333333   0.6666667   0.3333333), wk =   0.0008681
        k(  658) = (   0.3750000  -0.0416667   0.3750000), wk =   0.0008681
        k(  659) = (   0.0416667   0.4166667   0.4166667), wk =   0.0008681
        k(  660) = (   0.3750000  -0.0833333   0.3750000), wk =   0.0008681
        k(  661) = (   0.0833333   0.4583333   0.4583333), wk =   0.0008681
        k(  662) = (   0.3750000   0.8750000   0.3750000), wk =   0.0008681
        k(  663) = (  -0.8750000  -0.5000000  -0.5000000), wk =   0.0008681
        k(  664) = (   0.3750000   0.8333333   0.3750000), wk =   0.0008681
        k(  665) = (  -0.8333333  -0.4583333  -0.4583333), wk =   0.0008681
        k(  666) = (   0.3750000   0.7916667   0.3750000), wk =   0.0008681
        k(  667) = (  -0.7916667  -0.4166667  -0.4166667), wk =   0.0008681
        k(  668) = (   0.3750000   0.7500000   0.3750000), wk =   0.0008681
        k(  669) = (   0.4166667  -0.0416667   0.4166667), wk =   0.0008681
        k(  670) = (   0.0416667   0.4583333   0.4583333), wk =   0.0008681
        k(  671) = (   0.4166667   0.9166667   0.4166667), wk =   0.0008681
        k(  672) = (  -0.9166667  -0.5000000  -0.5000000), wk =   0.0008681
        k(  673) = (   0.4166667   0.8750000   0.4166667), wk =   0.0008681
        k(  674) = (  -0.8750000  -0.4583333  -0.4583333), wk =   0.0008681
        k(  675) = (   0.4166667   0.8333333   0.4166667), wk =   0.0008681
        k(  676) = (   0.4583333   0.9583333   0.4583333), wk =   0.0008681
        k(  677) = (  -0.9583333  -0.5000000  -0.5000000), wk =   0.0008681
        k(  678) = (   0.4583333   0.9166667   0.4583333), wk =   0.0008681
        k(  679) = (  -0.0833333   0.0416667  -0.0416667), wk =   0.0017361
        k(  680) = (  -0.1250000   0.0416667  -0.0416667), wk =   0.0017361
        k(  681) = (   0.0833333  -0.0833333   0.0416667), wk =   0.0017361
        k(  682) = (   0.0833333   0.1666667   0.1250000), wk =   0.0017361
        k(  683) = (  -0.1666667   0.0416667  -0.0416667), wk =   0.0017361
        k(  684) = (   0.0833333  -0.1250000   0.0416667), wk =   0.0017361
        k(  685) = (   0.1250000   0.2083333   0.1666667), wk =   0.0017361
        k(  686) = (  -0.2083333   0.0416667  -0.0416667), wk =   0.0017361
        k(  687) = (   0.0833333  -0.1666667   0.0416667), wk =   0.0017361
        k(  688) = (   0.1666667   0.2500000   0.2083333), wk =   0.0017361
        k(  689) = (  -0.2500000   0.0416667  -0.0416667), wk =   0.0017361
        k(  690) = (   0.0833333  -0.2083333   0.0416667), wk =   0.0017361
        k(  691) = (   0.2083333   0.2916667   0.2500000), wk =   0.0017361
        k(  692) = (  -0.2916667   0.0416667  -0.0416667), wk =   0.0017361
        k(  693) = (   0.0833333  -0.2500000   0.0416667), wk =   0.0017361
        k(  694) = (   0.2500000   0.3333333   0.2916667), wk =   0.0017361
        k(  695) = (  -0.3333333   0.0416667  -0.0416667), wk =   0.0017361
        k(  696) = (   0.0833333  -0.2916667   0.0416667), wk =   0.0017361
        k(  697) = (   0.2916667   0.3750000   0.3333333), wk =   0.0017361
        k(  698) = (  -0.3750000   0.0416667  -0.0416667), wk =   0.0017361
        k(  699) = (   0.0833333  -0.3333333   0.0416667), wk =   0.0017361
        k(  700) = (   0.3333333   0.4166667   0.3750000), wk =   0.0017361
        k(  701) = (  -0.4166667   0.0416667  -0.0416667), wk =   0.0017361
        k(  702) = (   0.0833333  -0.3750000   0.0416667), wk =   0.0017361
        k(  703) = (   0.3750000   0.4583333   0.4166667), wk =   0.0017361
        k(  704) = (   0.5416667   0.0416667  -0.0416667), wk =   0.0017361
        k(  705) = (   0.0833333   0.5833333   0.0416667), wk =   0.0017361
        k(  706) = (  -0.5833333  -0.5000000  -0.5416667), wk =   0.0017361
        k(  707) = (   0.5000000   0.0416667  -0.0416667), wk =   0.0008681
        k(  708) = (  -0.5416667  -0.4583333  -0.5000000), wk =   0.0008681
        k(  709) = (  -0.1250000   0.0416667  -0.0833333), wk =   0.0017361
        k(  710) = (  -0.1666667   0.0416667  -0.0833333), wk =   0.0017361
        k(  711) = (   0.1250000  -0.0833333   0.0833333), wk =   0.0017361
        k(  712) = (   0.0833333   0.2083333   0.1666667), wk =   0.0017361
        k(  713) = (  -0.2083333   0.0416667  -0.0833333), wk =   0.0017361
        k(  714) = (   0.1250000  -0.1250000   0.0833333), wk =   0.0017361
        k(  715) = (   0.1250000   0.2500000   0.2083333), wk =   0.0017361
        k(  716) = (  -0.2500000   0.0416667  -0.0833333), wk =   0.0017361
        k(  717) = (   0.1250000  -0.1666667   0.0833333), wk =   0.0017361
        k(  718) = (   0.1666667   0.2916667   0.2500000), wk =   0.0017361
        k(  719) = (  -0.2916667   0.0416667  -0.0833333), wk =   0.0017361
        k(  720) = (   0.1250000  -0.2083333   0.0833333), wk =   0.0017361
        k(  721) = (   0.2083333   0.3333333   0.2916667), wk =   0.0017361
        k(  722) = (  -0.3333333   0.0416667  -0.0833333), wk =   0.0017361
        k(  723) = (   0.1250000  -0.2500000   0.0833333), wk =   0.0017361
        k(  724) = (   0.2500000   0.3750000   0.3333333), wk =   0.0017361
        k(  725) = (  -0.3750000   0.0416667  -0.0833333), wk =   0.0017361
        k(  726) = (   0.1250000  -0.2916667   0.0833333), wk =   0.0017361
        k(  727) = (   0.2916667   0.4166667   0.3750000), wk =   0.0017361
        k(  728) = (  -0.4166667   0.0416667  -0.0833333), wk =   0.0017361
        k(  729) = (   0.1250000  -0.3333333   0.0833333), wk =   0.0017361
        k(  730) = (   0.3333333   0.4583333   0.4166667), wk =   0.0017361
        k(  731) = (   0.5416667   0.0416667  -0.0833333), wk =   0.0017361
        k(  732) = (   0.1250000   0.6250000   0.0833333), wk =   0.0017361
        k(  733) = (  -0.6250000  -0.5000000  -0.5416667), wk =   0.0017361
        k(  734) = (   0.5000000   0.0416667  -0.0833333), wk =   0.0017361
        k(  735) = (   0.1250000   0.5833333   0.0833333), wk =   0.0017361
        k(  736) = (  -0.5833333  -0.4583333  -0.5000000), wk =   0.0017361
        k(  737) = (   0.4583333   0.0416667  -0.0833333), wk =   0.0017361
        k(  738) = (   0.1250000   0.5416667   0.0833333), wk =   0.0017361
        k(  739) = (  -0.5416667  -0.4166667  -0.4583333), wk =   0.0017361
        k(  740) = (   0.4166667   0.0416667  -0.0833333), wk =   0.0017361
        k(  741) = (   0.1250000   0.5000000   0.0833333), wk =   0.0017361
        k(  742) = (  -0.5000000  -0.3750000  -0.4166667), wk =   0.0017361
        k(  743) = (   0.3750000   0.0416667  -0.0833333), wk =   0.0017361
        k(  744) = (   0.1250000   0.4583333   0.0833333), wk =   0.0017361
        k(  745) = (  -0.4583333  -0.3333333  -0.3750000), wk =   0.0017361
        k(  746) = (   0.3333333   0.0416667  -0.0833333), wk =   0.0017361
        k(  747) = (   0.1250000   0.4166667   0.0833333), wk =   0.0017361
        k(  748) = (  -0.4166667  -0.2916667  -0.3333333), wk =   0.0017361
        k(  749) = (   0.2916667   0.0416667  -0.0833333), wk =   0.0017361
        k(  750) = (   0.1250000   0.3750000   0.0833333), wk =   0.0017361
        k(  751) = (  -0.3750000  -0.2500000  -0.2916667), wk =   0.0017361
        k(  752) = (   0.2500000   0.0416667  -0.0833333), wk =   0.0017361
        k(  753) = (   0.1250000   0.3333333   0.0833333), wk =   0.0017361
        k(  754) = (  -0.3333333  -0.2083333  -0.2500000), wk =   0.0017361
        k(  755) = (   0.2083333   0.0416667  -0.0833333), wk =   0.0017361
        k(  756) = (   0.1250000   0.2916667   0.0833333), wk =   0.0017361
        k(  757) = (  -0.2916667  -0.1666667  -0.2083333), wk =   0.0017361
        k(  758) = (   0.1666667   0.0416667  -0.0833333), wk =   0.0017361
        k(  759) = (   0.1250000   0.2500000   0.0833333), wk =   0.0017361
        k(  760) = (  -0.2500000  -0.1250000  -0.1666667), wk =   0.0017361
        k(  761) = (   0.1250000   0.2083333   0.0833333), wk =   0.0017361
        k(  762) = (  -0.1666667   0.0416667  -0.1250000), wk =   0.0017361
        k(  763) = (  -0.2083333   0.0416667  -0.1250000), wk =   0.0017361
        k(  764) = (   0.1666667  -0.0833333   0.1250000), wk =   0.0017361
        k(  765) = (   0.0833333   0.2500000   0.2083333), wk =   0.0017361
        k(  766) = (  -0.2500000   0.0416667  -0.1250000), wk =   0.0017361
        k(  767) = (   0.1666667  -0.1250000   0.1250000), wk =   0.0017361
        k(  768) = (   0.1250000   0.2916667   0.2500000), wk =   0.0017361
        k(  769) = (  -0.2916667   0.0416667  -0.1250000), wk =   0.0017361
        k(  770) = (   0.1666667  -0.1666667   0.1250000), wk =   0.0017361
        k(  771) = (   0.1666667   0.3333333   0.2916667), wk =   0.0017361
        k(  772) = (  -0.3333333   0.0416667  -0.1250000), wk =   0.0017361
        k(  773) = (   0.1666667  -0.2083333   0.1250000), wk =   0.0017361
        k(  774) = (   0.2083333   0.3750000   0.3333333), wk =   0.0017361
        k(  775) = (  -0.3750000   0.0416667  -0.1250000), wk =   0.0017361
        k(  776) = (   0.1666667  -0.2500000   0.1250000), wk =   0.0017361
        k(  777) = (   0.2500000   0.4166667   0.3750000), wk =   0.0017361
        k(  778) = (  -0.4166667   0.0416667  -0.1250000), wk =   0.0017361
        k(  779) = (   0.1666667  -0.2916667   0.1250000), wk =   0.0017361
        k(  780) = (   0.2916667   0.4583333   0.4166667), wk =   0.0017361
        k(  781) = (   0.5416667   0.0416667  -0.1250000), wk =   0.0017361
        k(  782) = (   0.1666667   0.6666667   0.1250000), wk =   0.0017361
        k(  783) = (  -0.6666667  -0.5000000  -0.5416667), wk =   0.0017361
        k(  784) = (   0.5000000   0.0416667  -0.1250000), wk =   0.0017361
        k(  785) = (   0.1666667   0.6250000   0.1250000), wk =   0.0017361
        k(  786) = (  -0.6250000  -0.4583333  -0.5000000), wk =   0.0017361
        k(  787) = (   0.4583333   0.0416667  -0.1250000), wk =   0.0017361
        k(  788) = (   0.1666667   0.5833333   0.1250000), wk =   0.0017361
        k(  789) = (  -0.5833333  -0.4166667  -0.4583333), wk =   0.0017361
        k(  790) = (   0.4166667   0.0416667  -0.1250000), wk =   0.0017361
        k(  791) = (   0.1666667   0.5416667   0.1250000), wk =   0.0017361
        k(  792) = (  -0.5416667  -0.3750000  -0.4166667), wk =   0.0017361
        k(  793) = (   0.3750000   0.0416667  -0.1250000), wk =   0.0017361
        k(  794) = (   0.1666667   0.5000000   0.1250000), wk =   0.0017361
        k(  795) = (  -0.5000000  -0.3333333  -0.3750000), wk =   0.0017361
        k(  796) = (   0.3333333   0.0416667  -0.1250000), wk =   0.0017361
        k(  797) = (   0.1666667   0.4583333   0.1250000), wk =   0.0017361
        k(  798) = (  -0.4583333  -0.2916667  -0.3333333), wk =   0.0017361
        k(  799) = (   0.2916667   0.0416667  -0.1250000), wk =   0.0017361
        k(  800) = (   0.1666667   0.4166667   0.1250000), wk =   0.0017361
        k(  801) = (  -0.4166667  -0.2500000  -0.2916667), wk =   0.0017361
        k(  802) = (   0.2500000   0.0416667  -0.1250000), wk =   0.0017361
        k(  803) = (   0.1666667   0.3750000   0.1250000), wk =   0.0017361
        k(  804) = (  -0.3750000  -0.2083333  -0.2500000), wk =   0.0017361
        k(  805) = (   0.2083333   0.0416667  -0.1250000), wk =   0.0017361
        k(  806) = (   0.1666667   0.3333333   0.1250000), wk =   0.0017361
        k(  807) = (  -0.3333333  -0.1666667  -0.2083333), wk =   0.0017361
        k(  808) = (   0.1666667   0.2916667   0.1250000), wk =   0.0017361
        k(  809) = (  -0.2083333   0.0416667  -0.1666667), wk =   0.0017361
        k(  810) = (  -0.2500000   0.0416667  -0.1666667), wk =   0.0017361
        k(  811) = (   0.2083333  -0.0833333   0.1666667), wk =   0.0017361
        k(  812) = (   0.0833333   0.2916667   0.2500000), wk =   0.0017361
        k(  813) = (  -0.2916667   0.0416667  -0.1666667), wk =   0.0017361
        k(  814) = (   0.2083333  -0.1250000   0.1666667), wk =   0.0017361
        k(  815) = (   0.1250000   0.3333333   0.2916667), wk =   0.0017361
        k(  816) = (  -0.3333333   0.0416667  -0.1666667), wk =   0.0017361
        k(  817) = (   0.2083333  -0.1666667   0.1666667), wk =   0.0017361
        k(  818) = (   0.1666667   0.3750000   0.3333333), wk =   0.0017361
        k(  819) = (  -0.3750000   0.0416667  -0.1666667), wk =   0.0017361
        k(  820) = (   0.2083333  -0.2083333   0.1666667), wk =   0.0017361
        k(  821) = (   0.2083333   0.4166667   0.3750000), wk =   0.0017361
        k(  822) = (  -0.4166667   0.0416667  -0.1666667), wk =   0.0017361
        k(  823) = (   0.2083333  -0.2500000   0.1666667), wk =   0.0017361
        k(  824) = (   0.2500000   0.4583333   0.4166667), wk =   0.0017361
        k(  825) = (   0.5416667   0.0416667  -0.1666667), wk =   0.0017361
        k(  826) = (   0.2083333   0.7083333   0.1666667), wk =   0.0017361
        k(  827) = (  -0.7083333  -0.5000000  -0.5416667), wk =   0.0017361
        k(  828) = (   0.5000000   0.0416667  -0.1666667), wk =   0.0017361
        k(  829) = (   0.2083333   0.6666667   0.1666667), wk =   0.0017361
        k(  830) = (  -0.6666667  -0.4583333  -0.5000000), wk =   0.0017361
        k(  831) = (   0.4583333   0.0416667  -0.1666667), wk =   0.0017361
        k(  832) = (   0.2083333   0.6250000   0.1666667), wk =   0.0017361
        k(  833) = (  -0.6250000  -0.4166667  -0.4583333), wk =   0.0017361
        k(  834) = (   0.4166667   0.0416667  -0.1666667), wk =   0.0017361
        k(  835) = (   0.2083333   0.5833333   0.1666667), wk =   0.0017361
        k(  836) = (  -0.5833333  -0.3750000  -0.4166667), wk =   0.0017361
        k(  837) = (   0.3750000   0.0416667  -0.1666667), wk =   0.0017361
        k(  838) = (   0.2083333   0.5416667   0.1666667), wk =   0.0017361
        k(  839) = (  -0.5416667  -0.3333333  -0.3750000), wk =   0.0017361
        k(  840) = (   0.3333333   0.0416667  -0.1666667), wk =   0.0017361
        k(  841) = (   0.2083333   0.5000000   0.1666667), wk =   0.0017361
        k(  842) = (  -0.5000000  -0.2916667  -0.3333333), wk =   0.0017361
        k(  843) = (   0.2916667   0.0416667  -0.1666667), wk =   0.0017361
        k(  844) = (   0.2083333   0.4583333   0.1666667), wk =   0.0017361
        k(  845) = (  -0.4583333  -0.2500000  -0.2916667), wk =   0.0017361
        k(  846) = (   0.2500000   0.0416667  -0.1666667), wk =   0.0017361
        k(  847) = (   0.2083333   0.4166667   0.1666667), wk =   0.0017361
        k(  848) = (  -0.4166667  -0.2083333  -0.2500000), wk =   0.0017361
        k(  849) = (   0.2083333   0.3750000   0.1666667), wk =   0.0017361
        k(  850) = (  -0.2500000   0.0416667  -0.2083333), wk =   0.0017361
        k(  851) = (  -0.2916667   0.0416667  -0.2083333), wk =   0.0017361
        k(  852) = (   0.2500000  -0.0833333   0.2083333), wk =   0.0017361
        k(  853) = (   0.0833333   0.3333333   0.2916667), wk =   0.0017361
        k(  854) = (  -0.3333333   0.0416667  -0.2083333), wk =   0.0017361
        k(  855) = (   0.2500000  -0.1250000   0.2083333), wk =   0.0017361
        k(  856) = (   0.1250000   0.3750000   0.3333333), wk =   0.0017361
        k(  857) = (  -0.3750000   0.0416667  -0.2083333), wk =   0.0017361
        k(  858) = (   0.2500000  -0.1666667   0.2083333), wk =   0.0017361
        k(  859) = (   0.1666667   0.4166667   0.3750000), wk =   0.0017361
        k(  860) = (  -0.4166667   0.0416667  -0.2083333), wk =   0.0017361
        k(  861) = (   0.2500000  -0.2083333   0.2083333), wk =   0.0017361
        k(  862) = (   0.2083333   0.4583333   0.4166667), wk =   0.0017361
        k(  863) = (   0.5416667   0.0416667  -0.2083333), wk =   0.0017361
        k(  864) = (   0.2500000   0.7500000   0.2083333), wk =   0.0017361
        k(  865) = (  -0.7500000  -0.5000000  -0.5416667), wk =   0.0017361
        k(  866) = (   0.5000000   0.0416667  -0.2083333), wk =   0.0017361
        k(  867) = (   0.2500000   0.7083333   0.2083333), wk =   0.0017361
        k(  868) = (  -0.7083333  -0.4583333  -0.5000000), wk =   0.0017361
        k(  869) = (   0.4583333   0.0416667  -0.2083333), wk =   0.0017361
        k(  870) = (   0.2500000   0.6666667   0.2083333), wk =   0.0017361
        k(  871) = (  -0.6666667  -0.4166667  -0.4583333), wk =   0.0017361
        k(  872) = (   0.4166667   0.0416667  -0.2083333), wk =   0.0017361
        k(  873) = (   0.2500000   0.6250000   0.2083333), wk =   0.0017361
        k(  874) = (  -0.6250000  -0.3750000  -0.4166667), wk =   0.0017361
        k(  875) = (   0.3750000   0.0416667  -0.2083333), wk =   0.0017361
        k(  876) = (   0.2500000   0.5833333   0.2083333), wk =   0.0017361
        k(  877) = (  -0.5833333  -0.3333333  -0.3750000), wk =   0.0017361
        k(  878) = (   0.3333333   0.0416667  -0.2083333), wk =   0.0017361
        k(  879) = (   0.2500000   0.5416667   0.2083333), wk =   0.0017361
        k(  880) = (  -0.5416667  -0.2916667  -0.3333333), wk =   0.0017361
        k(  881) = (   0.2916667   0.0416667  -0.2083333), wk =   0.0017361
        k(  882) = (   0.2500000   0.5000000   0.2083333), wk =   0.0017361
        k(  883) = (  -0.5000000  -0.2500000  -0.2916667), wk =   0.0017361
        k(  884) = (   0.2500000   0.4583333   0.2083333), wk =   0.0017361
        k(  885) = (  -0.2916667   0.0416667  -0.2500000), wk =   0.0017361
        k(  886) = (  -0.3333333   0.0416667  -0.2500000), wk =   0.0017361
        k(  887) = (   0.2916667  -0.0833333   0.2500000), wk =   0.0017361
        k(  888) = (   0.0833333   0.3750000   0.3333333), wk =   0.0017361
        k(  889) = (  -0.3750000   0.0416667  -0.2500000), wk =   0.0017361
        k(  890) = (   0.2916667  -0.1250000   0.2500000), wk =   0.0017361
        k(  891) = (   0.1250000   0.4166667   0.3750000), wk =   0.0017361
        k(  892) = (  -0.4166667   0.0416667  -0.2500000), wk =   0.0017361
        k(  893) = (   0.2916667  -0.1666667   0.2500000), wk =   0.0017361
        k(  894) = (   0.1666667   0.4583333   0.4166667), wk =   0.0017361
        k(  895) = (   0.5416667   0.0416667  -0.2500000), wk =   0.0017361
        k(  896) = (   0.2916667   0.7916667   0.2500000), wk =   0.0017361
        k(  897) = (  -0.7916667  -0.5000000  -0.5416667), wk =   0.0017361
        k(  898) = (   0.5000000   0.0416667  -0.2500000), wk =   0.0017361
        k(  899) = (   0.2916667   0.7500000   0.2500000), wk =   0.0017361
        k(  900) = (  -0.7500000  -0.4583333  -0.5000000), wk =   0.0017361
        k(  901) = (   0.4583333   0.0416667  -0.2500000), wk =   0.0017361
        k(  902) = (   0.2916667   0.7083333   0.2500000), wk =   0.0017361
        k(  903) = (  -0.7083333  -0.4166667  -0.4583333), wk =   0.0017361
        k(  904) = (   0.4166667   0.0416667  -0.2500000), wk =   0.0017361
        k(  905) = (   0.2916667   0.6666667   0.2500000), wk =   0.0017361
        k(  906) = (  -0.6666667  -0.3750000  -0.4166667), wk =   0.0017361
        k(  907) = (   0.3750000   0.0416667  -0.2500000), wk =   0.0017361
        k(  908) = (   0.2916667   0.6250000   0.2500000), wk =   0.0017361
        k(  909) = (  -0.6250000  -0.3333333  -0.3750000), wk =   0.0017361
        k(  910) = (   0.3333333   0.0416667  -0.2500000), wk =   0.0017361
        k(  911) = (   0.2916667   0.5833333   0.2500000), wk =   0.0017361
        k(  912) = (  -0.5833333  -0.2916667  -0.3333333), wk =   0.0017361
        k(  913) = (   0.2916667   0.5416667   0.2500000), wk =   0.0017361
        k(  914) = (  -0.3333333   0.0416667  -0.2916667), wk =   0.0017361
        k(  915) = (  -0.3750000   0.0416667  -0.2916667), wk =   0.0017361
        k(  916) = (   0.3333333  -0.0833333   0.2916667), wk =   0.0017361
        k(  917) = (   0.0833333   0.4166667   0.3750000), wk =   0.0017361
        k(  918) = (  -0.4166667   0.0416667  -0.2916667), wk =   0.0017361
        k(  919) = (   0.3333333  -0.1250000   0.2916667), wk =   0.0017361
        k(  920) = (   0.1250000   0.4583333   0.4166667), wk =   0.0017361
        k(  921) = (   0.5416667   0.0416667  -0.2916667), wk =   0.0017361
        k(  922) = (   0.3333333   0.8333333   0.2916667), wk =   0.0017361
        k(  923) = (  -0.8333333  -0.5000000  -0.5416667), wk =   0.0017361
        k(  924) = (   0.5000000   0.0416667  -0.2916667), wk =   0.0017361
        k(  925) = (   0.3333333   0.7916667   0.2916667), wk =   0.0017361
        k(  926) = (  -0.7916667  -0.4583333  -0.5000000), wk =   0.0017361
        k(  927) = (   0.4583333   0.0416667  -0.2916667), wk =   0.0017361
        k(  928) = (   0.3333333   0.7500000   0.2916667), wk =   0.0017361
        k(  929) = (  -0.7500000  -0.4166667  -0.4583333), wk =   0.0017361
        k(  930) = (   0.4166667   0.0416667  -0.2916667), wk =   0.0017361
        k(  931) = (   0.3333333   0.7083333   0.2916667), wk =   0.0017361
        k(  932) = (  -0.7083333  -0.3750000  -0.4166667), wk =   0.0017361
        k(  933) = (   0.3750000   0.0416667  -0.2916667), wk =   0.0017361
        k(  934) = (   0.3333333   0.6666667   0.2916667), wk =   0.0017361
        k(  935) = (  -0.6666667  -0.3333333  -0.3750000), wk =   0.0017361
        k(  936) = (   0.3333333   0.6250000   0.2916667), wk =   0.0017361
        k(  937) = (  -0.3750000   0.0416667  -0.3333333), wk =   0.0017361
        k(  938) = (  -0.4166667   0.0416667  -0.3333333), wk =   0.0017361
        k(  939) = (   0.3750000  -0.0833333   0.3333333), wk =   0.0017361
        k(  940) = (   0.0833333   0.4583333   0.4166667), wk =   0.0017361
        k(  941) = (   0.5416667   0.0416667  -0.3333333), wk =   0.0017361
        k(  942) = (   0.3750000   0.8750000   0.3333333), wk =   0.0017361
        k(  943) = (  -0.8750000  -0.5000000  -0.5416667), wk =   0.0017361
        k(  944) = (   0.5000000   0.0416667  -0.3333333), wk =   0.0017361
        k(  945) = (   0.3750000   0.8333333   0.3333333), wk =   0.0017361
        k(  946) = (  -0.8333333  -0.4583333  -0.5000000), wk =   0.0017361
        k(  947) = (   0.4583333   0.0416667  -0.3333333), wk =   0.0017361
        k(  948) = (   0.3750000   0.7916667   0.3333333), wk =   0.0017361
        k(  949) = (  -0.7916667  -0.4166667  -0.4583333), wk =   0.0017361
        k(  950) = (   0.4166667   0.0416667  -0.3333333), wk =   0.0017361
        k(  951) = (   0.3750000   0.7500000   0.3333333), wk =   0.0017361
        k(  952) = (  -0.7500000  -0.3750000  -0.4166667), wk =   0.0017361
        k(  953) = (   0.3750000   0.7083333   0.3333333), wk =   0.0017361
        k(  954) = (  -0.4166667   0.0416667  -0.3750000), wk =   0.0017361
        k(  955) = (   0.5416667   0.0416667  -0.3750000), wk =   0.0017361
        k(  956) = (   0.4166667   0.9166667   0.3750000), wk =   0.0017361
        k(  957) = (  -0.9166667  -0.5000000  -0.5416667), wk =   0.0017361
        k(  958) = (   0.5000000   0.0416667  -0.3750000), wk =   0.0017361
        k(  959) = (   0.4166667   0.8750000   0.3750000), wk =   0.0017361
        k(  960) = (  -0.8750000  -0.4583333  -0.5000000), wk =   0.0017361
        k(  961) = (   0.4583333   0.0416667  -0.3750000), wk =   0.0017361
        k(  962) = (   0.4166667   0.8333333   0.3750000), wk =   0.0017361
        k(  963) = (  -0.8333333  -0.4166667  -0.4583333), wk =   0.0017361
        k(  964) = (   0.4166667   0.7916667   0.3750000), wk =   0.0017361
        k(  965) = (   0.5416667   0.0416667  -0.4166667), wk =   0.0017361
        k(  966) = (   0.5000000   0.0416667  -0.4166667), wk =   0.0017361
        k(  967) = (   0.4583333   0.9166667   0.4166667), wk =   0.0017361
        k(  968) = (  -0.9166667  -0.4583333  -0.5000000), wk =   0.0017361
        k(  969) = (   0.4583333   0.8750000   0.4166667), wk =   0.0017361
        k(  970) = (  -0.1666667   0.0833333  -0.0833333), wk =   0.0017361
        k(  971) = (  -0.2083333   0.0833333  -0.0833333), wk =   0.0017361
        k(  972) = (   0.1666667  -0.1250000   0.0833333), wk =   0.0017361
        k(  973) = (   0.1250000   0.2916667   0.2083333), wk =   0.0017361
        k(  974) = (  -0.2500000   0.0833333  -0.0833333), wk =   0.0017361
        k(  975) = (   0.1666667  -0.1666667   0.0833333), wk =   0.0017361
        k(  976) = (   0.1666667   0.3333333   0.2500000), wk =   0.0017361
        k(  977) = (  -0.2916667   0.0833333  -0.0833333), wk =   0.0017361
        k(  978) = (   0.1666667  -0.2083333   0.0833333), wk =   0.0017361
        k(  979) = (   0.2083333   0.3750000   0.2916667), wk =   0.0017361
        k(  980) = (  -0.3333333   0.0833333  -0.0833333), wk =   0.0017361
        k(  981) = (   0.1666667  -0.2500000   0.0833333), wk =   0.0017361
        k(  982) = (   0.2500000   0.4166667   0.3333333), wk =   0.0017361
        k(  983) = (  -0.3750000   0.0833333  -0.0833333), wk =   0.0017361
        k(  984) = (   0.1666667  -0.2916667   0.0833333), wk =   0.0017361
        k(  985) = (   0.2916667   0.4583333   0.3750000), wk =   0.0017361
        k(  986) = (   0.5833333   0.0833333  -0.0833333), wk =   0.0017361
        k(  987) = (   0.1666667   0.6666667   0.0833333), wk =   0.0017361
        k(  988) = (  -0.6666667  -0.5000000  -0.5833333), wk =   0.0017361
        k(  989) = (   0.5416667   0.0833333  -0.0833333), wk =   0.0017361
        k(  990) = (   0.1666667   0.6250000   0.0833333), wk =   0.0017361
        k(  991) = (  -0.6250000  -0.4583333  -0.5416667), wk =   0.0017361
        k(  992) = (   0.5000000   0.0833333  -0.0833333), wk =   0.0008681
        k(  993) = (  -0.5833333  -0.4166667  -0.5000000), wk =   0.0008681
        k(  994) = (  -0.2083333   0.0833333  -0.1250000), wk =   0.0017361
        k(  995) = (  -0.2500000   0.0833333  -0.1250000), wk =   0.0017361
        k(  996) = (   0.2083333  -0.1250000   0.1250000), wk =   0.0017361
        k(  997) = (   0.1250000   0.3333333   0.2500000), wk =   0.0017361
        k(  998) = (  -0.2916667   0.0833333  -0.1250000), wk =   0.0017361
        k(  999) = (   0.2083333  -0.1666667   0.1250000), wk =   0.0017361
        k( 1000) = (   0.1666667   0.3750000   0.2916667), wk =   0.0017361
        k( 1001) = (  -0.3333333   0.0833333  -0.1250000), wk =   0.0017361
        k( 1002) = (   0.2083333  -0.2083333   0.1250000), wk =   0.0017361
        k( 1003) = (   0.2083333   0.4166667   0.3333333), wk =   0.0017361
        k( 1004) = (  -0.3750000   0.0833333  -0.1250000), wk =   0.0017361
        k( 1005) = (   0.2083333  -0.2500000   0.1250000), wk =   0.0017361
        k( 1006) = (   0.2500000   0.4583333   0.3750000), wk =   0.0017361
        k( 1007) = (   0.5833333   0.0833333  -0.1250000), wk =   0.0017361
        k( 1008) = (   0.2083333   0.7083333   0.1250000), wk =   0.0017361
        k( 1009) = (  -0.7083333  -0.5000000  -0.5833333), wk =   0.0017361
        k( 1010) = (   0.5416667   0.0833333  -0.1250000), wk =   0.0017361
        k( 1011) = (   0.2083333   0.6666667   0.1250000), wk =   0.0017361
        k( 1012) = (  -0.6666667  -0.4583333  -0.5416667), wk =   0.0017361
        k( 1013) = (   0.5000000   0.0833333  -0.1250000), wk =   0.0017361
        k( 1014) = (   0.2083333   0.6250000   0.1250000), wk =   0.0017361
        k( 1015) = (  -0.6250000  -0.4166667  -0.5000000), wk =   0.0017361
        k( 1016) = (   0.4583333   0.0833333  -0.1250000), wk =   0.0017361
        k( 1017) = (   0.2083333   0.5833333   0.1250000), wk =   0.0017361
        k( 1018) = (  -0.5833333  -0.3750000  -0.4583333), wk =   0.0017361
        k( 1019) = (   0.4166667   0.0833333  -0.1250000), wk =   0.0017361
        k( 1020) = (   0.2083333   0.5416667   0.1250000), wk =   0.0017361
        k( 1021) = (  -0.5416667  -0.3333333  -0.4166667), wk =   0.0017361
        k( 1022) = (   0.3750000   0.0833333  -0.1250000), wk =   0.0017361
        k( 1023) = (   0.2083333   0.5000000   0.1250000), wk =   0.0017361
        k( 1024) = (  -0.5000000  -0.2916667  -0.3750000), wk =   0.0017361
        k( 1025) = (   0.3333333   0.0833333  -0.1250000), wk =   0.0017361
        k( 1026) = (   0.2083333   0.4583333   0.1250000), wk =   0.0017361
        k( 1027) = (  -0.4583333  -0.2500000  -0.3333333), wk =   0.0017361
        k( 1028) = (   0.2916667   0.0833333  -0.1250000), wk =   0.0017361
        k( 1029) = (   0.2083333   0.4166667   0.1250000), wk =   0.0017361
        k( 1030) = (  -0.4166667  -0.2083333  -0.2916667), wk =   0.0017361
        k( 1031) = (   0.2500000   0.0833333  -0.1250000), wk =   0.0017361
        k( 1032) = (   0.2083333   0.3750000   0.1250000), wk =   0.0017361
        k( 1033) = (  -0.3750000  -0.1666667  -0.2500000), wk =   0.0017361
        k( 1034) = (   0.2083333   0.3333333   0.1250000), wk =   0.0017361
        k( 1035) = (  -0.2500000   0.0833333  -0.1666667), wk =   0.0017361
        k( 1036) = (  -0.2916667   0.0833333  -0.1666667), wk =   0.0017361
        k( 1037) = (   0.2500000  -0.1250000   0.1666667), wk =   0.0017361
        k( 1038) = (   0.1250000   0.3750000   0.2916667), wk =   0.0017361
        k( 1039) = (  -0.3333333   0.0833333  -0.1666667), wk =   0.0017361
        k( 1040) = (   0.2500000  -0.1666667   0.1666667), wk =   0.0017361
        k( 1041) = (   0.1666667   0.4166667   0.3333333), wk =   0.0017361
        k( 1042) = (  -0.3750000   0.0833333  -0.1666667), wk =   0.0017361
        k( 1043) = (   0.2500000  -0.2083333   0.1666667), wk =   0.0017361
        k( 1044) = (   0.2083333   0.4583333   0.3750000), wk =   0.0017361
        k( 1045) = (   0.5833333   0.0833333  -0.1666667), wk =   0.0017361
        k( 1046) = (   0.2500000   0.7500000   0.1666667), wk =   0.0017361
        k( 1047) = (  -0.7500000  -0.5000000  -0.5833333), wk =   0.0017361
        k( 1048) = (   0.5416667   0.0833333  -0.1666667), wk =   0.0017361
        k( 1049) = (   0.2500000   0.7083333   0.1666667), wk =   0.0017361
        k( 1050) = (  -0.7083333  -0.4583333  -0.5416667), wk =   0.0017361
        k( 1051) = (   0.5000000   0.0833333  -0.1666667), wk =   0.0017361
        k( 1052) = (   0.2500000   0.6666667   0.1666667), wk =   0.0017361
        k( 1053) = (  -0.6666667  -0.4166667  -0.5000000), wk =   0.0017361
        k( 1054) = (   0.4583333   0.0833333  -0.1666667), wk =   0.0017361
        k( 1055) = (   0.2500000   0.6250000   0.1666667), wk =   0.0017361
        k( 1056) = (  -0.6250000  -0.3750000  -0.4583333), wk =   0.0017361
        k( 1057) = (   0.4166667   0.0833333  -0.1666667), wk =   0.0017361
        k( 1058) = (   0.2500000   0.5833333   0.1666667), wk =   0.0017361
        k( 1059) = (  -0.5833333  -0.3333333  -0.4166667), wk =   0.0017361
        k( 1060) = (   0.3750000   0.0833333  -0.1666667), wk =   0.0017361
        k( 1061) = (   0.2500000   0.5416667   0.1666667), wk =   0.0017361
        k( 1062) = (  -0.5416667  -0.2916667  -0.3750000), wk =   0.0017361
        k( 1063) = (   0.3333333   0.0833333  -0.1666667), wk =   0.0017361
        k( 1064) = (   0.2500000   0.5000000   0.1666667), wk =   0.0017361
        k( 1065) = (  -0.5000000  -0.2500000  -0.3333333), wk =   0.0017361
        k( 1066) = (   0.2916667   0.0833333  -0.1666667), wk =   0.0017361
        k( 1067) = (   0.2500000   0.4583333   0.1666667), wk =   0.0017361
        k( 1068) = (  -0.4583333  -0.2083333  -0.2916667), wk =   0.0017361
        k( 1069) = (   0.2500000   0.4166667   0.1666667), wk =   0.0017361
        k( 1070) = (  -0.2916667   0.0833333  -0.2083333), wk =   0.0017361
        k( 1071) = (  -0.3333333   0.0833333  -0.2083333), wk =   0.0017361
        k( 1072) = (   0.2916667  -0.1250000   0.2083333), wk =   0.0017361
        k( 1073) = (   0.1250000   0.4166667   0.3333333), wk =   0.0017361
        k( 1074) = (  -0.3750000   0.0833333  -0.2083333), wk =   0.0017361
        k( 1075) = (   0.2916667  -0.1666667   0.2083333), wk =   0.0017361
        k( 1076) = (   0.1666667   0.4583333   0.3750000), wk =   0.0017361
        k( 1077) = (   0.5833333   0.0833333  -0.2083333), wk =   0.0017361
        k( 1078) = (   0.2916667   0.7916667   0.2083333), wk =   0.0017361
        k( 1079) = (  -0.7916667  -0.5000000  -0.5833333), wk =   0.0017361
        k( 1080) = (   0.5416667   0.0833333  -0.2083333), wk =   0.0017361
        k( 1081) = (   0.2916667   0.7500000   0.2083333), wk =   0.0017361
        k( 1082) = (  -0.7500000  -0.4583333  -0.5416667), wk =   0.0017361
        k( 1083) = (   0.5000000   0.0833333  -0.2083333), wk =   0.0017361
        k( 1084) = (   0.2916667   0.7083333   0.2083333), wk =   0.0017361
        k( 1085) = (  -0.7083333  -0.4166667  -0.5000000), wk =   0.0017361
        k( 1086) = (   0.4583333   0.0833333  -0.2083333), wk =   0.0017361
        k( 1087) = (   0.2916667   0.6666667   0.2083333), wk =   0.0017361
        k( 1088) = (  -0.6666667  -0.3750000  -0.4583333), wk =   0.0017361
        k( 1089) = (   0.4166667   0.0833333  -0.2083333), wk =   0.0017361
        k( 1090) = (   0.2916667   0.6250000   0.2083333), wk =   0.0017361
        k( 1091) = (  -0.6250000  -0.3333333  -0.4166667), wk =   0.0017361
        k( 1092) = (   0.3750000   0.0833333  -0.2083333), wk =   0.0017361
        k( 1093) = (   0.2916667   0.5833333   0.2083333), wk =   0.0017361
        k( 1094) = (  -0.5833333  -0.2916667  -0.3750000), wk =   0.0017361
        k( 1095) = (   0.3333333   0.0833333  -0.2083333), wk =   0.0017361
        k( 1096) = (   0.2916667   0.5416667   0.2083333), wk =   0.0017361
        k( 1097) = (  -0.5416667  -0.2500000  -0.3333333), wk =   0.0017361
        k( 1098) = (   0.2916667   0.5000000   0.2083333), wk =   0.0017361
        k( 1099) = (  -0.3333333   0.0833333  -0.2500000), wk =   0.0017361
        k( 1100) = (  -0.3750000   0.0833333  -0.2500000), wk =   0.0017361
        k( 1101) = (   0.3333333  -0.1250000   0.2500000), wk =   0.0017361
        k( 1102) = (   0.1250000   0.4583333   0.3750000), wk =   0.0017361
        k( 1103) = (   0.5833333   0.0833333  -0.2500000), wk =   0.0017361
        k( 1104) = (   0.3333333   0.8333333   0.2500000), wk =   0.0017361
        k( 1105) = (  -0.8333333  -0.5000000  -0.5833333), wk =   0.0017361
        k( 1106) = (   0.5416667   0.0833333  -0.2500000), wk =   0.0017361
        k( 1107) = (   0.3333333   0.7916667   0.2500000), wk =   0.0017361
        k( 1108) = (  -0.7916667  -0.4583333  -0.5416667), wk =   0.0017361
        k( 1109) = (   0.5000000   0.0833333  -0.2500000), wk =   0.0017361
        k( 1110) = (   0.3333333   0.7500000   0.2500000), wk =   0.0017361
        k( 1111) = (  -0.7500000  -0.4166667  -0.5000000), wk =   0.0017361
        k( 1112) = (   0.4583333   0.0833333  -0.2500000), wk =   0.0017361
        k( 1113) = (   0.3333333   0.7083333   0.2500000), wk =   0.0017361
        k( 1114) = (  -0.7083333  -0.3750000  -0.4583333), wk =   0.0017361
        k( 1115) = (   0.4166667   0.0833333  -0.2500000), wk =   0.0017361
        k( 1116) = (   0.3333333   0.6666667   0.2500000), wk =   0.0017361
        k( 1117) = (  -0.6666667  -0.3333333  -0.4166667), wk =   0.0017361
        k( 1118) = (   0.3750000   0.0833333  -0.2500000), wk =   0.0017361
        k( 1119) = (   0.3333333   0.6250000   0.2500000), wk =   0.0017361
        k( 1120) = (  -0.6250000  -0.2916667  -0.3750000), wk =   0.0017361
        k( 1121) = (   0.3333333   0.5833333   0.2500000), wk =   0.0017361
        k( 1122) = (  -0.3750000   0.0833333  -0.2916667), wk =   0.0017361
        k( 1123) = (   0.5833333   0.0833333  -0.2916667), wk =   0.0017361
        k( 1124) = (   0.3750000   0.8750000   0.2916667), wk =   0.0017361
        k( 1125) = (  -0.8750000  -0.5000000  -0.5833333), wk =   0.0017361
        k( 1126) = (   0.5416667   0.0833333  -0.2916667), wk =   0.0017361
        k( 1127) = (   0.3750000   0.8333333   0.2916667), wk =   0.0017361
        k( 1128) = (  -0.8333333  -0.4583333  -0.5416667), wk =   0.0017361
        k( 1129) = (   0.5000000   0.0833333  -0.2916667), wk =   0.0017361
        k( 1130) = (   0.3750000   0.7916667   0.2916667), wk =   0.0017361
        k( 1131) = (  -0.7916667  -0.4166667  -0.5000000), wk =   0.0017361
        k( 1132) = (   0.4583333   0.0833333  -0.2916667), wk =   0.0017361
        k( 1133) = (   0.3750000   0.7500000   0.2916667), wk =   0.0017361
        k( 1134) = (  -0.7500000  -0.3750000  -0.4583333), wk =   0.0017361
        k( 1135) = (   0.4166667   0.0833333  -0.2916667), wk =   0.0017361
        k( 1136) = (   0.3750000   0.7083333   0.2916667), wk =   0.0017361
        k( 1137) = (  -0.7083333  -0.3333333  -0.4166667), wk =   0.0017361
        k( 1138) = (   0.3750000   0.6666667   0.2916667), wk =   0.0017361
        k( 1139) = (   0.5833333   0.0833333  -0.3333333), wk =   0.0017361
        k( 1140) = (   0.5416667   0.0833333  -0.3333333), wk =   0.0017361
        k( 1141) = (   0.4166667   0.8750000   0.3333333), wk =   0.0017361
        k( 1142) = (  -0.8750000  -0.4583333  -0.5416667), wk =   0.0017361
        k( 1143) = (   0.5000000   0.0833333  -0.3333333), wk =   0.0017361
        k( 1144) = (   0.4166667   0.8333333   0.3333333), wk =   0.0017361
        k( 1145) = (  -0.8333333  -0.4166667  -0.5000000), wk =   0.0017361
        k( 1146) = (   0.4583333   0.0833333  -0.3333333), wk =   0.0017361
        k( 1147) = (   0.4166667   0.7916667   0.3333333), wk =   0.0017361
        k( 1148) = (  -0.7916667  -0.3750000  -0.4583333), wk =   0.0017361
        k( 1149) = (   0.4166667   0.7500000   0.3333333), wk =   0.0017361
        k( 1150) = (   0.5416667   0.0833333  -0.3750000), wk =   0.0017361
        k( 1151) = (   0.5000000   0.0833333  -0.3750000), wk =   0.0017361
        k( 1152) = (   0.4583333   0.8750000   0.3750000), wk =   0.0017361
        k( 1153) = (  -0.8750000  -0.4166667  -0.5000000), wk =   0.0017361
        k( 1154) = (   0.4583333   0.8333333   0.3750000), wk =   0.0017361
        k( 1155) = (  -0.2500000   0.1250000  -0.1250000), wk =   0.0017361
        k( 1156) = (  -0.2916667   0.1250000  -0.1250000), wk =   0.0017361
        k( 1157) = (   0.2500000  -0.1666667   0.1250000), wk =   0.0017361
        k( 1158) = (   0.1666667   0.4166667   0.2916667), wk =   0.0017361
        k( 1159) = (  -0.3333333   0.1250000  -0.1250000), wk =   0.0017361
        k( 1160) = (   0.2500000  -0.2083333   0.1250000), wk =   0.0017361
        k( 1161) = (   0.2083333   0.4583333   0.3333333), wk =   0.0017361
        k( 1162) = (   0.6250000   0.1250000  -0.1250000), wk =   0.0017361
        k( 1163) = (   0.2500000   0.7500000   0.1250000), wk =   0.0017361
        k( 1164) = (  -0.7500000  -0.5000000  -0.6250000), wk =   0.0017361
        k( 1165) = (   0.5833333   0.1250000  -0.1250000), wk =   0.0017361
        k( 1166) = (   0.2500000   0.7083333   0.1250000), wk =   0.0017361
        k( 1167) = (  -0.7083333  -0.4583333  -0.5833333), wk =   0.0017361
        k( 1168) = (   0.5416667   0.1250000  -0.1250000), wk =   0.0017361
        k( 1169) = (   0.2500000   0.6666667   0.1250000), wk =   0.0017361
        k( 1170) = (  -0.6666667  -0.4166667  -0.5416667), wk =   0.0017361
        k( 1171) = (   0.5000000   0.1250000  -0.1250000), wk =   0.0008681
        k( 1172) = (  -0.6250000  -0.3750000  -0.5000000), wk =   0.0008681
        k( 1173) = (  -0.2916667   0.1250000  -0.1666667), wk =   0.0017361
        k( 1174) = (  -0.3333333   0.1250000  -0.1666667), wk =   0.0017361
        k( 1175) = (   0.2916667  -0.1666667   0.1666667), wk =   0.0017361
        k( 1176) = (   0.1666667   0.4583333   0.3333333), wk =   0.0017361
        k( 1177) = (   0.6250000   0.1250000  -0.1666667), wk =   0.0017361
        k( 1178) = (   0.2916667   0.7916667   0.1666667), wk =   0.0017361
        k( 1179) = (  -0.7916667  -0.5000000  -0.6250000), wk =   0.0017361
        k( 1180) = (   0.5833333   0.1250000  -0.1666667), wk =   0.0017361
        k( 1181) = (   0.2916667   0.7500000   0.1666667), wk =   0.0017361
        k( 1182) = (  -0.7500000  -0.4583333  -0.5833333), wk =   0.0017361
        k( 1183) = (   0.5416667   0.1250000  -0.1666667), wk =   0.0017361
        k( 1184) = (   0.2916667   0.7083333   0.1666667), wk =   0.0017361
        k( 1185) = (  -0.7083333  -0.4166667  -0.5416667), wk =   0.0017361
        k( 1186) = (   0.5000000   0.1250000  -0.1666667), wk =   0.0017361
        k( 1187) = (   0.2916667   0.6666667   0.1666667), wk =   0.0017361
        k( 1188) = (  -0.6666667  -0.3750000  -0.5000000), wk =   0.0017361
        k( 1189) = (   0.4583333   0.1250000  -0.1666667), wk =   0.0017361
        k( 1190) = (   0.2916667   0.6250000   0.1666667), wk =   0.0017361
        k( 1191) = (  -0.6250000  -0.3333333  -0.4583333), wk =   0.0017361
        k( 1192) = (   0.4166667   0.1250000  -0.1666667), wk =   0.0017361
        k( 1193) = (   0.2916667   0.5833333   0.1666667), wk =   0.0017361
        k( 1194) = (  -0.5833333  -0.2916667  -0.4166667), wk =   0.0017361
        k( 1195) = (   0.3750000   0.1250000  -0.1666667), wk =   0.0017361
        k( 1196) = (   0.2916667   0.5416667   0.1666667), wk =   0.0017361
        k( 1197) = (  -0.5416667  -0.2500000  -0.3750000), wk =   0.0017361
        k( 1198) = (   0.3333333   0.1250000  -0.1666667), wk =   0.0017361
        k( 1199) = (   0.2916667   0.5000000   0.1666667), wk =   0.0017361
        k( 1200) = (  -0.5000000  -0.2083333  -0.3333333), wk =   0.0017361
        k( 1201) = (   0.2916667   0.4583333   0.1666667), wk =   0.0017361
        k( 1202) = (  -0.3333333   0.1250000  -0.2083333), wk =   0.0017361
        k( 1203) = (   0.6250000   0.1250000  -0.2083333), wk =   0.0017361
        k( 1204) = (   0.3333333   0.8333333   0.2083333), wk =   0.0017361
        k( 1205) = (  -0.8333333  -0.5000000  -0.6250000), wk =   0.0017361
        k( 1206) = (   0.5833333   0.1250000  -0.2083333), wk =   0.0017361
        k( 1207) = (   0.3333333   0.7916667   0.2083333), wk =   0.0017361
        k( 1208) = (  -0.7916667  -0.4583333  -0.5833333), wk =   0.0017361
        k( 1209) = (   0.5416667   0.1250000  -0.2083333), wk =   0.0017361
        k( 1210) = (   0.3333333   0.7500000   0.2083333), wk =   0.0017361
        k( 1211) = (  -0.7500000  -0.4166667  -0.5416667), wk =   0.0017361
        k( 1212) = (   0.5000000   0.1250000  -0.2083333), wk =   0.0017361
        k( 1213) = (   0.3333333   0.7083333   0.2083333), wk =   0.0017361
        k( 1214) = (  -0.7083333  -0.3750000  -0.5000000), wk =   0.0017361
        k( 1215) = (   0.4583333   0.1250000  -0.2083333), wk =   0.0017361
        k( 1216) = (   0.3333333   0.6666667   0.2083333), wk =   0.0017361
        k( 1217) = (  -0.6666667  -0.3333333  -0.4583333), wk =   0.0017361
        k( 1218) = (   0.4166667   0.1250000  -0.2083333), wk =   0.0017361
        k( 1219) = (   0.3333333   0.6250000   0.2083333), wk =   0.0017361
        k( 1220) = (  -0.6250000  -0.2916667  -0.4166667), wk =   0.0017361
        k( 1221) = (   0.3750000   0.1250000  -0.2083333), wk =   0.0017361
        k( 1222) = (   0.3333333   0.5833333   0.2083333), wk =   0.0017361
        k( 1223) = (  -0.5833333  -0.2500000  -0.3750000), wk =   0.0017361
        k( 1224) = (   0.3333333   0.5416667   0.2083333), wk =   0.0017361
        k( 1225) = (   0.6250000   0.1250000  -0.2500000), wk =   0.0017361
        k( 1226) = (   0.5833333   0.1250000  -0.2500000), wk =   0.0017361
        k( 1227) = (   0.3750000   0.8333333   0.2500000), wk =   0.0017361
        k( 1228) = (  -0.8333333  -0.4583333  -0.5833333), wk =   0.0017361
        k( 1229) = (   0.5416667   0.1250000  -0.2500000), wk =   0.0017361
        k( 1230) = (   0.3750000   0.7916667   0.2500000), wk =   0.0017361
        k( 1231) = (  -0.7916667  -0.4166667  -0.5416667), wk =   0.0017361
        k( 1232) = (   0.5000000   0.1250000  -0.2500000), wk =   0.0017361
        k( 1233) = (   0.3750000   0.7500000   0.2500000), wk =   0.0017361
        k( 1234) = (  -0.7500000  -0.3750000  -0.5000000), wk =   0.0017361
        k( 1235) = (   0.4583333   0.1250000  -0.2500000), wk =   0.0017361
        k( 1236) = (   0.3750000   0.7083333   0.2500000), wk =   0.0017361
        k( 1237) = (  -0.7083333  -0.3333333  -0.4583333), wk =   0.0017361
        k( 1238) = (   0.4166667   0.1250000  -0.2500000), wk =   0.0017361
        k( 1239) = (   0.3750000   0.6666667   0.2500000), wk =   0.0017361
        k( 1240) = (  -0.6666667  -0.2916667  -0.4166667), wk =   0.0017361
        k( 1241) = (   0.3750000   0.6250000   0.2500000), wk =   0.0017361
        k( 1242) = (   0.5833333   0.1250000  -0.2916667), wk =   0.0017361
        k( 1243) = (   0.5416667   0.1250000  -0.2916667), wk =   0.0017361
        k( 1244) = (   0.4166667   0.8333333   0.2916667), wk =   0.0017361
        k( 1245) = (  -0.8333333  -0.4166667  -0.5416667), wk =   0.0017361
        k( 1246) = (   0.5000000   0.1250000  -0.2916667), wk =   0.0017361
        k( 1247) = (   0.4166667   0.7916667   0.2916667), wk =   0.0017361
        k( 1248) = (  -0.7916667  -0.3750000  -0.5000000), wk =   0.0017361
        k( 1249) = (   0.4583333   0.1250000  -0.2916667), wk =   0.0017361
        k( 1250) = (   0.4166667   0.7500000   0.2916667), wk =   0.0017361
        k( 1251) = (  -0.7500000  -0.3333333  -0.4583333), wk =   0.0017361
        k( 1252) = (   0.4166667   0.7083333   0.2916667), wk =   0.0017361
        k( 1253) = (   0.5416667   0.1250000  -0.3333333), wk =   0.0017361
        k( 1254) = (   0.5000000   0.1250000  -0.3333333), wk =   0.0017361
        k( 1255) = (   0.4583333   0.8333333   0.3333333), wk =   0.0017361
        k( 1256) = (  -0.8333333  -0.3750000  -0.5000000), wk =   0.0017361
        k( 1257) = (   0.4583333   0.7916667   0.3333333), wk =   0.0017361
        k( 1258) = (   0.6666667   0.1666667  -0.1666667), wk =   0.0017361
        k( 1259) = (   0.6250000   0.1666667  -0.1666667), wk =   0.0017361
        k( 1260) = (   0.3333333   0.7916667   0.1666667), wk =   0.0017361
        k( 1261) = (  -0.7916667  -0.4583333  -0.6250000), wk =   0.0017361
        k( 1262) = (   0.5833333   0.1666667  -0.1666667), wk =   0.0017361
        k( 1263) = (   0.3333333   0.7500000   0.1666667), wk =   0.0017361
        k( 1264) = (  -0.7500000  -0.4166667  -0.5833333), wk =   0.0017361
        k( 1265) = (   0.5416667   0.1666667  -0.1666667), wk =   0.0017361
        k( 1266) = (   0.3333333   0.7083333   0.1666667), wk =   0.0017361
        k( 1267) = (  -0.7083333  -0.3750000  -0.5416667), wk =   0.0017361
        k( 1268) = (   0.5000000   0.1666667  -0.1666667), wk =   0.0008681
        k( 1269) = (  -0.6666667  -0.3333333  -0.5000000), wk =   0.0008681
        k( 1270) = (   0.6250000   0.1666667  -0.2083333), wk =   0.0017361
        k( 1271) = (   0.5833333   0.1666667  -0.2083333), wk =   0.0017361
        k( 1272) = (   0.3750000   0.7916667   0.2083333), wk =   0.0017361
        k( 1273) = (  -0.7916667  -0.4166667  -0.5833333), wk =   0.0017361
        k( 1274) = (   0.5416667   0.1666667  -0.2083333), wk =   0.0017361
        k( 1275) = (   0.3750000   0.7500000   0.2083333), wk =   0.0017361
        k( 1276) = (  -0.7500000  -0.3750000  -0.5416667), wk =   0.0017361
        k( 1277) = (   0.5000000   0.1666667  -0.2083333), wk =   0.0017361
        k( 1278) = (   0.3750000   0.7083333   0.2083333), wk =   0.0017361
        k( 1279) = (  -0.7083333  -0.3333333  -0.5000000), wk =   0.0017361
        k( 1280) = (   0.4583333   0.1666667  -0.2083333), wk =   0.0017361
        k( 1281) = (   0.3750000   0.6666667   0.2083333), wk =   0.0017361
        k( 1282) = (  -0.6666667  -0.2916667  -0.4583333), wk =   0.0017361
        k( 1283) = (   0.4166667   0.1666667  -0.2083333), wk =   0.0017361
        k( 1284) = (   0.3750000   0.6250000   0.2083333), wk =   0.0017361
        k( 1285) = (  -0.6250000  -0.2500000  -0.4166667), wk =   0.0017361
        k( 1286) = (   0.3750000   0.5833333   0.2083333), wk =   0.0017361
        k( 1287) = (   0.5833333   0.1666667  -0.2500000), wk =   0.0017361
        k( 1288) = (   0.5416667   0.1666667  -0.2500000), wk =   0.0017361
        k( 1289) = (   0.4166667   0.7916667   0.2500000), wk =   0.0017361
        k( 1290) = (  -0.7916667  -0.3750000  -0.5416667), wk =   0.0017361
        k( 1291) = (   0.5000000   0.1666667  -0.2500000), wk =   0.0017361
        k( 1292) = (   0.4166667   0.7500000   0.2500000), wk =   0.0017361
        k( 1293) = (  -0.7500000  -0.3333333  -0.5000000), wk =   0.0017361
        k( 1294) = (   0.4583333   0.1666667  -0.2500000), wk =   0.0017361
        k( 1295) = (   0.4166667   0.7083333   0.2500000), wk =   0.0017361
        k( 1296) = (  -0.7083333  -0.2916667  -0.4583333), wk =   0.0017361
        k( 1297) = (   0.4166667   0.6666667   0.2500000), wk =   0.0017361
        k( 1298) = (   0.5416667   0.1666667  -0.2916667), wk =   0.0017361
        k( 1299) = (   0.5000000   0.1666667  -0.2916667), wk =   0.0017361
        k( 1300) = (   0.4583333   0.7916667   0.2916667), wk =   0.0017361
        k( 1301) = (  -0.7916667  -0.3333333  -0.5000000), wk =   0.0017361
        k( 1302) = (   0.4583333   0.7500000   0.2916667), wk =   0.0017361
        k( 1303) = (   0.5833333   0.2083333  -0.2083333), wk =   0.0017361
        k( 1304) = (   0.5416667   0.2083333  -0.2083333), wk =   0.0017361
        k( 1305) = (   0.4166667   0.7500000   0.2083333), wk =   0.0017361
        k( 1306) = (  -0.7500000  -0.3333333  -0.5416667), wk =   0.0017361
        k( 1307) = (   0.5000000   0.2083333  -0.2083333), wk =   0.0008681
        k( 1308) = (  -0.7083333  -0.2916667  -0.5000000), wk =   0.0008681
        k( 1309) = (   0.5416667   0.2083333  -0.2500000), wk =   0.0017361
        k( 1310) = (   0.5000000   0.2083333  -0.2500000), wk =   0.0017361
        k( 1311) = (   0.4583333   0.7500000   0.2500000), wk =   0.0017361
        k( 1312) = (  -0.7500000  -0.2916667  -0.5000000), wk =   0.0017361
        k( 1313) = (   0.4583333   0.7083333   0.2500000), wk =   0.0017361

     Dense  grid:     3119 G-vectors     FFT dimensions: (  24,  24,  24)

     Dynamical RAM for                 wfc:       0.00 MB

     Dynamical RAM for     wfc (w. buffer):       1.71 MB

     Dynamical RAM for           str. fact:       0.00 MB

     Dynamical RAM for           local pot:       0.00 MB

     Dynamical RAM for          nlocal pot:       0.01 MB

     Dynamical RAM for                qrad:       0.31 MB

     Dynamical RAM for          rho,v,vnew:       0.04 MB

     Dynamical RAM for           G-vectors:       0.02 MB

     Dynamical RAM for          h,s,v(r/c):       0.01 MB

     Dynamical RAM for          <psi|beta>:       0.00 MB

     Dynamical RAM for                 psi:       0.01 MB

     Dynamical RAM for                hpsi:       0.01 MB

     Dynamical RAM for                spsi:       0.01 MB

     Dynamical RAM for      wfcinit/wfcrot:       0.01 MB

     Dynamical RAM for           addusdens:       0.06 MB

     Estimated static dynamical RAM per process >       2.14 MB

     Estimated max dynamical RAM per process >       2.20 MB

     Estimated total dynamical RAM >      79.31 MB

     Check: negative core charge=   -0.000077

     The potential is recalculated from file :
     ../tmp/diamond.save/charge-density

     Starting wfcs are random
     Checking if some PAW data can be deallocated... 

     Band Structure Calculation
     Davidson diagonalization with overlap

     Computing kpt #:     1  of   438 on this pool
     total cpu time spent up to now is        0.2 secs

     Computing kpt #:     2  of   438 on this pool
     total cpu time spent up to now is        0.2 secs

     Computing kpt #:     3  of   438 on this pool
     total cpu time spent up to now is        0.2 secs

     Computing kpt #:     4  of   438 on this pool
     total cpu time spent up to now is        0.2 secs

     Computing kpt #:     5  of   438 on this pool
     total cpu time spent up to now is        0.2 secs

     Computing kpt #:     6  of   438 on this pool
     total cpu time spent up to now is        0.3 secs

     Computing kpt #:     7  of   438 on this pool
     total cpu time spent up to now is        0.3 secs

     Computing kpt #:     8  of   438 on this pool
     total cpu time spent up to now is        0.3 secs

     Computing kpt #:     9  of   438 on this pool
     total cpu time spent up to now is        0.3 secs

     Computing kpt #:    10  of   438 on this pool
     total cpu time spent up to now is        0.3 secs

     Computing kpt #:    11  of   438 on this pool
     total cpu time spent up to now is        0.3 secs

     Computing kpt #:    12  of   438 on this pool
     total cpu time spent up to now is        0.3 secs

     Computing kpt #:    13  of   438 on this pool
     total cpu time spent up to now is        0.4 secs

     Computing kpt #:    14  of   438 on this pool
     total cpu time spent up to now is        0.4 secs

     Computing kpt #:    15  of   438 on this pool
     total cpu time spent up to now is        0.4 secs

     Computing kpt #:    16  of   438 on this pool
     total cpu time spent up to now is        0.4 secs

     Computing kpt #:    17  of   438 on this pool
     total cpu time spent up to now is        0.4 secs

     Computing kpt #:    18  of   438 on this pool
     total cpu time spent up to now is        0.4 secs

     Computing kpt #:    19  of   438 on this pool
     total cpu time spent up to now is        0.4 secs

     Computing kpt #:    20  of   438 on this pool
     total cpu time spent up to now is        0.4 secs

     Computing kpt #:    21  of   438 on this pool
     total cpu time spent up to now is        0.5 secs

     Computing kpt #:    22  of   438 on this pool
     total cpu time spent up to now is        0.5 secs

     Computing kpt #:    23  of   438 on this pool
     total cpu time spent up to now is        0.5 secs

     Computing kpt #:    24  of   438 on this pool
     total cpu time spent up to now is        0.5 secs

     Computing kpt #:    25  of   438 on this pool
     total cpu time spent up to now is        0.5 secs

     Computing kpt #:    26  of   438 on this pool
     total cpu time spent up to now is        0.5 secs

     Computing kpt #:    27  of   438 on this pool
     total cpu time spent up to now is        0.5 secs

     Computing kpt #:    28  of   438 on this pool
     total cpu time spent up to now is        0.6 secs

     Computing kpt #:    29  of   438 on this pool
     total cpu time spent up to now is        0.6 secs

     Computing kpt #:    30  of   438 on this pool
     total cpu time spent up to now is        0.6 secs

     Computing kpt #:    31  of   438 on this pool
     total cpu time spent up to now is        0.6 secs

     Computing kpt #:    32  of   438 on this pool
     total cpu time spent up to now is        0.6 secs

     Computing kpt #:    33  of   438 on this pool
     total cpu time spent up to now is        0.6 secs

     Computing kpt #:    34  of   438 on this pool
     total cpu time spent up to now is        0.6 secs

     Computing kpt #:    35  of   438 on this pool
     total cpu time spent up to now is        0.7 secs

     Computing kpt #:    36  of   438 on this pool
     total cpu time spent up to now is        0.7 secs

     Computing kpt #:    37  of   438 on this pool
     total cpu time spent up to now is        0.7 secs

     Computing kpt #:    38  of   438 on this pool
     total cpu time spent up to now is        0.7 secs

     Computing kpt #:    39  of   438 on this pool
     total cpu time spent up to now is        0.7 secs

     Computing kpt #:    40  of   438 on this pool
     total cpu time spent up to now is        0.7 secs

     Computing kpt #:    41  of   438 on this pool
     total cpu time spent up to now is        0.7 secs

     Computing kpt #:    42  of   438 on this pool
     total cpu time spent up to now is        0.7 secs

     Computing kpt #:    43  of   438 on this pool
     total cpu time spent up to now is        0.8 secs

     Computing kpt #:    44  of   438 on this pool
     total cpu time spent up to now is        0.8 secs

     Computing kpt #:    45  of   438 on this pool
     total cpu time spent up to now is        0.8 secs

     Computing kpt #:    46  of   438 on this pool
     total cpu time spent up to now is        0.8 secs

     Computing kpt #:    47  of   438 on this pool
     total cpu time spent up to now is        0.8 secs

     Computing kpt #:    48  of   438 on this pool
     total cpu time spent up to now is        0.8 secs

     Computing kpt #:    49  of   438 on this pool
     total cpu time spent up to now is        0.8 secs

     Computing kpt #:    50  of   438 on this pool
     total cpu time spent up to now is        0.9 secs

     Computing kpt #:    51  of   438 on this pool
     total cpu time spent up to now is        0.9 secs

     Computing kpt #:    52  of   438 on this pool
     total cpu time spent up to now is        0.9 secs

     Computing kpt #:    53  of   438 on this pool
     total cpu time spent up to now is        0.9 secs

     Computing kpt #:    54  of   438 on this pool
     total cpu time spent up to now is        0.9 secs

     Computing kpt #:    55  of   438 on this pool
     total cpu time spent up to now is        0.9 secs

     Computing kpt #:    56  of   438 on this pool
     total cpu time spent up to now is        0.9 secs

     Computing kpt #:    57  of   438 on this pool
     total cpu time spent up to now is        1.0 secs

     Computing kpt #:    58  of   438 on this pool
     total cpu time spent up to now is        1.0 secs

     Computing kpt #:    59  of   438 on this pool
     total cpu time spent up to now is        1.0 secs

     Computing kpt #:    60  of   438 on this pool
     total cpu time spent up to now is        1.0 secs

     Computing kpt #:    61  of   438 on this pool
     total cpu time spent up to now is        1.0 secs

     Computing kpt #:    62  of   438 on this pool
     total cpu time spent up to now is        1.0 secs

     Computing kpt #:    63  of   438 on this pool
     total cpu time spent up to now is        1.0 secs

     Computing kpt #:    64  of   438 on this pool
     total cpu time spent up to now is        1.1 secs

     Computing kpt #:    65  of   438 on this pool
     total cpu time spent up to now is        1.1 secs

     Computing kpt #:    66  of   438 on this pool
     total cpu time spent up to now is        1.1 secs

     Computing kpt #:    67  of   438 on this pool
     total cpu time spent up to now is        1.1 secs

     Computing kpt #:    68  of   438 on this pool
     total cpu time spent up to now is        1.1 secs

     Computing kpt #:    69  of   438 on this pool
     total cpu time spent up to now is        1.1 secs

     Computing kpt #:    70  of   438 on this pool
     total cpu time spent up to now is        1.1 secs

     Computing kpt #:    71  of   438 on this pool
     total cpu time spent up to now is        1.1 secs

     Computing kpt #:    72  of   438 on this pool
     total cpu time spent up to now is        1.2 secs

     Computing kpt #:    73  of   438 on this pool
     total cpu time spent up to now is        1.2 secs

     Computing kpt #:    74  of   438 on this pool
     total cpu time spent up to now is        1.2 secs

     Computing kpt #:    75  of   438 on this pool
     total cpu time spent up to now is        1.2 secs

     Computing kpt #:    76  of   438 on this pool
     total cpu time spent up to now is        1.2 secs

     Computing kpt #:    77  of   438 on this pool
     total cpu time spent up to now is        1.2 secs

     Computing kpt #:    78  of   438 on this pool
     total cpu time spent up to now is        1.3 secs

     Computing kpt #:    79  of   438 on this pool
     total cpu time spent up to now is        1.3 secs

     Computing kpt #:    80  of   438 on this pool
     total cpu time spent up to now is        1.3 secs

     Computing kpt #:    81  of   438 on this pool
     total cpu time spent up to now is        1.3 secs

     Computing kpt #:    82  of   438 on this pool
     total cpu time spent up to now is        1.3 secs

     Computing kpt #:    83  of   438 on this pool
     total cpu time spent up to now is        1.3 secs

     Computing kpt #:    84  of   438 on this pool
     total cpu time spent up to now is        1.3 secs

     Computing kpt #:    85  of   438 on this pool
     total cpu time spent up to now is        1.3 secs

     Computing kpt #:    86  of   438 on this pool
     total cpu time spent up to now is        1.4 secs

     Computing kpt #:    87  of   438 on this pool
     total cpu time spent up to now is        1.4 secs

     Computing kpt #:    88  of   438 on this pool
     total cpu time spent up to now is        1.4 secs

     Computing kpt #:    89  of   438 on this pool
     total cpu time spent up to now is        1.4 secs

     Computing kpt #:    90  of   438 on this pool
     total cpu time spent up to now is        1.4 secs

     Computing kpt #:    91  of   438 on this pool
     total cpu time spent up to now is        1.4 secs

     Computing kpt #:    92  of   438 on this pool
     total cpu time spent up to now is        1.4 secs

     Computing kpt #:    93  of   438 on this pool
     total cpu time spent up to now is        1.5 secs

     Computing kpt #:    94  of   438 on this pool
     total cpu time spent up to now is        1.5 secs

     Computing kpt #:    95  of   438 on this pool
     total cpu time spent up to now is        1.5 secs

     Computing kpt #:    96  of   438 on this pool
     total cpu time spent up to now is        1.5 secs

     Computing kpt #:    97  of   438 on this pool
     total cpu time spent up to now is        1.5 secs

     Computing kpt #:    98  of   438 on this pool
     total cpu time spent up to now is        1.5 secs

     Computing kpt #:    99  of   438 on this pool
     total cpu time spent up to now is        1.5 secs

     Computing kpt #:   100  of   438 on this pool
     total cpu time spent up to now is        1.6 secs

     Computing kpt #:   101  of   438 on this pool
     total cpu time spent up to now is        1.6 secs

     Computing kpt #:   102  of   438 on this pool
     total cpu time spent up to now is        1.6 secs

     Computing kpt #:   103  of   438 on this pool
     total cpu time spent up to now is        1.6 secs

     Computing kpt #:   104  of   438 on this pool
     total cpu time spent up to now is        1.6 secs

     Computing kpt #:   105  of   438 on this pool
     total cpu time spent up to now is        1.6 secs

     Computing kpt #:   106  of   438 on this pool
     total cpu time spent up to now is        1.6 secs

     Computing kpt #:   107  of   438 on this pool
     total cpu time spent up to now is        1.7 secs

     Computing kpt #:   108  of   438 on this pool
     total cpu time spent up to now is        1.7 secs

     Computing kpt #:   109  of   438 on this pool
     total cpu time spent up to now is        1.7 secs

     Computing kpt #:   110  of   438 on this pool
     total cpu time spent up to now is        1.7 secs

     Computing kpt #:   111  of   438 on this pool
     total cpu time spent up to now is        1.7 secs

     Computing kpt #:   112  of   438 on this pool
     total cpu time spent up to now is        1.7 secs

     Computing kpt #:   113  of   438 on this pool
     total cpu time spent up to now is        1.7 secs

     Computing kpt #:   114  of   438 on this pool
     total cpu time spent up to now is        1.7 secs

     Computing kpt #:   115  of   438 on this pool
     total cpu time spent up to now is        1.8 secs

     Computing kpt #:   116  of   438 on this pool
     total cpu time spent up to now is        1.8 secs

     Computing kpt #:   117  of   438 on this pool
     total cpu time spent up to now is        1.8 secs

     Computing kpt #:   118  of   438 on this pool
     total cpu time spent up to now is        1.8 secs

     Computing kpt #:   119  of   438 on this pool
     total cpu time spent up to now is        1.8 secs

     Computing kpt #:   120  of   438 on this pool
     total cpu time spent up to now is        1.8 secs

     Computing kpt #:   121  of   438 on this pool
     total cpu time spent up to now is        1.8 secs

     Computing kpt #:   122  of   438 on this pool
     total cpu time spent up to now is        1.9 secs

     Computing kpt #:   123  of   438 on this pool
     total cpu time spent up to now is        1.9 secs

     Computing kpt #:   124  of   438 on this pool
     total cpu time spent up to now is        1.9 secs

     Computing kpt #:   125  of   438 on this pool
     total cpu time spent up to now is        1.9 secs

     Computing kpt #:   126  of   438 on this pool
     total cpu time spent up to now is        1.9 secs

     Computing kpt #:   127  of   438 on this pool
     total cpu time spent up to now is        1.9 secs

     Computing kpt #:   128  of   438 on this pool
     total cpu time spent up to now is        2.0 secs

     Computing kpt #:   129  of   438 on this pool
     total cpu time spent up to now is        2.0 secs

     Computing kpt #:   130  of   438 on this pool
     total cpu time spent up to now is        2.0 secs

     Computing kpt #:   131  of   438 on this pool
     total cpu time spent up to now is        2.0 secs

     Computing kpt #:   132  of   438 on this pool
     total cpu time spent up to now is        2.0 secs

     Computing kpt #:   133  of   438 on this pool
     total cpu time spent up to now is        2.0 secs

     Computing kpt #:   134  of   438 on this pool
     total cpu time spent up to now is        2.0 secs

     Computing kpt #:   135  of   438 on this pool
     total cpu time spent up to now is        2.1 secs

     Computing kpt #:   136  of   438 on this pool
     total cpu time spent up to now is        2.1 secs

     Computing kpt #:   137  of   438 on this pool
     total cpu time spent up to now is        2.1 secs

     Computing kpt #:   138  of   438 on this pool
     total cpu time spent up to now is        2.1 secs

     Computing kpt #:   139  of   438 on this pool
     total cpu time spent up to now is        2.1 secs

     Computing kpt #:   140  of   438 on this pool
     total cpu time spent up to now is        2.1 secs

     Computing kpt #:   141  of   438 on this pool
     total cpu time spent up to now is        2.1 secs

     Computing kpt #:   142  of   438 on this pool
     total cpu time spent up to now is        2.2 secs

     Computing kpt #:   143  of   438 on this pool
     total cpu time spent up to now is        2.2 secs

     Computing kpt #:   144  of   438 on this pool
     total cpu time spent up to now is        2.2 secs

     Computing kpt #:   145  of   438 on this pool
     total cpu time spent up to now is        2.2 secs

     Computing kpt #:   146  of   438 on this pool
     total cpu time spent up to now is        2.2 secs

     Computing kpt #:   147  of   438 on this pool
     total cpu time spent up to now is        2.2 secs

     Computing kpt #:   148  of   438 on this pool
     total cpu time spent up to now is        2.2 secs

     Computing kpt #:   149  of   438 on this pool
     total cpu time spent up to now is        2.3 secs

     Computing kpt #:   150  of   438 on this pool
     total cpu time spent up to now is        2.3 secs

     Computing kpt #:   151  of   438 on this pool
     total cpu time spent up to now is        2.3 secs

     Computing kpt #:   152  of   438 on this pool
     total cpu time spent up to now is        2.3 secs

     Computing kpt #:   153  of   438 on this pool
     total cpu time spent up to now is        2.3 secs

     Computing kpt #:   154  of   438 on this pool
     total cpu time spent up to now is        2.3 secs

     Computing kpt #:   155  of   438 on this pool
     total cpu time spent up to now is        2.3 secs

     Computing kpt #:   156  of   438 on this pool
     total cpu time spent up to now is        2.4 secs

     Computing kpt #:   157  of   438 on this pool
     total cpu time spent up to now is        2.4 secs

     Computing kpt #:   158  of   438 on this pool
     total cpu time spent up to now is        2.4 secs

     Computing kpt #:   159  of   438 on this pool
     total cpu time spent up to now is        2.4 secs

     Computing kpt #:   160  of   438 on this pool
     total cpu time spent up to now is        2.4 secs

     Computing kpt #:   161  of   438 on this pool
     total cpu time spent up to now is        2.4 secs

     Computing kpt #:   162  of   438 on this pool
     total cpu time spent up to now is        2.4 secs

     Computing kpt #:   163  of   438 on this pool
     total cpu time spent up to now is        2.5 secs

     Computing kpt #:   164  of   438 on this pool
     total cpu time spent up to now is        2.5 secs

     Computing kpt #:   165  of   438 on this pool
     total cpu time spent up to now is        2.5 secs

     Computing kpt #:   166  of   438 on this pool
     total cpu time spent up to now is        2.5 secs

     Computing kpt #:   167  of   438 on this pool
     total cpu time spent up to now is        2.5 secs

     Computing kpt #:   168  of   438 on this pool
     total cpu time spent up to now is        2.5 secs

     Computing kpt #:   169  of   438 on this pool
     total cpu time spent up to now is        2.5 secs

     Computing kpt #:   170  of   438 on this pool
     total cpu time spent up to now is        2.6 secs

     Computing kpt #:   171  of   438 on this pool
     total cpu time spent up to now is        2.6 secs

     Computing kpt #:   172  of   438 on this pool
     total cpu time spent up to now is        2.6 secs

     Computing kpt #:   173  of   438 on this pool
     total cpu time spent up to now is        2.6 secs

     Computing kpt #:   174  of   438 on this pool
     total cpu time spent up to now is        2.6 secs

     Computing kpt #:   175  of   438 on this pool
     total cpu time spent up to now is        2.6 secs

     Computing kpt #:   176  of   438 on this pool
     total cpu time spent up to now is        2.6 secs

     Computing kpt #:   177  of   438 on this pool
     total cpu time spent up to now is        2.7 secs

     Computing kpt #:   178  of   438 on this pool
     total cpu time spent up to now is        2.7 secs

     Computing kpt #:   179  of   438 on this pool
     total cpu time spent up to now is        2.7 secs

     Computing kpt #:   180  of   438 on this pool
     total cpu time spent up to now is        2.7 secs

     Computing kpt #:   181  of   438 on this pool
     total cpu time spent up to now is        2.7 secs

     Computing kpt #:   182  of   438 on this pool
     total cpu time spent up to now is        2.7 secs

     Computing kpt #:   183  of   438 on this pool
     total cpu time spent up to now is        2.8 secs

     Computing kpt #:   184  of   438 on this pool
     total cpu time spent up to now is        2.8 secs

     Computing kpt #:   185  of   438 on this pool
     total cpu time spent up to now is        2.8 secs

     Computing kpt #:   186  of   438 on this pool
     total cpu time spent up to now is        2.8 secs

     Computing kpt #:   187  of   438 on this pool
     total cpu time spent up to now is        2.8 secs

     Computing kpt #:   188  of   438 on this pool
     total cpu time spent up to now is        2.8 secs

     Computing kpt #:   189  of   438 on this pool
     total cpu time spent up to now is        2.8 secs

     Computing kpt #:   190  of   438 on this pool
     total cpu time spent up to now is        2.8 secs

     Computing kpt #:   191  of   438 on this pool
     total cpu time spent up to now is        2.9 secs

     Computing kpt #:   192  of   438 on this pool
     total cpu time spent up to now is        2.9 secs

     Computing kpt #:   193  of   438 on this pool
     total cpu time spent up to now is        2.9 secs

     Computing kpt #:   194  of   438 on this pool
     total cpu time spent up to now is        2.9 secs

     Computing kpt #:   195  of   438 on this pool
     total cpu time spent up to now is        2.9 secs

     Computing kpt #:   196  of   438 on this pool
     total cpu time spent up to now is        2.9 secs

     Computing kpt #:   197  of   438 on this pool
     total cpu time spent up to now is        2.9 secs

     Computing kpt #:   198  of   438 on this pool
     total cpu time spent up to now is        3.0 secs

     Computing kpt #:   199  of   438 on this pool
     total cpu time spent up to now is        3.0 secs

     Computing kpt #:   200  of   438 on this pool
     total cpu time spent up to now is        3.0 secs

     Computing kpt #:   201  of   438 on this pool
     total cpu time spent up to now is        3.0 secs

     Computing kpt #:   202  of   438 on this pool
     total cpu time spent up to now is        3.0 secs

     Computing kpt #:   203  of   438 on this pool
     total cpu time spent up to now is        3.0 secs

     Computing kpt #:   204  of   438 on this pool
     total cpu time spent up to now is        3.1 secs

     Computing kpt #:   205  of   438 on this pool
     total cpu time spent up to now is        3.1 secs

     Computing kpt #:   206  of   438 on this pool
     total cpu time spent up to now is        3.1 secs

     Computing kpt #:   207  of   438 on this pool
     total cpu time spent up to now is        3.1 secs

     Computing kpt #:   208  of   438 on this pool
     total cpu time spent up to now is        3.1 secs

     Computing kpt #:   209  of   438 on this pool
     total cpu time spent up to now is        3.1 secs

     Computing kpt #:   210  of   438 on this pool
     total cpu time spent up to now is        3.2 secs

     Computing kpt #:   211  of   438 on this pool
     total cpu time spent up to now is        3.2 secs

     Computing kpt #:   212  of   438 on this pool
     total cpu time spent up to now is        3.2 secs

     Computing kpt #:   213  of   438 on this pool
     total cpu time spent up to now is        3.2 secs

     Computing kpt #:   214  of   438 on this pool
     total cpu time spent up to now is        3.2 secs

     Computing kpt #:   215  of   438 on this pool
     total cpu time spent up to now is        3.2 secs

     Computing kpt #:   216  of   438 on this pool
     total cpu time spent up to now is        3.2 secs

     Computing kpt #:   217  of   438 on this pool
     total cpu time spent up to now is        3.3 secs

     Computing kpt #:   218  of   438 on this pool
     total cpu time spent up to now is        3.3 secs

     Computing kpt #:   219  of   438 on this pool
     total cpu time spent up to now is        3.3 secs

     Computing kpt #:   220  of   438 on this pool
     total cpu time spent up to now is        3.3 secs

     Computing kpt #:   221  of   438 on this pool
     total cpu time spent up to now is        3.3 secs

     Computing kpt #:   222  of   438 on this pool
     total cpu time spent up to now is        3.3 secs

     Computing kpt #:   223  of   438 on this pool
     total cpu time spent up to now is        3.4 secs

     Computing kpt #:   224  of   438 on this pool
     total cpu time spent up to now is        3.4 secs

     Computing kpt #:   225  of   438 on this pool
     total cpu time spent up to now is        3.4 secs

     Computing kpt #:   226  of   438 on this pool
     total cpu time spent up to now is        3.4 secs

     Computing kpt #:   227  of   438 on this pool
     total cpu time spent up to now is        3.4 secs

     Computing kpt #:   228  of   438 on this pool
     total cpu time spent up to now is        3.4 secs

     Computing kpt #:   229  of   438 on this pool
     total cpu time spent up to now is        3.4 secs

     Computing kpt #:   230  of   438 on this pool
     total cpu time spent up to now is        3.5 secs

     Computing kpt #:   231  of   438 on this pool
     total cpu time spent up to now is        3.5 secs

     Computing kpt #:   232  of   438 on this pool
     total cpu time spent up to now is        3.5 secs

     Computing kpt #:   233  of   438 on this pool
     total cpu time spent up to now is        3.5 secs

     Computing kpt #:   234  of   438 on this pool
     total cpu time spent up to now is        3.5 secs

     Computing kpt #:   235  of   438 on this pool
     total cpu time spent up to now is        3.5 secs

     Computing kpt #:   236  of   438 on this pool
     total cpu time spent up to now is        3.5 secs

     Computing kpt #:   237  of   438 on this pool
     total cpu time spent up to now is        3.6 secs

     Computing kpt #:   238  of   438 on this pool
     total cpu time spent up to now is        3.6 secs

     Computing kpt #:   239  of   438 on this pool
     total cpu time spent up to now is        3.6 secs

     Computing kpt #:   240  of   438 on this pool
     total cpu time spent up to now is        3.6 secs

     Computing kpt #:   241  of   438 on this pool
     total cpu time spent up to now is        3.6 secs

     Computing kpt #:   242  of   438 on this pool
     total cpu time spent up to now is        3.6 secs

     Computing kpt #:   243  of   438 on this pool
     total cpu time spent up to now is        3.7 secs

     Computing kpt #:   244  of   438 on this pool
     total cpu time spent up to now is        3.7 secs

     Computing kpt #:   245  of   438 on this pool
     total cpu time spent up to now is        3.7 secs

     Computing kpt #:   246  of   438 on this pool
     total cpu time spent up to now is        3.7 secs

     Computing kpt #:   247  of   438 on this pool
     total cpu time spent up to now is        3.7 secs

     Computing kpt #:   248  of   438 on this pool
     total cpu time spent up to now is        3.7 secs

     Computing kpt #:   249  of   438 on this pool
     total cpu time spent up to now is        3.7 secs

     Computing kpt #:   250  of   438 on this pool
     total cpu time spent up to now is        3.8 secs

     Computing kpt #:   251  of   438 on this pool
     total cpu time spent up to now is        3.8 secs

     Computing kpt #:   252  of   438 on this pool
     total cpu time spent up to now is        3.8 secs

     Computing kpt #:   253  of   438 on this pool
     total cpu time spent up to now is        3.8 secs

     Computing kpt #:   254  of   438 on this pool
     total cpu time spent up to now is        3.8 secs

     Computing kpt #:   255  of   438 on this pool
     total cpu time spent up to now is        3.8 secs

     Computing kpt #:   256  of   438 on this pool
     total cpu time spent up to now is        3.8 secs

     Computing kpt #:   257  of   438 on this pool
     total cpu time spent up to now is        3.9 secs

     Computing kpt #:   258  of   438 on this pool
     total cpu time spent up to now is        3.9 secs

     Computing kpt #:   259  of   438 on this pool
     total cpu time spent up to now is        3.9 secs

     Computing kpt #:   260  of   438 on this pool
     total cpu time spent up to now is        3.9 secs

     Computing kpt #:   261  of   438 on this pool
     total cpu time spent up to now is        3.9 secs

     Computing kpt #:   262  of   438 on this pool
     total cpu time spent up to now is        3.9 secs

     Computing kpt #:   263  of   438 on this pool
     total cpu time spent up to now is        3.9 secs

     Computing kpt #:   264  of   438 on this pool
     total cpu time spent up to now is        4.0 secs

     Computing kpt #:   265  of   438 on this pool
     total cpu time spent up to now is        4.0 secs

     Computing kpt #:   266  of   438 on this pool
     total cpu time spent up to now is        4.0 secs

     Computing kpt #:   267  of   438 on this pool
     total cpu time spent up to now is        4.0 secs

     Computing kpt #:   268  of   438 on this pool
     total cpu time spent up to now is        4.0 secs

     Computing kpt #:   269  of   438 on this pool
     total cpu time spent up to now is        4.0 secs

     Computing kpt #:   270  of   438 on this pool
     total cpu time spent up to now is        4.0 secs

     Computing kpt #:   271  of   438 on this pool
     total cpu time spent up to now is        4.1 secs

     Computing kpt #:   272  of   438 on this pool
     total cpu time spent up to now is        4.1 secs

     Computing kpt #:   273  of   438 on this pool
     total cpu time spent up to now is        4.1 secs

     Computing kpt #:   274  of   438 on this pool
     total cpu time spent up to now is        4.1 secs

     Computing kpt #:   275  of   438 on this pool
     total cpu time spent up to now is        4.1 secs

     Computing kpt #:   276  of   438 on this pool
     total cpu time spent up to now is        4.1 secs

     Computing kpt #:   277  of   438 on this pool
     total cpu time spent up to now is        4.1 secs

     Computing kpt #:   278  of   438 on this pool
     total cpu time spent up to now is        4.2 secs

     Computing kpt #:   279  of   438 on this pool
     total cpu time spent up to now is        4.2 secs

     Computing kpt #:   280  of   438 on this pool
     total cpu time spent up to now is        4.2 secs

     Computing kpt #:   281  of   438 on this pool
     total cpu time spent up to now is        4.2 secs

     Computing kpt #:   282  of   438 on this pool
     total cpu time spent up to now is        4.2 secs

     Computing kpt #:   283  of   438 on this pool
     total cpu time spent up to now is        4.2 secs

     Computing kpt #:   284  of   438 on this pool
     total cpu time spent up to now is        4.2 secs

     Computing kpt #:   285  of   438 on this pool
     total cpu time spent up to now is        4.2 secs

     Computing kpt #:   286  of   438 on this pool
     total cpu time spent up to now is        4.3 secs

     Computing kpt #:   287  of   438 on this pool
     total cpu time spent up to now is        4.3 secs

     Computing kpt #:   288  of   438 on this pool
     total cpu time spent up to now is        4.3 secs

     Computing kpt #:   289  of   438 on this pool
     total cpu time spent up to now is        4.3 secs

     Computing kpt #:   290  of   438 on this pool
     total cpu time spent up to now is        4.3 secs

     Computing kpt #:   291  of   438 on this pool
     total cpu time spent up to now is        4.3 secs

     Computing kpt #:   292  of   438 on this pool
     total cpu time spent up to now is        4.3 secs

     Computing kpt #:   293  of   438 on this pool
     total cpu time spent up to now is        4.3 secs

     Computing kpt #:   294  of   438 on this pool
     total cpu time spent up to now is        4.4 secs

     Computing kpt #:   295  of   438 on this pool
     total cpu time spent up to now is        4.4 secs

     Computing kpt #:   296  of   438 on this pool
     total cpu time spent up to now is        4.4 secs

     Computing kpt #:   297  of   438 on this pool
     total cpu time spent up to now is        4.4 secs

     Computing kpt #:   298  of   438 on this pool
     total cpu time spent up to now is        4.4 secs

     Computing kpt #:   299  of   438 on this pool
     total cpu time spent up to now is        4.4 secs

     Computing kpt #:   300  of   438 on this pool
     total cpu time spent up to now is        4.5 secs

     Computing kpt #:   301  of   438 on this pool
     total cpu time spent up to now is        4.5 secs

     Computing kpt #:   302  of   438 on this pool
     total cpu time spent up to now is        4.5 secs

     Computing kpt #:   303  of   438 on this pool
     total cpu time spent up to now is        4.5 secs

     Computing kpt #:   304  of   438 on this pool
     total cpu time spent up to now is        4.5 secs

     Computing kpt #:   305  of   438 on this pool
     total cpu time spent up to now is        4.5 secs

     Computing kpt #:   306  of   438 on this pool
     total cpu time spent up to now is        4.5 secs

     Computing kpt #:   307  of   438 on this pool
     total cpu time spent up to now is        4.6 secs

     Computing kpt #:   308  of   438 on this pool
     total cpu time spent up to now is        4.6 secs

     Computing kpt #:   309  of   438 on this pool
     total cpu time spent up to now is        4.6 secs

     Computing kpt #:   310  of   438 on this pool
     total cpu time spent up to now is        4.6 secs

     Computing kpt #:   311  of   438 on this pool
     total cpu time spent up to now is        4.6 secs

     Computing kpt #:   312  of   438 on this pool
     total cpu time spent up to now is        4.6 secs

     Computing kpt #:   313  of   438 on this pool
     total cpu time spent up to now is        4.6 secs

     Computing kpt #:   314  of   438 on this pool
     total cpu time spent up to now is        4.7 secs

     Computing kpt #:   315  of   438 on this pool
     total cpu time spent up to now is        4.7 secs

     Computing kpt #:   316  of   438 on this pool
     total cpu time spent up to now is        4.7 secs

     Computing kpt #:   317  of   438 on this pool
     total cpu time spent up to now is        4.7 secs

     Computing kpt #:   318  of   438 on this pool
     total cpu time spent up to now is        4.7 secs

     Computing kpt #:   319  of   438 on this pool
     total cpu time spent up to now is        4.7 secs

     Computing kpt #:   320  of   438 on this pool
     total cpu time spent up to now is        4.7 secs

     Computing kpt #:   321  of   438 on this pool
     total cpu time spent up to now is        4.8 secs

     Computing kpt #:   322  of   438 on this pool
     total cpu time spent up to now is        4.8 secs

     Computing kpt #:   323  of   438 on this pool
     total cpu time spent up to now is        4.8 secs

     Computing kpt #:   324  of   438 on this pool
     total cpu time spent up to now is        4.8 secs

     Computing kpt #:   325  of   438 on this pool
     total cpu time spent up to now is        4.8 secs

     Computing kpt #:   326  of   438 on this pool
     total cpu time spent up to now is        4.8 secs

     Computing kpt #:   327  of   438 on this pool
     total cpu time spent up to now is        4.8 secs

     Computing kpt #:   328  of   438 on this pool
     total cpu time spent up to now is        4.8 secs

     Computing kpt #:   329  of   438 on this pool
     total cpu time spent up to now is        4.9 secs

     Computing kpt #:   330  of   438 on this pool
     total cpu time spent up to now is        4.9 secs

     Computing kpt #:   331  of   438 on this pool
     total cpu time spent up to now is        4.9 secs

     Computing kpt #:   332  of   438 on this pool
     total cpu time spent up to now is        4.9 secs

     Computing kpt #:   333  of   438 on this pool
     total cpu time spent up to now is        4.9 secs

     Computing kpt #:   334  of   438 on this pool
     total cpu time spent up to now is        4.9 secs

     Computing kpt #:   335  of   438 on this pool
     total cpu time spent up to now is        4.9 secs

     Computing kpt #:   336  of   438 on this pool
     total cpu time spent up to now is        5.0 secs

     Computing kpt #:   337  of   438 on this pool
     total cpu time spent up to now is        5.0 secs

     Computing kpt #:   338  of   438 on this pool
     total cpu time spent up to now is        5.0 secs

     Computing kpt #:   339  of   438 on this pool
     total cpu time spent up to now is        5.0 secs

     Computing kpt #:   340  of   438 on this pool
     total cpu time spent up to now is        5.0 secs

     Computing kpt #:   341  of   438 on this pool
     total cpu time spent up to now is        5.0 secs

     Computing kpt #:   342  of   438 on this pool
     total cpu time spent up to now is        5.0 secs

     Computing kpt #:   343  of   438 on this pool
     total cpu time spent up to now is        5.1 secs

     Computing kpt #:   344  of   438 on this pool
     total cpu time spent up to now is        5.1 secs

     Computing kpt #:   345  of   438 on this pool
     total cpu time spent up to now is        5.1 secs

     Computing kpt #:   346  of   438 on this pool
     total cpu time spent up to now is        5.1 secs

     Computing kpt #:   347  of   438 on this pool
     total cpu time spent up to now is        5.1 secs

     Computing kpt #:   348  of   438 on this pool
     total cpu time spent up to now is        5.1 secs

     Computing kpt #:   349  of   438 on this pool
     total cpu time spent up to now is        5.2 secs

     Computing kpt #:   350  of   438 on this pool
     total cpu time spent up to now is        5.2 secs

     Computing kpt #:   351  of   438 on this pool
     total cpu time spent up to now is        5.2 secs

     Computing kpt #:   352  of   438 on this pool
     total cpu time spent up to now is        5.2 secs

     Computing kpt #:   353  of   438 on this pool
     total cpu time spent up to now is        5.2 secs

     Computing kpt #:   354  of   438 on this pool
     total cpu time spent up to now is        5.2 secs

     Computing kpt #:   355  of   438 on this pool
     total cpu time spent up to now is        5.2 secs

     Computing kpt #:   356  of   438 on this pool
     total cpu time spent up to now is        5.3 secs

     Computing kpt #:   357  of   438 on this pool
     total cpu time spent up to now is        5.3 secs

     Computing kpt #:   358  of   438 on this pool
     total cpu time spent up to now is        5.3 secs

     Computing kpt #:   359  of   438 on this pool
     total cpu time spent up to now is        5.3 secs

     Computing kpt #:   360  of   438 on this pool
     total cpu time spent up to now is        5.3 secs

     Computing kpt #:   361  of   438 on this pool
     total cpu time spent up to now is        5.3 secs

     Computing kpt #:   362  of   438 on this pool
     total cpu time spent up to now is        5.3 secs

     Computing kpt #:   363  of   438 on this pool
     total cpu time spent up to now is        5.4 secs

     Computing kpt #:   364  of   438 on this pool
     total cpu time spent up to now is        5.4 secs

     Computing kpt #:   365  of   438 on this pool
     total cpu time spent up to now is        5.4 secs

     Computing kpt #:   366  of   438 on this pool
     total cpu time spent up to now is        5.4 secs

     Computing kpt #:   367  of   438 on this pool
     total cpu time spent up to now is        5.4 secs

     Computing kpt #:   368  of   438 on this pool
     total cpu time spent up to now is        5.4 secs

     Computing kpt #:   369  of   438 on this pool
     total cpu time spent up to now is        5.4 secs

     Computing kpt #:   370  of   438 on this pool
     total cpu time spent up to now is        5.5 secs

     Computing kpt #:   371  of   438 on this pool
     total cpu time spent up to now is        5.5 secs

     Computing kpt #:   372  of   438 on this pool
     total cpu time spent up to now is        5.5 secs

     Computing kpt #:   373  of   438 on this pool
     total cpu time spent up to now is        5.5 secs

     Computing kpt #:   374  of   438 on this pool
     total cpu time spent up to now is        5.5 secs

     Computing kpt #:   375  of   438 on this pool
     total cpu time spent up to now is        5.5 secs

     Computing kpt #:   376  of   438 on this pool
     total cpu time spent up to now is        5.5 secs

     Computing kpt #:   377  of   438 on this pool
     total cpu time spent up to now is        5.6 secs

     Computing kpt #:   378  of   438 on this pool
     total cpu time spent up to now is        5.6 secs

     Computing kpt #:   379  of   438 on this pool
     total cpu time spent up to now is        5.6 secs

     Computing kpt #:   380  of   438 on this pool
     total cpu time spent up to now is        5.6 secs

     Computing kpt #:   381  of   438 on this pool
     total cpu time spent up to now is        5.6 secs

     Computing kpt #:   382  of   438 on this pool
     total cpu time spent up to now is        5.6 secs

     Computing kpt #:   383  of   438 on this pool
     total cpu time spent up to now is        5.6 secs

     Computing kpt #:   384  of   438 on this pool
     total cpu time spent up to now is        5.6 secs

     Computing kpt #:   385  of   438 on this pool
     total cpu time spent up to now is        5.7 secs

     Computing kpt #:   386  of   438 on this pool
     total cpu time spent up to now is        5.7 secs

     Computing kpt #:   387  of   438 on this pool
     total cpu time spent up to now is        5.7 secs

     Computing kpt #:   388  of   438 on this pool
     total cpu time spent up to now is        5.7 secs

     Computing kpt #:   389  of   438 on this pool
     total cpu time spent up to now is        5.7 secs

     Computing kpt #:   390  of   438 on this pool
     total cpu time spent up to now is        5.7 secs

     Computing kpt #:   391  of   438 on this pool
     total cpu time spent up to now is        5.8 secs

     Computing kpt #:   392  of   438 on this pool
     total cpu time spent up to now is        5.8 secs

     Computing kpt #:   393  of   438 on this pool
     total cpu time spent up to now is        5.8 secs

     Computing kpt #:   394  of   438 on this pool
     total cpu time spent up to now is        5.8 secs

     Computing kpt #:   395  of   438 on this pool
     total cpu time spent up to now is        5.8 secs

     Computing kpt #:   396  of   438 on this pool
     total cpu time spent up to now is        5.8 secs

     Computing kpt #:   397  of   438 on this pool
     total cpu time spent up to now is        5.8 secs

     Computing kpt #:   398  of   438 on this pool
     total cpu time spent up to now is        5.9 secs

     Computing kpt #:   399  of   438 on this pool
     total cpu time spent up to now is        5.9 secs

     Computing kpt #:   400  of   438 on this pool
     total cpu time spent up to now is        5.9 secs

     Computing kpt #:   401  of   438 on this pool
     total cpu time spent up to now is        5.9 secs

     Computing kpt #:   402  of   438 on this pool
     total cpu time spent up to now is        5.9 secs

     Computing kpt #:   403  of   438 on this pool
     total cpu time spent up to now is        5.9 secs

     Computing kpt #:   404  of   438 on this pool
     total cpu time spent up to now is        5.9 secs

     Computing kpt #:   405  of   438 on this pool
     total cpu time spent up to now is        6.0 secs

     Computing kpt #:   406  of   438 on this pool
     total cpu time spent up to now is        6.0 secs

     Computing kpt #:   407  of   438 on this pool
     total cpu time spent up to now is        6.0 secs

     Computing kpt #:   408  of   438 on this pool
     total cpu time spent up to now is        6.0 secs

     Computing kpt #:   409  of   438 on this pool
     total cpu time spent up to now is        6.0 secs

     Computing kpt #:   410  of   438 on this pool
     total cpu time spent up to now is        6.0 secs

     Computing kpt #:   411  of   438 on this pool
     total cpu time spent up to now is        6.0 secs

     Computing kpt #:   412  of   438 on this pool
     total cpu time spent up to now is        6.1 secs

     Computing kpt #:   413  of   438 on this pool
     total cpu time spent up to now is        6.1 secs

     Computing kpt #:   414  of   438 on this pool
     total cpu time spent up to now is        6.1 secs

     Computing kpt #:   415  of   438 on this pool
     total cpu time spent up to now is        6.1 secs

     Computing kpt #:   416  of   438 on this pool
     total cpu time spent up to now is        6.1 secs

     Computing kpt #:   417  of   438 on this pool
     total cpu time spent up to now is        6.1 secs

     Computing kpt #:   418  of   438 on this pool
     total cpu time spent up to now is        6.1 secs

     Computing kpt #:   419  of   438 on this pool
     total cpu time spent up to now is        6.1 secs

     Computing kpt #:   420  of   438 on this pool
     total cpu time spent up to now is        6.2 secs

     Computing kpt #:   421  of   438 on this pool
     total cpu time spent up to now is        6.2 secs

     Computing kpt #:   422  of   438 on this pool
     total cpu time spent up to now is        6.2 secs

     Computing kpt #:   423  of   438 on this pool
     total cpu time spent up to now is        6.2 secs

     Computing kpt #:   424  of   438 on this pool
     total cpu time spent up to now is        6.2 secs

     Computing kpt #:   425  of   438 on this pool
     total cpu time spent up to now is        6.2 secs

     Computing kpt #:   426  of   438 on this pool
     total cpu time spent up to now is        6.2 secs

     Computing kpt #:   427  of   438 on this pool
     total cpu time spent up to now is        6.3 secs

     Computing kpt #:   428  of   438 on this pool
     total cpu time spent up to now is        6.3 secs

     Computing kpt #:   429  of   438 on this pool
     total cpu time spent up to now is        6.3 secs

     Computing kpt #:   430  of   438 on this pool
     total cpu time spent up to now is        6.3 secs

     Computing kpt #:   431  of   438 on this pool
     total cpu time spent up to now is        6.3 secs

     Computing kpt #:   432  of   438 on this pool
     total cpu time spent up to now is        6.3 secs

     Computing kpt #:   433  of   438 on this pool
     total cpu time spent up to now is        6.3 secs

     Computing kpt #:   434  of   438 on this pool
     total cpu time spent up to now is        6.4 secs

     Computing kpt #:   435  of   438 on this pool
     total cpu time spent up to now is        6.4 secs

     Computing kpt #:   436  of   438 on this pool
     total cpu time spent up to now is        6.4 secs

     Computing kpt #:   437  of   438 on this pool
     total cpu time spent up to now is        6.4 secs

     Computing kpt #:   438  of   438 on this pool
     total cpu time spent up to now is        6.4 secs

     ethr =  1.25E-10,  avg # of iterations = 21.0

     total cpu time spent up to now is        6.4 secs

     End of band structure calculation

          k = 0.0000 0.0000 0.0000 (   387 PWs)   bands (ev):

    -8.1479  13.2485  13.2485  13.3123  18.8224  18.8789  18.8789  26.4965

     occupation numbers 
     1.0000   1.0000   1.0000   1.0000   0.0000   0.0000   0.0000   0.0000

          k =-0.0295 0.0295-0.0295 (   399 PWs)   bands (ev):

    -8.0999  12.9142  13.1622  13.2191  18.9395  18.9916  19.0854  26.5386

     occupation numbers 
     1.0000   1.0000   1.0000   1.0000   0.0000   0.0000   0.0000   0.0000

          k =-0.0589 0.0589-0.0589 (   384 PWs)   bands (ev):

    -7.9561  12.0375  12.9282  12.9818  19.2499  19.3004  19.5786  26.6652

     occupation numbers 
     1.0000   1.0000   1.0000   1.0000   0.0000   0.0000   0.0000   0.0000

          k =-0.0884 0.0884-0.0884 (   381 PWs)   bands (ev):

    -7.7171  10.8547  12.6002  12.6509  19.6843  19.7353  20.1415  26.8727

     occupation numbers 
     1.0000   1.0000   1.0000   1.0000   0.0000   0.0000   0.0000   0.0000

          k =-0.1179 0.1179-0.1179 (   380 PWs)   bands (ev):

    -7.3836   9.5189  12.2311  12.2796  20.1659  20.2193  20.6520  27.1514

     occupation numbers 
     1.0000   1.0000   1.0000   1.0000   0.0000   0.0000   0.0000   0.0000

          k =-0.1473 0.1473-0.1473 (   386 PWs)   bands (ev):

    -6.9569   8.1149  11.8595  11.9064  20.6275  20.6848  21.0681  27.4819

     occupation numbers 
     1.0000   1.0000   1.0000   1.0000   0.0000   0.0000   0.0000   0.0000

          k =-0.1768 0.1768-0.1768 (   386 PWs)   bands (ev):

    -6.4387   6.6936  11.5107  11.5566  21.0189  21.0812  21.3886  27.8352

     occupation numbers 
     1.0000   1.0000   1.0000   1.0000   0.0000   0.0000   0.0000   0.0000

          k =-0.2062 0.2062-0.2062 (   395 PWs)   bands (ev):

    -5.8323   5.2881  11.2003  11.2456  21.3124  21.3797  21.6274  28.1762

     occupation numbers 
     1.0000   1.0000   1.0000   1.0000   0.0000   0.0000   0.0000   0.0000

          k =-0.2357 0.2357-0.2357 (   389 PWs)   bands (ev):

    -5.1428   3.9240  10.9381  10.9832  21.5055  21.5769  21.8016  28.4700

     occupation numbers 
     1.0000   1.0000   1.0000   1.0000   0.0000   0.0000   0.0000   0.0000

          k =-0.2652 0.2652-0.2652 (   395 PWs)   bands (ev):

    -4.3807   2.6253  10.7300  10.7749  21.6146  21.6890  21.9249  28.6922

     occupation numbers 
     1.0000   1.0000   1.0000   1.0000   0.0000   0.0000   0.0000   0.0000

          k =-0.2946 0.2946-0.2946 (   389 PWs)   bands (ev):

    -3.5715   1.4270  10.5794  10.6243  21.6663  21.7427  22.0073  28.8368

     occupation numbers 
     1.0000   1.0000   1.0000   1.0000   0.0000   0.0000   0.0000   0.0000

          k =-0.3241 0.3241-0.3241 (   392 PWs)   bands (ev):

    -2.7992   0.4190  10.4883  10.5333  21.6858  21.7631  22.0545  28.9136

     occupation numbers 
     1.0000   1.0000   1.0000   1.0000   0.0000   0.0000   0.0000   0.0000

          k = 0.3536-0.3536 0.3536 (   392 PWs)   bands (ev):

    -2.3971  -0.0620  10.4579  10.5028  21.6902  21.7679  22.0700  28.9372

     occupation numbers 
     1.0000   1.0000   1.0000   1.0000   0.0000   0.0000   0.0000   0.0000

          k = 0.0000 0.0589 0.0000 (   391 PWs)   bands (ev):

    -8.0839  12.9893  13.0191  13.1205  18.8069  19.1607  19.1929  26.5466

     occupation numbers 
     1.0000   1.0000   1.0000   1.0000   0.0000   0.0000   0.0000   0.0000

          k =-0.0295 0.0884-0.0295 (   390 PWs)   bands (ev):

    -7.9721  12.3274  12.7256  13.0214  18.8802  19.5384  19.6216  26.6266

     occupation numbers 
     1.0000   1.0000   1.0000   1.0000   0.0000   0.0000   0.0000   0.0000

          k =-0.0589 0.1179-0.0589 (   381 PWs)   bands (ev):

    -7.7648  11.2505  12.3568  12.8143  19.1631  20.0201  20.1715  26.7761

     occupation numbers 
     1.0000   1.0000   1.0000   1.0000   0.0000   0.0000   0.0000   0.0000

          k =-0.0884 0.1473-0.0884 (   379 PWs)   bands (ev):

    -7.4628   9.9717  11.9677  12.5055  19.5784  20.5331  20.6990  26.9882

     occupation numbers 
     1.0000   1.0000   1.0000   1.0000   0.0000   0.0000   0.0000   0.0000

          k =-0.1179 0.1768-0.1179 (   382 PWs)   bands (ev):

    -7.0672   8.5961  11.5920  12.1465  20.0429  21.0153  21.1424  27.2512

     occupation numbers 
     1.0000   1.0000   1.0000   1.0000   0.0000   0.0000   0.0000   0.0000

          k =-0.1473 0.2062-0.1473 (   384 PWs)   bands (ev):

    -6.5795   7.1851  11.2511  11.7768  20.4859  21.4178  21.4894  27.5506

     occupation numbers 
     1.0000   1.0000   1.0000   1.0000   0.0000   0.0000   0.0000   0.0000

          k =-0.1768 0.2357-0.1768 (   390 PWs)   bands (ev):

    -6.0023   5.7775  10.9583  11.4225  20.8590  21.7108  21.7499  27.8706

     occupation numbers 
     1.0000   1.0000   1.0000   1.0000   0.0000   0.0000   0.0000   0.0000

          k =-0.2062 0.2652-0.2062 (   391 PWs)   bands (ev):

    -5.3401   4.4017  10.7217  11.1006  21.1415  21.8907  21.9378  28.1894

     occupation numbers 
     1.0000   1.0000   1.0000   1.0000   0.0000   0.0000   0.0000   0.0000

          k =-0.2357 0.2946-0.2357 (   396 PWs)   bands (ev):

    -4.6010   3.0817  10.5456  10.8216  21.3386  21.9709  22.0696  28.4777

     occupation numbers 
     1.0000   1.0000   1.0000   1.0000   0.0000   0.0000   0.0000   0.0000

          k =-0.2652 0.3241-0.2652 (   391 PWs)   bands (ev):

    -3.8035   1.8471  10.4320  10.5931  21.4725  21.9775  22.1583  28.7060

     occupation numbers 
     1.0000   1.0000   1.0000   1.0000   0.0000   0.0000   0.0000   0.0000

          k =-0.2946 0.3536-0.2946 (   393 PWs)   bands (ev):

    -3.0020   0.7594  10.3762  10.4252  21.5690  21.9393  22.2109  28.8572

     occupation numbers 
     1.0000   1.0000   1.0000   1.0000   0.0000   0.0000   0.0000   0.0000

          k = 0.3830-0.3241 0.3830 (   395 PWs)   bands (ev):

    -2.4119   0.0384  10.2958  10.4036  21.6480  21.8791  22.2318  28.9294

     occupation numbers 
     1.0000   1.0000   1.0000   1.0000   0.0000   0.0000   0.0000   0.0000

          k = 0.3536-0.2946 0.3536 (   394 PWs)   bands (ev):

    -2.5553   0.2081  10.2418  10.4784  21.7133  21.8138  22.2224  28.9255

     occupation numbers 
     1.0000   1.0000   1.0000   1.0000   0.0000   0.0000   0.0000   0.0000

          k = 0.3241-0.2652 0.3241 (   394 PWs)   bands (ev):

    -3.2626   1.0984  10.2487  10.6148  21.6973  21.8076  22.1820  28.8444

     occupation numbers 
     1.0000   1.0000   1.0000   1.0000   0.0000   0.0000   0.0000   0.0000

          k = 0.2946-0.2357 0.2946 (   394 PWs)   bands (ev):

    -4.0739   2.2468  10.3186  10.8090  21.5919  21.8414  22.1070  28.6822

     occupation numbers 
     1.0000   1.0000   1.0000   1.0000   0.0000   0.0000   0.0000   0.0000

          k = 0.2652-0.2062 0.2652 (   394 PWs)   bands (ev):

    -4.8552   3.5142  10.4520  11.0569  21.4337  21.8329  21.9903  28.4423

     occupation numbers 
     1.0000   1.0000   1.0000   1.0000   0.0000   0.0000   0.0000   0.0000

          k = 0.2357-0.1768 0.2357 (   389 PWs)   bands (ev):

    -5.5699   4.8556  10.6477  11.3529  21.2040  21.7471  21.8214  28.1442

     occupation numbers 
     1.0000   1.0000   1.0000   1.0000   0.0000   0.0000   0.0000   0.0000

          k = 0.2062-0.1473 0.2062 (   384 PWs)   bands (ev):

    -6.2044   6.2448  10.9028  11.6889  20.8878  21.5342  21.6087  27.8184

     occupation numbers 
     1.0000   1.0000   1.0000   1.0000   0.0000   0.0000   0.0000   0.0000

          k = 0.1768-0.1179 0.1768 (   384 PWs)   bands (ev):

    -6.7522   7.6568  11.2121  12.0524  20.4884  21.1833  21.3379  27.4948

     occupation numbers 
     1.0000   1.0000   1.0000   1.0000   0.0000   0.0000   0.0000   0.0000

          k = 0.1473-0.0884 0.1473 (   382 PWs)   bands (ev):

    -7.2094   9.0605  11.5664  12.4237  20.0348  20.7319  20.9720  27.1961

     occupation numbers 
     1.0000   1.0000   1.0000   1.0000   0.0000   0.0000   0.0000   0.0000

          k = 0.1179-0.0589 0.1179 (   380 PWs)   bands (ev):

    -7.5740  10.4099  11.9512  12.7725  19.5808  20.2201  20.5068  26.9394

     occupation numbers 
     1.0000   1.0000   1.0000   1.0000   0.0000   0.0000   0.0000   0.0000

          k = 0.0884-0.0295 0.0884 (   382 PWs)   bands (ev):

    -7.8445  11.6283  12.3457  13.0540  19.1992  19.7067  19.9668  26.7384

     occupation numbers 
     1.0000   1.0000   1.0000   1.0000   0.0000   0.0000   0.0000   0.0000

          k = 0.0589-0.0000 0.0589 (   385 PWs)   bands (ev):

    -8.0200  12.5453  12.7559  13.2135  18.9693  19.2720  19.4297  26.6032

     occupation numbers 
     1.0000   1.0000   1.0000   1.0000   0.0000   0.0000   0.0000   0.0000

          k = 0.0000 0.1179 0.0000 (   383 PWs)   bands (ev):

    -7.8923  12.3478  12.3774  12.6574  18.6639  19.9709  19.9982  26.6233

     occupation numbers 
     1.0000   1.0000   1.0000   1.0000   0.0000   0.0000   0.0000   0.0000

          k =-0.0295 0.1473-0.0295 (   382 PWs)   bands (ev):

    -7.7170  11.5404  11.9821  12.5189  18.6997  20.4929  20.5332  26.6526

     occupation numbers 
     1.0000   1.0000   1.0000   1.0000   0.0000   0.0000   0.0000   0.0000

          k =-0.0589 0.1768-0.0589 (   381 PWs)   bands (ev):

    -7.4468  10.3779  11.5780  12.3209  18.9583  21.0391  21.0767  26.7110

     occupation numbers 
     1.0000   1.0000   1.0000   1.0000   0.0000   0.0000   0.0000   0.0000

          k =-0.0884 0.2062-0.0884 (   380 PWs)   bands (ev):

    -7.0827   9.0699  11.1969  12.0186  19.3590  21.5438  21.5571  26.8002

     occupation numbers 
     1.0000   1.0000   1.0000   1.0000   0.0000   0.0000   0.0000   0.0000

          k =-0.1179 0.2357-0.1179 (   384 PWs)   bands (ev):

    -6.6260   7.6966  10.8583  11.6587  19.8109  21.9238  21.9836  26.9360

     occupation numbers 
     1.0000   1.0000   1.0000   1.0000   0.0000   0.0000   0.0000   0.0000

          k =-0.1473 0.2652-0.1473 (   384 PWs)   bands (ev):

    -6.0791   6.3068  10.5745  11.2812  20.2372  22.2084  22.2984  27.1452

     occupation numbers 
     1.0000   1.0000   1.0000   1.0000   0.0000   0.0000   0.0000   0.0000

          k =-0.1768 0.2946-0.1768 (   387 PWs)   bands (ev):

    -5.4457   4.9340  10.3529  10.9133  20.5899  22.4151  22.4866  27.4459

     occupation numbers 
     1.0000   1.0000   1.0000   1.0000   0.0000   0.0000   0.0000   0.0000

          k =-0.2062 0.3241-0.2062 (   386 PWs)   bands (ev):

    -4.7323   3.6050  10.1976  10.5734  20.8558  22.5541  22.5647  27.8233

     occupation numbers 
     1.0000   1.0000   1.0000   1.0000   0.0000   0.0000   0.0000   0.0000

          k =-0.2357 0.3536-0.2357 (   393 PWs)   bands (ev):

    -3.9529   2.3471  10.1099  10.2744  21.0513  22.5391  22.6573  28.2251

     occupation numbers 
     1.0000   1.0000   1.0000   1.0000   0.0000   0.0000   0.0000   0.0000

          k =-0.2652 0.3830-0.2652 (   391 PWs)   bands (ev):

    -3.1443   1.2063  10.0164  10.0986  21.2053  22.4591  22.7150  28.5799

     occupation numbers 
     1.0000   1.0000   1.0000   1.0000   0.0000   0.0000   0.0000   0.0000

          k = 0.4125-0.2946 0.4125 (   391 PWs)   bands (ev):

    -2.4405   0.3224   9.8233  10.1451  21.3439  22.3428  22.7402  28.8236

     occupation numbers 
     1.0000   1.0000   1.0000   1.0000   0.0000   0.0000   0.0000   0.0000

          k = 0.3830-0.2652 0.3830 (   393 PWs)   bands (ev):

    -2.2987   0.1551   9.6873  10.2600  21.4822  22.2054  22.7360  28.9169

     occupation numbers 
     1.0000   1.0000   1.0000   1.0000   0.0000   0.0000   0.0000   0.0000

          k = 0.3536-0.2357 0.3536 (   393 PWs)   bands (ev):

    -2.8857   0.8721   9.6146  10.4374  21.6217  22.0513  22.7027  28.8487

     occupation numbers 
     1.0000   1.0000   1.0000   1.0000   0.0000   0.0000   0.0000   0.0000

          k = 0.3241-0.2062 0.3241 (   392 PWs)   bands (ev):

    -3.6842   1.9537   9.6082  10.6727  21.7451  21.8787  22.6371  28.6343

     occupation numbers 
     1.0000   1.0000   1.0000   1.0000   0.0000   0.0000   0.0000   0.0000

          k = 0.2946-0.1768 0.2946 (   394 PWs)   bands (ev):

    -4.4795   3.1807   9.6700  10.9597  21.6391  21.8605  22.5301  28.3160

     occupation numbers 
     1.0000   1.0000   1.0000   1.0000   0.0000   0.0000   0.0000   0.0000

          k = 0.2652-0.1473 0.2652 (   390 PWs)   bands (ev):

    -5.2168   4.4905   9.8006  11.2907  21.3598  21.8916  22.3640  27.9568

     occupation numbers 
     1.0000   1.0000   1.0000   1.0000   0.0000   0.0000   0.0000   0.0000

          k = 0.2357-0.1179 0.2357 (   384 PWs)   bands (ev):

    -5.8777   5.8523   9.9995  11.6543  21.0043  21.8354  22.1117  27.6201

     occupation numbers 
     1.0000   1.0000   1.0000   1.0000   0.0000   0.0000   0.0000   0.0000

          k = 0.2062-0.0884 0.2062 (   385 PWs)   bands (ev):

    -6.4539   7.2393  10.2648  12.0339  20.5815  21.6734  21.7498  27.3452

     occupation numbers 
     1.0000   1.0000   1.0000   1.0000   0.0000   0.0000   0.0000   0.0000

          k = 0.1768-0.0589 0.1768 (   383 PWs)   bands (ev):

    -6.9409   8.6176  10.5942  12.4052  20.1242  21.2800  21.3978  27.1359

     occupation numbers 
     1.0000   1.0000   1.0000   1.0000   0.0000   0.0000   0.0000   0.0000

          k = 0.1473-0.0295 0.1473 (   382 PWs)   bands (ev):

    -7.3360   9.9306  10.9922  12.7320  19.6908  20.7388  21.0065  26.9737

     occupation numbers 
     1.0000   1.0000   1.0000   1.0000   0.0000   0.0000   0.0000   0.0000

          k = 0.1179-0.0000 0.1179 (   381 PWs)   bands (ev):

    -7.6375  11.0180  11.5366  12.9653  19.3572  20.1885  20.5119  26.8425

     occupation numbers 
     1.0000   1.0000   1.0000   1.0000   0.0000   0.0000   0.0000   0.0000

          k = 0.0000 0.1768 0.0000 (   383 PWs)   bands (ev):

    -7.5738  11.5396  11.5645  11.9458  18.4508  21.0527  21.0754  26.5041

     occupation numbers 
     1.0000   1.0000   1.0000   1.0000   0.0000   0.0000   0.0000   0.0000

          k =-0.0295 0.2062-0.0295 (   382 PWs)   bands (ev):

    -7.3355  10.6753  11.1487  11.7616  18.4653  21.6371  21.6525  26.3385

     occupation numbers 
     1.0000   1.0000   1.0000   1.0000   0.0000   0.0000   0.0000   0.0000

          k =-0.0589 0.2357-0.0589 (   384 PWs)   bands (ev):

    -7.0033   9.4898  10.7597  11.5523  18.7131  22.1704  22.1914  26.1824

     occupation numbers 
     1.0000   1.0000   1.0000   1.0000   0.0000   0.0000   0.0000   0.0000

          k =-0.0884 0.2652-0.0884 (   384 PWs)   bands (ev):

    -6.5782   8.1923  10.4173  11.2369  19.1082  22.5929  22.6642  26.0859

     occupation numbers 
     1.0000   1.0000   1.0000   1.0000   0.0000   0.0000   0.0000   0.0000

          k =-0.1179 0.2946-0.1179 (   386 PWs)   bands (ev):

    -6.0623   6.8485  10.1338  10.8603  19.5500  22.9148  23.0203  26.1130

     occupation numbers 
     1.0000   1.0000   1.0000   1.0000   0.0000   0.0000   0.0000   0.0000

          k =-0.1473 0.3241-0.1473 (   388 PWs)   bands (ev):

    -5.4588   5.5002   9.9166  10.4632  19.9553  23.1490  23.2415  26.3177

     occupation numbers 
     1.0000   1.0000   1.0000   1.0000   0.0000   0.0000   0.0000   0.0000

          k =-0.1768 0.3536-0.1768 (   390 PWs)   bands (ev):

    -4.7731   4.1788   9.7699  10.0745  20.2797  23.3120  23.3321  26.7140

     occupation numbers 
     1.0000   1.0000   1.0000   1.0000   0.0000   0.0000   0.0000   0.0000

          k =-0.2062 0.3830-0.2062 (   391 PWs)   bands (ev):

    -4.0161   2.9126   9.6861   9.7239  20.5238  23.3123  23.4203  27.2599

     occupation numbers 
     1.0000   1.0000   1.0000   1.0000   0.0000   0.0000   0.0000   0.0000

          k =-0.2357 0.4125-0.2357 (   389 PWs)   bands (ev):

    -3.2138   1.7397   9.3918   9.6985  20.7171  23.2129  23.4845  27.8652

     occupation numbers 
     1.0000   1.0000   1.0000   1.0000   0.0000   0.0000   0.0000   0.0000

          k = 0.4419-0.2652 0.4419 (   391 PWs)   bands (ev):

    -2.4514   0.7527   9.1245   9.7698  20.8927  23.0600  23.5138  28.4099

     occupation numbers 
     1.0000   1.0000   1.0000   1.0000   0.0000   0.0000   0.0000   0.0000

          k = 0.4125-0.2357 0.4125 (   391 PWs)   bands (ev):

    -2.0586   0.2861   8.9158   9.9109  21.0740  22.8722  23.5134  28.7643

     occupation numbers 
     1.0000   1.0000   1.0000   1.0000   0.0000   0.0000   0.0000   0.0000

          k = 0.3830-0.2062 0.3830 (   393 PWs)   bands (ev):

    -2.4546   0.7602   8.7717  10.1175  21.2696  22.6573  23.4843  28.8319

     occupation numbers 
     1.0000   1.0000   1.0000   1.0000   0.0000   0.0000   0.0000   0.0000

          k = 0.3536-0.1768 0.3536 (   392 PWs)   bands (ev):

    -3.2171   1.7516   8.6967  10.3839  21.4736  22.4118  23.4229  28.6137

     occupation numbers 
     1.0000   1.0000   1.0000   1.0000   0.0000   0.0000   0.0000   0.0000

          k = 0.3241-0.1473 0.3241 (   393 PWs)   bands (ev):

    -4.0188   2.9284   8.6940  10.7027  21.6659  22.1246  23.3177  28.2109

     occupation numbers 
     1.0000   1.0000   1.0000   1.0000   0.0000   0.0000   0.0000   0.0000

          k = 0.2946-0.1179 0.2946 (   396 PWs)   bands (ev):

    -4.7752   4.1985   8.7661  11.0634  21.7551  21.8422  23.1447  27.7575

     occupation numbers 
     1.0000   1.0000   1.0000   1.0000   0.0000   0.0000   0.0000   0.0000

          k = 0.2652-0.0884 0.2652 (   389 PWs)   bands (ev):

    -5.4602   5.5224   8.9152  11.4519  21.3621  21.9013  22.8684  27.3719

     occupation numbers 
     1.0000   1.0000   1.0000   1.0000   0.0000   0.0000   0.0000   0.0000

          k = 0.2357-0.0589 0.2357 (   386 PWs)   bands (ev):

    -6.0634   6.8667   9.1458  11.8478  20.9002  21.8703  22.4608  27.1249

     occupation numbers 
     1.0000   1.0000   1.0000   1.0000   0.0000   0.0000   0.0000   0.0000

          k = 0.2062-0.0295 0.2062 (   386 PWs)   bands (ev):

    -6.5790   8.1771   9.4775  12.2218  20.4232  21.7140  21.9316  27.0153

     occupation numbers 
     1.0000   1.0000   1.0000   1.0000   0.0000   0.0000   0.0000   0.0000

          k = 0.1768 0.0000 0.1768 (   381 PWs)   bands (ev):

    -7.0038   9.2820  10.0339  12.5333  19.9945  21.3329  21.4241  26.9863

     occupation numbers 
     1.0000   1.0000   1.0000   1.0000   0.0000   0.0000   0.0000   0.0000

          k = 0.0000 0.2357 0.0000 (   383 PWs)   bands (ev):

    -7.1294  10.6982  10.7191  11.0318  18.2004  22.2660  22.2858  25.9107

     occupation numbers 
     1.0000   1.0000   1.0000   1.0000   0.0000   0.0000   0.0000   0.0000

          k =-0.0295 0.2652-0.0295 (   386 PWs)   bands (ev):

    -6.8293   9.7929  10.3213  10.8343  18.2100  22.8700  22.8758  25.4899

     occupation numbers 
     1.0000   1.0000   1.0000   1.0000   0.0000   0.0000   0.0000   0.0000

          k =-0.0589 0.2946-0.0589 (   386 PWs)   bands (ev):

    -6.4361   8.6174   9.9705  10.6014  18.4605  23.3669  23.4008  25.1520

     occupation numbers 
     1.0000   1.0000   1.0000   1.0000   0.0000   0.0000   0.0000   0.0000

          k =-0.0884 0.3241-0.0884 (   390 PWs)   bands (ev):

    -5.9517   7.3576   9.6806  10.2551  18.8569  23.7461  23.8159  24.9747

     occupation numbers 
     1.0000   1.0000   1.0000   1.0000   0.0000   0.0000   0.0000   0.0000

          k =-0.1179 0.3536-0.1179 (   390 PWs)   bands (ev):

    -5.3790   6.0647   9.4594   9.8468  19.2869  24.0231  24.0915  25.0264

     occupation numbers 
     1.0000   1.0000   1.0000   1.0000   0.0000   0.0000   0.0000   0.0000

          k =-0.1473 0.3830-0.1473 (   389 PWs)   bands (ev):

    -4.7225   4.7754   9.3104   9.4216  19.6630  24.2166  24.2244  25.3478

     occupation numbers 
     1.0000   1.0000   1.0000   1.0000   0.0000   0.0000   0.0000   0.0000

          k =-0.1768 0.4125-0.1768 (   389 PWs)   bands (ev):

    -3.9910   3.5213   9.0036   9.2427  19.9530  24.2277  24.3451  25.9270

     occupation numbers 
     1.0000   1.0000   1.0000   1.0000   0.0000   0.0000   0.0000   0.0000

          k =-0.2062 0.4419-0.2062 (   387 PWs)   bands (ev):

    -3.2037   2.3375   8.6232   9.2476  20.1776  24.1306  24.4207  26.6894

     occupation numbers 
     1.0000   1.0000   1.0000   1.0000   0.0000   0.0000   0.0000   0.0000

          k = 0.4714-0.2357 0.4714 (   393 PWs)   bands (ev):

    -2.4168   1.2908   8.2901   9.3287  20.3766  23.9597  24.4565  27.5167

     occupation numbers 
     1.0000   1.0000   1.0000   1.0000   0.0000   0.0000   0.0000   0.0000

          k = 0.4419-0.2062 0.4419 (   393 PWs)   bands (ev):

    -1.8454   0.6031   8.0153   9.4829  20.5827  23.7361  24.4604  28.2485

     occupation numbers 
     1.0000   1.0000   1.0000   1.0000   0.0000   0.0000   0.0000   0.0000

          k = 0.4125-0.1768 0.4125 (   395 PWs)   bands (ev):

    -1.9896   0.7773   7.8065   9.7060  20.8121  23.4705  24.4353  28.6635

     occupation numbers 
     1.0000   1.0000   1.0000   1.0000   0.0000   0.0000   0.0000   0.0000

          k = 0.3830-0.1473 0.3830 (   390 PWs)   bands (ev):

    -2.6808   1.6445   7.6698   9.9918  21.0662  23.1629  24.3776  28.5932

     occupation numbers 
     1.0000   1.0000   1.0000   1.0000   0.0000   0.0000   0.0000   0.0000

          k = 0.3536-0.1179 0.3536 (   394 PWs)   bands (ev):

    -3.4778   2.7593   7.6099  10.3318  21.3320  22.8050  24.2720  28.1559

     occupation numbers 
     1.0000   1.0000   1.0000   1.0000   0.0000   0.0000   0.0000   0.0000

          k = 0.3241-0.0884 0.3241 (   396 PWs)   bands (ev):

    -4.2482   3.9801   7.6320  10.7143  21.5835  22.3875  24.0832  27.6121

     occupation numbers 
     1.0000   1.0000   1.0000   1.0000   0.0000   0.0000   0.0000   0.0000

          k = 0.2946-0.0589 0.2946 (   394 PWs)   bands (ev):

    -4.9545   5.2512   7.7447  11.1226  21.7766  21.9173  23.7566  27.1676

     occupation numbers 
     1.0000   1.0000   1.0000   1.0000   0.0000   0.0000   0.0000   0.0000

          k = 0.2652-0.0295 0.2652 (   392 PWs)   bands (ev):

    -5.5826   6.5119   7.9772  11.5336  21.3841  21.8994  23.2570  26.9366

     occupation numbers 
     1.0000   1.0000   1.0000   1.0000   0.0000   0.0000   0.0000   0.0000

          k = 0.2357-0.0000 0.2357 (   385 PWs)   bands (ev):

    -6.1254   7.5755   8.4821  11.9145  20.8689  21.8805  22.6202  26.9147

     occupation numbers 
     1.0000   1.0000   1.0000   1.0000   0.0000   0.0000   0.0000   0.0000

          k = 0.0000 0.2946 0.0000 (   379 PWs)   bands (ev):

    -6.5612   9.8917   9.9032   9.9648  17.9457  23.5358  23.5545  24.8217

     occupation numbers 
     1.0000   1.0000   1.0000   1.0000   0.0000   0.0000   0.0000   0.0000

          k =-0.0295 0.3241-0.0295 (   387 PWs)   bands (ev):

    -6.2001   8.8904   9.5487   9.8327  17.9651  24.1272  24.1385  24.2723

     occupation numbers 
     1.0000   1.0000   1.0000   1.0000   0.0000   0.0000   0.0000   0.0000

          k =-0.0589 0.3536-0.0589 (   393 PWs)   bands (ev):

    -5.7477   7.7564   9.2476   9.5587  18.2291  23.8747  24.6116  24.6264

     occupation numbers 
     1.0000   1.0000   1.0000   1.0000   0.0000   0.0000   0.0000   0.0000

          k =-0.0884 0.3830-0.0884 (   394 PWs)   bands (ev):

    -5.2064   6.5622   9.0159   9.1627  18.6303  23.7419  24.9561  24.9749

     occupation numbers 
     1.0000   1.0000   1.0000   1.0000   0.0000   0.0000   0.0000   0.0000

          k =-0.1179 0.4125-0.1179 (   393 PWs)   bands (ev):

    -4.5803   5.3433   8.7047   8.8631  19.0423  23.9190  25.1698  25.1961

     occupation numbers 
     1.0000   1.0000   1.0000   1.0000   0.0000   0.0000   0.0000   0.0000

          k =-0.1473 0.4419-0.1473 (   391 PWs)   bands (ev):

    -3.8765   4.1328   8.2410   8.7849  19.3805  24.4284  25.2190  25.3544

     occupation numbers 
     1.0000   1.0000   1.0000   1.0000   0.0000   0.0000   0.0000   0.0000

          k =-0.1768 0.4714-0.1768 (   395 PWs)   bands (ev):

    -3.1099   2.9661   7.7994   8.7867  19.6370  25.1442  25.2036  25.4689

     occupation numbers 
     1.0000   1.0000   1.0000   1.0000   0.0000   0.0000   0.0000   0.0000

          k = 0.5009-0.2062 0.5009 (   393 PWs)   bands (ev):

    -2.3190   1.8966   7.4020   8.8672  19.8528  24.9727  25.4775  26.2193

     occupation numbers 
     1.0000   1.0000   1.0000   1.0000   0.0000   0.0000   0.0000   0.0000

          k = 0.4714-0.1768 0.4714 (   395 PWs)   bands (ev):

    -1.6410   1.0712   7.0631   9.0238  20.0711  24.7262  25.4943  27.2414

     occupation numbers 
     1.0000   1.0000   1.0000   1.0000   0.0000   0.0000   0.0000   0.0000

          k = 0.4419-0.1473 0.4419 (   397 PWs)   bands (ev):

    -1.5171   0.9367   6.7926   9.2525  20.3172  24.4178  25.4779  28.1158

     occupation numbers 
     1.0000   1.0000   1.0000   1.0000   0.0000   0.0000   0.0000   0.0000

          k = 0.4125-0.1179 0.4125 (   393 PWs)   bands (ev):

    -2.0871   1.6338   6.5986   9.5471  20.5993  24.0501  25.4292  28.4683

     occupation numbers 
     1.0000   1.0000   1.0000   1.0000   0.0000   0.0000   0.0000   0.0000

          k = 0.3830-0.0884 0.3830 (   395 PWs)   bands (ev):

    -2.8636   2.6701   6.4884   9.8986  20.9112  23.6185  25.3299  28.1312

     occupation numbers 
     1.0000   1.0000   1.0000   1.0000   0.0000   0.0000   0.0000   0.0000

          k = 0.3536-0.0589 0.3536 (   393 PWs)   bands (ev):

    -3.6410   3.8258   6.4736  10.2945  21.2338  23.1187  25.1232  27.5311

     occupation numbers 
     1.0000   1.0000   1.0000   1.0000   0.0000   0.0000   0.0000   0.0000

          k = 0.3241-0.0295 0.3241 (   397 PWs)   bands (ev):

    -4.3645   5.0025   6.5894  10.7171  21.5347  22.5579  24.7070  27.0613

     occupation numbers 
     1.0000   1.0000   1.0000   1.0000   0.0000   0.0000   0.0000   0.0000

          k = 0.2946-0.0000 0.2946 (   395 PWs)   bands (ev):

    -5.0147   5.9931   7.0070  11.1417  21.7659  21.9690  24.0477  26.8806

     occupation numbers 
     1.0000   1.0000   1.0000   1.0000   0.0000   0.0000   0.0000   0.0000

          k = 0.0000 0.3536 0.0000 (   375 PWs)   bands (ev):

    -5.8712   8.7573   9.1559   9.1745  17.7162  23.5040  24.8168  24.8346

     occupation numbers 
     1.0000   1.0000   1.0000   1.0000   0.0000   0.0000   0.0000   0.0000

          k =-0.0295 0.3830-0.0295 (   392 PWs)   bands (ev):

    -5.4511   7.8811   8.8571   8.9061  17.7578  22.9368  25.3946  25.4056

     occupation numbers 
     1.0000   1.0000   1.0000   1.0000   0.0000   0.0000   0.0000   0.0000

          k =-0.0589 0.4125-0.0589 (   394 PWs)   bands (ev):

    -4.9417   6.8526   8.5367   8.6153  18.0435  22.6132  25.8325  25.8404

     occupation numbers 
     1.0000   1.0000   1.0000   1.0000   0.0000   0.0000   0.0000   0.0000

          k =-0.0884 0.4419-0.0884 (   397 PWs)   bands (ev):

    -4.3468   5.7680   8.0577   8.4453  18.4481  22.5988  26.1090  26.1485

     occupation numbers 
     1.0000   1.0000   1.0000   1.0000   0.0000   0.0000   0.0000   0.0000

          k =-0.1179 0.4714-0.1179 (   392 PWs)   bands (ev):

    -3.6724   4.6583   7.5338   8.3559  18.8317  22.9554  26.2230  26.3523

     occupation numbers 
     1.0000   1.0000   1.0000   1.0000   0.0000   0.0000   0.0000   0.0000

          k =-0.1473 0.5009-0.1473 (   395 PWs)   bands (ev):

    -2.9302   3.5568   7.0188   8.3476  19.1268  23.6784  26.1896  26.4776

     occupation numbers 
     1.0000   1.0000   1.0000   1.0000   0.0000   0.0000   0.0000   0.0000

          k = 0.5303-0.1768 0.5303 (   395 PWs)   bands (ev):

    -2.1481   2.5104   6.5458   8.4200  19.3590  24.6764  26.0326  26.5495

     occupation numbers 
     1.0000   1.0000   1.0000   1.0000   0.0000   0.0000   0.0000   0.0000

          k = 0.5009-0.1473 0.5009 (   394 PWs)   bands (ev):

    -1.4150   1.6228   6.1349   8.5712  19.5820  25.7738  25.8087  26.6062

     occupation numbers 
     1.0000   1.0000   1.0000   1.0000   0.0000   0.0000   0.0000   0.0000

          k = 0.4714-0.1179 0.4714 (   393 PWs)   bands (ev):

    -1.0602   1.2324   5.7991   8.7971  19.8325  25.4279  26.4734  27.1233

     occupation numbers 
     1.0000   1.0000   1.0000   1.0000   0.0000   0.0000   0.0000   0.0000

          k = 0.4419-0.0884 0.4419 (   394 PWs)   bands (ev):

    -1.4537   1.7116   5.5486   9.0919  20.1260  24.9997  26.4857  28.0136

     occupation numbers 
     1.0000   1.0000   1.0000   1.0000   0.0000   0.0000   0.0000   0.0000

          k = 0.4125-0.0589 0.4125 (   395 PWs)   bands (ev):

    -2.1874   2.6438   5.3978   9.4468  20.4622  24.4884  26.4173  28.0831

     occupation numbers 
     1.0000   1.0000   1.0000   1.0000   0.0000   0.0000   0.0000   0.0000

          k = 0.3830-0.0295 0.3830 (   395 PWs)   bands (ev):

    -2.9618   3.6894   5.3856   9.8491  20.8283  23.8965  26.2017  27.5059

     occupation numbers 
     1.0000   1.0000   1.0000   1.0000   0.0000   0.0000   0.0000   0.0000

          k = 0.3536 0.0000 0.3536 (   399 PWs)   bands (ev):

    -3.6963   4.5802   5.6922  10.2810  21.1989  23.2402  25.6059  27.1187

     occupation numbers 
     1.0000   1.0000   1.0000   1.0000   0.0000   0.0000   0.0000   0.0000

          k = 0.0000 0.4125 0.0000 (   391 PWs)   bands (ev):

    -5.0633   7.4636   8.5116   8.5281  17.5367  22.1962  26.0704  26.0891

     occupation numbers 
     1.0000   1.0000   1.0000   1.0000   0.0000   0.0000   0.0000   0.0000

          k =-0.0295 0.4419-0.0295 (   391 PWs)   bands (ev):

    -4.5860   6.6888   8.1738   8.2667  17.6107  21.6927  26.6100  26.6294

     occupation numbers 
     1.0000   1.0000   1.0000   1.0000   0.0000   0.0000   0.0000   0.0000

          k =-0.0589 0.4714-0.0589 (   395 PWs)   bands (ev):

    -4.0229   5.8104   7.6853   8.0812  17.9229  21.4736  26.9833  27.0234

     occupation numbers 
     1.0000   1.0000   1.0000   1.0000   0.0000   0.0000   0.0000   0.0000

          k =-0.0884 0.5009-0.0884 (   392 PWs)   bands (ev):

    -3.3790   4.8867   7.0853   7.9760  18.3238  21.6158  27.1787  27.2888

     occupation numbers 
     1.0000   1.0000   1.0000   1.0000   0.0000   0.0000   0.0000   0.0000

          k =-0.1179 0.5303-0.1179 (   391 PWs)   bands (ev):

    -2.6638   3.9389   6.4574   7.9529  18.6654  22.1790  27.2031  27.4531

     occupation numbers 
     1.0000   1.0000   1.0000   1.0000   0.0000   0.0000   0.0000   0.0000

          k = 0.5598-0.1473 0.5598 (   396 PWs)   bands (ev):

    -1.8985   2.9976   5.8658   8.0121  18.9189  23.1135  27.0742  27.5450

     occupation numbers 
     1.0000   1.0000   1.0000   1.0000   0.0000   0.0000   0.0000   0.0000

          k = 0.5303-0.1179 0.5303 (   393 PWs)   bands (ev):

    -1.1429   2.1364   5.3478   8.1519  19.1428  24.2918  26.8126  27.5906

     occupation numbers 
     1.0000   1.0000   1.0000   1.0000   0.0000   0.0000   0.0000   0.0000

          k = 0.5009-0.0884 0.5009 (   391 PWs)   bands (ev):

    -0.6242   1.5940   4.9239   8.3690  19.3891  25.5803  26.4327  27.6173

     occupation numbers 
     1.0000   1.0000   1.0000   1.0000   0.0000   0.0000   0.0000   0.0000

          k = 0.4714-0.0589 0.4714 (   394 PWs)   bands (ev):

    -0.8057   1.8358   4.6115   8.6577  19.6819  25.9423  26.7733  27.6916

     occupation numbers 
     1.0000   1.0000   1.0000   1.0000   0.0000   0.0000   0.0000   0.0000

          k = 0.4419-0.0295 0.4419 (   395 PWs)   bands (ev):

    -1.4689   2.6114   4.4520   9.0096  20.0265  25.3460  27.2997  27.9189

     occupation numbers 
     1.0000   1.0000   1.0000   1.0000   0.0000   0.0000   0.0000   0.0000

          k = 0.4125-0.0000 0.4125 (   395 PWs)   bands (ev):

    -2.2258   3.3613   4.6183   9.4125  20.4150  24.6550  27.1308  27.5936

     occupation numbers 
     1.0000   1.0000   1.0000   1.0000   0.0000   0.0000   0.0000   0.0000

          k = 0.0000 0.4714 0.0000 (   387 PWs)   bands (ev):

    -4.1413   6.1019   7.9717   7.9871  17.4283  21.0149  27.2581  27.2782

     occupation numbers 
     1.0000   1.0000   1.0000   1.0000   0.0000   0.0000   0.0000   0.0000

          k =-0.0295 0.5009-0.0295 (   391 PWs)   bands (ev):

    -3.6102   5.3672   7.6270   7.7831  17.5429  20.6027  27.7379  27.7677

     occupation numbers 
     1.0000   1.0000   1.0000   1.0000   0.0000   0.0000   0.0000   0.0000

          k =-0.0589 0.5303-0.0589 (   397 PWs)   bands (ev):

    -2.9977   4.5994   7.0720   7.6593  17.8825  20.5078  28.0273  28.1047

     occupation numbers 
     1.0000   1.0000   1.0000   1.0000   0.0000   0.0000   0.0000   0.0000

          k =-0.0884 0.5598-0.0884 (   394 PWs)   bands (ev):

    -2.3115   3.8298   6.3768   7.6183  18.2627  20.8316  28.1225  28.3136

     occupation numbers 
     1.0000   1.0000   1.0000   1.0000   0.0000   0.0000   0.0000   0.0000

          k = 0.5893-0.1179 0.5893 (   392 PWs)   bands (ev):

    -1.5680   3.0694   5.6420   7.6606  18.5478  21.6146  28.0340  28.4246

     occupation numbers 
     1.0000   1.0000   1.0000   1.0000   0.0000   0.0000   0.0000   0.0000

          k = 0.5598-0.0884 0.5598 (   392 PWs)   bands (ev):

    -0.8096   2.3453   4.9560   7.7850  18.7714  22.7408  27.7775  28.4647

     occupation numbers 
     1.0000   1.0000   1.0000   1.0000   0.0000   0.0000   0.0000   0.0000

          k = 0.5303-0.0589 0.5303 (   392 PWs)   bands (ev):

    -0.1931   1.7956   4.3856   7.9887  19.0062  24.0643  27.3680  28.4520

     occupation numbers 
     1.0000   1.0000   1.0000   1.0000   0.0000   0.0000   0.0000   0.0000

          k = 0.5009-0.0295 0.5009 (   395 PWs)   bands (ev):

    -0.1811   1.8483   3.9948   8.2665  19.2891  25.4632  26.8164  28.3859

     occupation numbers 
     1.0000   1.0000   1.0000   1.0000   0.0000   0.0000   0.0000   0.0000

          k = 0.4714-0.0000 0.4714 (   403 PWs)   bands (ev):

    -0.7524   2.3506   3.9307   8.6106  19.6304  26.1350  26.7618  28.1948

     occupation numbers 
     1.0000   1.0000   1.0000   1.0000   0.0000   0.0000   0.0000   0.0000

          k = 0.0000 0.5303 0.0000 (   387 PWs)   bands (ev):

    -3.1114   4.7006   7.5448   7.5594  17.4087  20.0051  28.3261  28.3482

     occupation numbers 
     1.0000   1.0000   1.0000   1.0000   0.0000   0.0000   0.0000   0.0000

          k =-0.0295 0.5598-0.0295 (   394 PWs)   bands (ev):

    -2.5306   3.9870   7.2292   7.4154  17.5709  19.6920  28.7153  28.7570

     occupation numbers 
     1.0000   1.0000   1.0000   1.0000   0.0000   0.0000   0.0000   0.0000

          k =-0.0589 0.5893-0.0589 (   396 PWs)   bands (ev):

    -1.8747   3.2860   6.6692   7.3543  17.9303  19.7337  28.8901  29.0089

     occupation numbers 
     1.0000   1.0000   1.0000   1.0000   0.0000   0.0000   0.0000   0.0000

          k = 0.6187-0.0884 0.6187 (   395 PWs)   bands (ev):

    -1.1565   2.6203   5.9496   7.3772  18.2562  20.2709  28.8510  29.1301

     occupation numbers 
     1.0000   1.0000   1.0000   1.0000   0.0000   0.0000   0.0000   0.0000

          k = 0.5893-0.0589 0.5893 (   392 PWs)   bands (ev):

    -0.4073   2.0066   5.1801   7.4834  18.4792  21.2724  28.6088  29.1433

     occupation numbers 
     1.0000   1.0000   1.0000   1.0000   0.0000   0.0000   0.0000   0.0000

          k = 0.5598-0.0295 0.5598 (   392 PWs)   bands (ev):

     0.2531   1.5214   4.4748   7.6705  18.6948  22.5565  28.1775  29.0545

     occupation numbers 
     1.0000   1.0000   1.0000   1.0000   0.0000   0.0000   0.0000   0.0000

          k = 0.5303 0.0000 0.5303 (   391 PWs)   bands (ev):

     0.3221   1.5574   3.9888   7.9339  18.9596  23.9892  27.5729  28.8325

     occupation numbers 
     1.0000   1.0000   1.0000   1.0000   0.0000   0.0000   0.0000   0.0000

          k = 0.0000 0.5893 0.0000 (   392 PWs)   bands (ev):

    -1.9816   3.2881   7.2364   7.2504  17.4938  19.1771  29.2004  29.2246

     occupation numbers 
     1.0000   1.0000   1.0000   1.0000   0.0000   0.0000   0.0000   0.0000

          k =-0.0295 0.6187-0.0295 (   394 PWs)   bands (ev):

    -1.3564   2.5949   6.9670   7.1681  17.7084  18.9623  29.4562  29.5102

     occupation numbers 
     1.0000   1.0000   1.0000   1.0000   0.0000   0.0000   0.0000   0.0000

          k = 0.6482-0.0589 0.6482 (   392 PWs)   bands (ev):

    -0.6657   1.9419   6.4392   7.1699  18.0539  19.1730  29.4734  29.6312

     occupation numbers 
     1.0000   1.0000   1.0000   1.0000   0.0000   0.0000   0.0000   0.0000

          k = 0.6187-0.0295 0.6187 (   391 PWs)   bands (ev):

     0.0665   1.3488   5.7524   7.2559  18.2735  19.9695  29.2561  29.6027

     occupation numbers 
     1.0000   1.0000   1.0000   1.0000   0.0000   0.0000   0.0000   0.0000

          k = 0.5893-0.0000 0.5893 (   389 PWs)   bands (ev):

     0.6323   0.9872   5.0368   7.4241  18.4569  21.1576  28.8172  29.4215

     occupation numbers 
     1.0000   1.0000   1.0000   1.0000   0.0000   0.0000   0.0000   0.0000

          k = 0.0000 0.6482 0.0000 (   392 PWs)   bands (ev):

    -0.7619   1.8915   7.0501   7.0638  17.6983  18.5254  29.7863  29.8124

     occupation numbers 
     1.0000   1.0000   1.0000   1.0000   0.0000   0.0000   0.0000   0.0000

          k = 0.6776-0.0295 0.6776 (   388 PWs)   bands (ev):

    -0.0996   1.2242   6.8365   7.0437  17.9606  18.4137  29.8624  29.9251

     occupation numbers 
     1.0000   1.0000   1.0000   1.0000   0.0000   0.0000   0.0000   0.0000

          k = 0.6482 0.0000 0.6482 (   392 PWs)   bands (ev):

     0.5842   0.6438   6.3642   7.1082  18.1479  18.9332  29.6819  29.8568

     occupation numbers 
     1.0000   1.0000   1.0000   1.0000   0.0000   0.0000   0.0000   0.0000

          k = 0.0000-0.7071 0.0000 (   388 PWs)   bands (ev):

     0.5291   0.5403   6.9877   7.0014  18.0307  18.0439  29.9946  30.0213

     occupation numbers 
     1.0000   1.0000   1.0000   1.0000   0.0000   0.0000   0.0000   0.0000

          k =-0.0589 0.1179 0.0000 (   385 PWs)   bands (ev):

    -7.8285  11.8485  12.1304  12.9024  18.9279  19.9701  20.1177  26.6953

     occupation numbers 
     1.0000   1.0000   1.0000   1.0000   0.0000   0.0000   0.0000   0.0000

          k =-0.0884 0.1473-0.0295 (   380 PWs)   bands (ev):

    -7.5898  10.7989  11.6699  12.7202  19.1792  20.4815  20.6700  26.8072

     occupation numbers 
     1.0000   1.0000   1.0000   1.0000   0.0000   0.0000   0.0000   0.0000

          k =-0.1179 0.1768-0.0589 (   379 PWs)   bands (ev):

    -7.2567   9.5205  11.2690  12.4302  19.5748  21.0132  21.1546  26.9567

     occupation numbers 
     1.0000   1.0000   1.0000   1.0000   0.0000   0.0000   0.0000   0.0000

          k =-0.1473 0.2062-0.0884 (   383 PWs)   bands (ev):

    -6.8306   8.1523  10.9080  12.0780  20.0310  21.4980  21.5381  27.1457

     occupation numbers 
     1.0000   1.0000   1.0000   1.0000   0.0000   0.0000   0.0000   0.0000

          k =-0.1768 0.2357-0.1179 (   384 PWs)   bands (ev):

    -6.3132   6.7552  10.5973  11.7049  20.4736  21.8144  21.8927  27.3844

     occupation numbers 
     1.0000   1.0000   1.0000   1.0000   0.0000   0.0000   0.0000   0.0000

          k =-0.2062 0.2652-0.1473 (   388 PWs)   bands (ev):

    -5.7078   5.3668  10.3445  11.3401  20.8513  21.9892  22.1816  27.6811

     occupation numbers 
     1.0000   1.0000   1.0000   1.0000   0.0000   0.0000   0.0000   0.0000

          k =-0.2357 0.2946-0.1768 (   389 PWs)   bands (ev):

    -5.0196   4.0152  10.1539  11.0034  21.1419  22.0709  22.3773  28.0227

     occupation numbers 
     1.0000   1.0000   1.0000   1.0000   0.0000   0.0000   0.0000   0.0000

          k =-0.2652 0.3241-0.2062 (   394 PWs)   bands (ev):

    -4.2594   2.7259  10.0264  10.7091  21.3491  22.0769  22.5046  28.3678

     occupation numbers 
     1.0000   1.0000   1.0000   1.0000   0.0000   0.0000   0.0000   0.0000

          k =-0.2946 0.3536-0.2357 (   393 PWs)   bands (ev):

    -3.4526   1.5349   9.9587  10.4702  21.4898  22.0364  22.5844  28.6607

     occupation numbers 
     1.0000   1.0000   1.0000   1.0000   0.0000   0.0000   0.0000   0.0000

          k = 0.3830-0.3241 0.4419 (   393 PWs)   bands (ev):

    -2.6836   0.5328   9.9381  10.3051  21.5753  21.9869  22.6291  28.8543

     occupation numbers 
     1.0000   1.0000   1.0000   1.0000   0.0000   0.0000   0.0000   0.0000

          k = 0.3536-0.2946 0.4125 (   394 PWs)   bands (ev):

    -2.2841   0.0552   9.9316  10.2499  21.5971  21.9714  22.6446  28.9223

     occupation numbers 
     1.0000   1.0000   1.0000   1.0000   0.0000   0.0000   0.0000   0.0000

          k =-0.0589 0.1768 0.0000 (   383 PWs)   bands (ev):

    -7.5102  10.9984  11.3337  12.3135  18.7224  21.0397  21.0832  26.6027

     occupation numbers 
     1.0000   1.0000   1.0000   1.0000   0.0000   0.0000   0.0000   0.0000

          k =-0.0884 0.2062-0.0295 (   381 PWs)   bands (ev):

    -7.2090   9.9153  10.8608  12.1092  18.9667  21.5940  21.6064  26.5560

     occupation numbers 
     1.0000   1.0000   1.0000   1.0000   0.0000   0.0000   0.0000   0.0000

          k =-0.1179 0.2357-0.0589 (   382 PWs)   bands (ev):

    -6.8144   8.6314  10.4837  11.8084  19.3610  22.0084  22.1332  26.5372

     occupation numbers 
     1.0000   1.0000   1.0000   1.0000   0.0000   0.0000   0.0000   0.0000

          k =-0.1473 0.2652-0.0884 (   385 PWs)   bands (ev):

    -6.3281   7.2796  10.1654  11.4478  19.8122  22.3082  22.5765  26.5953

     occupation numbers 
     1.0000   1.0000   1.0000   1.0000   0.0000   0.0000   0.0000   0.0000

          k =-0.1768 0.2946-0.1179 (   388 PWs)   bands (ev):

    -5.7528   5.9137   9.9083  11.0679  20.2390  22.4985  22.9094  26.7826

     occupation numbers 
     1.0000   1.0000   1.0000   1.0000   0.0000   0.0000   0.0000   0.0000

          k =-0.2062 0.3241-0.1473 (   389 PWs)   bands (ev):

    -5.0930   4.5680   9.7136  10.7002  20.5907  22.5888  23.1349  27.1209

     occupation numbers 
     1.0000   1.0000   1.0000   1.0000   0.0000   0.0000   0.0000   0.0000

          k =-0.2357 0.3536-0.1768 (   390 PWs)   bands (ev):

    -4.3570   3.2706   9.5774  10.3709  20.8551  22.5942  23.2757  27.5796

     occupation numbers 
     1.0000   1.0000   1.0000   1.0000   0.0000   0.0000   0.0000   0.0000

          k =-0.2652 0.3830-0.2062 (   391 PWs)   bands (ev):

    -3.5638   2.0533   9.4846  10.1099  21.0510  22.5358  23.3569  28.0814

     occupation numbers 
     1.0000   1.0000   1.0000   1.0000   0.0000   0.0000   0.0000   0.0000

          k = 0.4125-0.2946 0.4714 (   389 PWs)   bands (ev):

    -2.7682   0.9796   9.4012   9.9601  21.2078  22.4359  23.3962  28.5228

     occupation numbers 
     1.0000   1.0000   1.0000   1.0000   0.0000   0.0000   0.0000   0.0000

          k = 0.3830-0.2652 0.4419 (   392 PWs)   bands (ev):

    -2.1851   0.2694   9.3000   9.9541  21.3484  22.3140  23.4035  28.8001

     occupation numbers 
     1.0000   1.0000   1.0000   1.0000   0.0000   0.0000   0.0000   0.0000

          k = 0.3536-0.2357 0.4125 (   392 PWs)   bands (ev):

    -2.3272   0.4377   9.2051  10.0704  21.4787  22.1860  23.3827  28.8425

     occupation numbers 
     1.0000   1.0000   1.0000   1.0000   0.0000   0.0000   0.0000   0.0000

          k = 0.3241-0.2062 0.3830 (   394 PWs)   bands (ev):

    -3.0277   1.3172   9.1501  10.2747  21.5725  22.0756  23.3326  28.6456

     occupation numbers 
     1.0000   1.0000   1.0000   1.0000   0.0000   0.0000   0.0000   0.0000

          k = 0.2946-0.1768 0.3536 (   393 PWs)   bands (ev):

    -3.8335   2.4519   9.1530  10.5462  21.5472  22.0390  23.2466  28.2748

     occupation numbers 
     1.0000   1.0000   1.0000   1.0000   0.0000   0.0000   0.0000   0.0000

          k = 0.2652-0.1473 0.3241 (   393 PWs)   bands (ev):

    -4.6108   3.7015   9.2217  10.8706  21.3585  22.0762  23.1105  27.8323

     occupation numbers 
     1.0000   1.0000   1.0000   1.0000   0.0000   0.0000   0.0000   0.0000

          k = 0.2357-0.1179 0.2946 (   391 PWs)   bands (ev):

    -5.3225   5.0189   9.3600  11.2340  21.0498  22.0946  22.8999  27.4217

     occupation numbers 
     1.0000   1.0000   1.0000   1.0000   0.0000   0.0000   0.0000   0.0000

          k = 0.2062-0.0884 0.2652 (   386 PWs)   bands (ev):

    -5.9546   6.3742   9.5694  11.6189  20.6502  22.0338  22.5856  27.1180

     occupation numbers 
     1.0000   1.0000   1.0000   1.0000   0.0000   0.0000   0.0000   0.0000

          k = 0.1768-0.0589 0.2357 (   384 PWs)   bands (ev):

    -6.5006   7.7349   9.8519  12.0014  20.1948  21.8654  22.1539  26.9440

     occupation numbers 
     1.0000   1.0000   1.0000   1.0000   0.0000   0.0000   0.0000   0.0000

          k = 0.1473-0.0295 0.2062 (   382 PWs)   bands (ev):

    -6.9564   9.0469  10.2196  12.3478  19.7423  21.5741  21.6279  26.8676

     occupation numbers 
     1.0000   1.0000   1.0000   1.0000   0.0000   0.0000   0.0000   0.0000

          k = 0.1179-0.0000 0.1768 (   382 PWs)   bands (ev):

    -7.3200  10.1484  10.7710  12.6133  19.3709  21.0490  21.1705  26.8356

     occupation numbers 
     1.0000   1.0000   1.0000   1.0000   0.0000   0.0000   0.0000   0.0000

          k =-0.0589 0.2357 0.0000 (   385 PWs)   bands (ev):

    -7.0664  10.1094  10.5014  11.4976  18.4761  22.1995  22.2565  26.0412

     occupation numbers 
     1.0000   1.0000   1.0000   1.0000   0.0000   0.0000   0.0000   0.0000

          k =-0.0884 0.2652-0.0295 (   384 PWs)   bands (ev):

    -6.7036   9.0334  10.0454  11.2678  18.7215  22.6617  22.8403  25.7733

     occupation numbers 
     1.0000   1.0000   1.0000   1.0000   0.0000   0.0000   0.0000   0.0000

          k =-0.1179 0.2946-0.0589 (   385 PWs)   bands (ev):

    -6.2488   7.7764   9.7052  10.9472  19.1193  23.0025  23.3474  25.6098

     occupation numbers 
     1.0000   1.0000   1.0000   1.0000   0.0000   0.0000   0.0000   0.0000

          k =-0.1473 0.3241-0.0884 (   390 PWs)   bands (ev):

    -5.7045   6.4650   9.4323  10.5729  19.5646  23.2221  23.7408  25.6310

     occupation numbers 
     1.0000   1.0000   1.0000   1.0000   0.0000   0.0000   0.0000   0.0000

          k =-0.1768 0.3536-0.1179 (   390 PWs)   bands (ev):

    -5.0743   5.1490   9.2192  10.1912  19.9689  23.3294  24.0140  25.8889

     occupation numbers 
     1.0000   1.0000   1.0000   1.0000   0.0000   0.0000   0.0000   0.0000

          k =-0.2062 0.3830-0.1473 (   391 PWs)   bands (ev):

    -4.3652   3.8621   9.0513   9.8481  20.2877  23.3415  24.1880  26.3755

     occupation numbers 
     1.0000   1.0000   1.0000   1.0000   0.0000   0.0000   0.0000   0.0000

          k =-0.2357 0.4125-0.1768 (   393 PWs)   bands (ev):

    -3.5915   2.6361   8.8945   9.5993  20.5270  23.2795  24.2874  27.0264

     occupation numbers 
     1.0000   1.0000   1.0000   1.0000   0.0000   0.0000   0.0000   0.0000

          k = 0.4419-0.2652 0.5009 (   388 PWs)   bands (ev):

    -2.7906   1.5204   8.7103   9.4973  20.7214  23.1627  24.3313  27.7347

     occupation numbers 
     1.0000   1.0000   1.0000   1.0000   0.0000   0.0000   0.0000   0.0000

          k = 0.4125-0.2357 0.4714 (   391 PWs)   bands (ev):

    -2.0976   0.6570   8.5109   9.5384  20.9051  23.0057  24.3337  28.3525

     occupation numbers 
     1.0000   1.0000   1.0000   1.0000   0.0000   0.0000   0.0000   0.0000

          k = 0.3830-0.2062 0.4419 (   394 PWs)   bands (ev):

    -1.9608   0.4981   8.3363   9.6872  21.0997  22.8174  24.3025  28.6946

     occupation numbers 
     1.0000   1.0000   1.0000   1.0000   0.0000   0.0000   0.0000   0.0000

          k = 0.3536-0.1768 0.4125 (   390 PWs)   bands (ev):

    -2.5390   1.2032   8.2125   9.9182  21.3102  22.5991  24.2396  28.6303

     occupation numbers 
     1.0000   1.0000   1.0000   1.0000   0.0000   0.0000   0.0000   0.0000

          k = 0.3241-0.1473 0.3830 (   392 PWs)   bands (ev):

    -3.3284   2.2657   8.1529  10.2155  21.5227  22.3467  24.1393  28.2312

     occupation numbers 
     1.0000   1.0000   1.0000   1.0000   0.0000   0.0000   0.0000   0.0000

          k = 0.2946-0.1179 0.3536 (   391 PWs)   bands (ev):

    -4.1166   3.4673   8.1652  10.5655  21.6758  22.0850  23.9853  27.6928

     occupation numbers 
     1.0000   1.0000   1.0000   1.0000   0.0000   0.0000   0.0000   0.0000

          k = 0.2652-0.0884 0.3241 (   394 PWs)   bands (ev):

    -4.8487   4.7413   8.2552  10.9525  21.5069  22.0298  23.7449  27.1918

     occupation numbers 
     1.0000   1.0000   1.0000   1.0000   0.0000   0.0000   0.0000   0.0000

          k = 0.2357-0.0589 0.2946 (   387 PWs)   bands (ev):

    -5.5055   6.0481   8.4304  11.3565  21.0777  22.0848  23.3767  26.8539

     occupation numbers 
     1.0000   1.0000   1.0000   1.0000   0.0000   0.0000   0.0000   0.0000

          k = 0.2062-0.0295 0.2652 (   384 PWs)   bands (ev):

    -6.0785   7.3316   8.7161  11.7500  20.5857  22.0505  22.8673  26.7255

     occupation numbers 
     1.0000   1.0000   1.0000   1.0000   0.0000   0.0000   0.0000   0.0000

          k = 0.1768 0.0000 0.2357 (   383 PWs)   bands (ev):

    -6.5631   8.4155   9.2484  12.0951  20.1139  21.8846  22.2579  26.7605

     occupation numbers 
     1.0000   1.0000   1.0000   1.0000   0.0000   0.0000   0.0000   0.0000

          k =-0.0589 0.2946-0.0000 (   389 PWs)   bands (ev):

    -6.4986   9.2083   9.7021  10.5466  18.2242  23.3968  23.5311  24.9804

     occupation numbers 
     1.0000   1.0000   1.0000   1.0000   0.0000   0.0000   0.0000   0.0000

          k =-0.0884 0.3241-0.0295 (   387 PWs)   bands (ev):

    -6.0757   8.1664   9.2709  10.2919  18.4818  23.8003  24.1147  24.6035

     occupation numbers 
     1.0000   1.0000   1.0000   1.0000   0.0000   0.0000   0.0000   0.0000

          k =-0.1179 0.3536-0.0589 (   389 PWs)   bands (ev):

    -5.5629   6.9635   8.9616   9.9499  18.8879  24.0670  24.3748  24.6508

     occupation numbers 
     1.0000   1.0000   1.0000   1.0000   0.0000   0.0000   0.0000   0.0000

          k =-0.1473 0.3830-0.0884 (   391 PWs)   bands (ev):

    -4.9633   5.7147   8.7099   9.5768  19.3233  24.1864  24.4903  25.0124

     occupation numbers 
     1.0000   1.0000   1.0000   1.0000   0.0000   0.0000   0.0000   0.0000

          k =-0.1768 0.4125-0.1179 (   392 PWs)   bands (ev):

    -4.2828   4.4669   8.4781   9.2492  19.6959  24.2222  24.8330  25.3088

     occupation numbers 
     1.0000   1.0000   1.0000   1.0000   0.0000   0.0000   0.0000   0.0000

          k =-0.2062 0.4419-0.1473 (   392 PWs)   bands (ev):

    -3.5327   3.2562   8.2179   9.0460  19.9785  24.1835  25.1908  25.7524

     occupation numbers 
     1.0000   1.0000   1.0000   1.0000   0.0000   0.0000   0.0000   0.0000

          k = 0.4714-0.2357 0.5303 (   389 PWs)   bands (ev):

    -2.7397   2.1258   7.9228   8.9947  20.2005  24.0739  25.3179  26.5366

     occupation numbers 
     1.0000   1.0000   1.0000   1.0000   0.0000   0.0000   0.0000   0.0000

          k = 0.4419-0.2062 0.5009 (   390 PWs)   bands (ev):

    -1.9902   1.1728   7.6336   9.0670  20.4062  23.9059  25.3381  27.4281

     occupation numbers 
     1.0000   1.0000   1.0000   1.0000   0.0000   0.0000   0.0000   0.0000

          k = 0.4125-0.1768 0.4714 (   393 PWs)   bands (ev):

    -1.6109   0.7299   7.3849   9.2354  20.6268  23.6882  25.3055  28.1916

     occupation numbers 
     1.0000   1.0000   1.0000   1.0000   0.0000   0.0000   0.0000   0.0000

          k = 0.3830-0.1473 0.4419 (   390 PWs)   bands (ev):

    -2.0015   1.1990   7.1959   9.4831  20.8765  23.4215  25.2349  28.5091

     occupation numbers 
     1.0000   1.0000   1.0000   1.0000   0.0000   0.0000   0.0000   0.0000

          k = 0.3536-0.1179 0.4125 (   392 PWs)   bands (ev):

    -2.7512   2.1674   7.0781   9.7976  21.1536  23.0973  25.1262  28.2250

     occupation numbers 
     1.0000   1.0000   1.0000   1.0000   0.0000   0.0000   0.0000   0.0000

          k = 0.3241-0.0884 0.3830 (   392 PWs)   bands (ev):

    -3.5420   3.3096   7.0403  10.1655  21.4426  22.7029  24.9613  27.6302

     occupation numbers 
     1.0000   1.0000   1.0000   1.0000   0.0000   0.0000   0.0000   0.0000

          k = 0.2946-0.0589 0.3536 (   393 PWs)   bands (ev):

    -4.2899   4.5250   7.0942  10.5707  21.7085  22.2371  24.6878  27.0480

     occupation numbers 
     1.0000   1.0000   1.0000   1.0000   0.0000   0.0000   0.0000   0.0000

          k = 0.2652-0.0295 0.3241 (   392 PWs)   bands (ev):

    -4.9686   5.7418   7.2729  10.9915  21.6473  21.9766  24.2315  26.6850

     occupation numbers 
     1.0000   1.0000   1.0000   1.0000   0.0000   0.0000   0.0000   0.0000

          k = 0.2357-0.0000 0.2946 (   389 PWs)   bands (ev):

    -5.5667   6.7669   7.7372  11.3979  21.1035  22.0741  23.5933  26.6014

     occupation numbers 
     1.0000   1.0000   1.0000   1.0000   0.0000   0.0000   0.0000   0.0000

          k =-0.0589 0.3536 0.0000 (   391 PWs)   bands (ev):

    -5.8095   8.2669   8.9727   9.5675  17.9963  23.6851  24.6204  24.8197

     occupation numbers 
     1.0000   1.0000   1.0000   1.0000   0.0000   0.0000   0.0000   0.0000

          k =-0.0884 0.3830-0.0295 (   392 PWs)   bands (ev):

    -5.3285   7.2881   8.5559   9.2920  18.2756  23.3159  24.9645  25.3985

     occupation numbers 
     1.0000   1.0000   1.0000   1.0000   0.0000   0.0000   0.0000   0.0000

          k =-0.1179 0.4125-0.0589 (   394 PWs)   bands (ev):

    -4.7604   6.1741   8.2295   8.9571  18.6918  23.2166  25.1737  25.8468

     occupation numbers 
     1.0000   1.0000   1.0000   1.0000   0.0000   0.0000   0.0000   0.0000

          k =-0.1473 0.4419-0.0884 (   395 PWs)   bands (ev):

    -4.1098   5.0162   7.8953   8.6736  19.1091  23.4498  25.2651  26.1573

     occupation numbers 
     1.0000   1.0000   1.0000   1.0000   0.0000   0.0000   0.0000   0.0000

          k =-0.1768 0.4714-0.1179 (   393 PWs)   bands (ev):

    -3.3861   3.8609   7.5128   8.5225  19.4413  24.0266  25.2630  26.3449

     occupation numbers 
     1.0000   1.0000   1.0000   1.0000   0.0000   0.0000   0.0000   0.0000

          k = 0.5009-0.2062 0.5598 (   395 PWs)   bands (ev):

    -2.6092   2.7516   7.1128   8.5025  19.6917  24.8015  25.2557  26.4433

     occupation numbers 
     1.0000   1.0000   1.0000   1.0000   0.0000   0.0000   0.0000   0.0000

          k = 0.4714-0.1768 0.5303 (   394 PWs)   bands (ev):

    -1.8366   1.7619   6.7388   8.5889  19.9106  24.9136  25.9282  26.5513

     occupation numbers 
     1.0000   1.0000   1.0000   1.0000   0.0000   0.0000   0.0000   0.0000

          k = 0.4419-0.1473 0.5009 (   396 PWs)   bands (ev):

    -1.2852   1.1188   6.4175   8.7650  20.1415  24.6944  26.2679  27.2346

     occupation numbers 
     1.0000   1.0000   1.0000   1.0000   0.0000   0.0000   0.0000   0.0000

          k = 0.4125-0.1179 0.4714 (   394 PWs)   bands (ev):

    -1.4361   1.3080   6.1652   9.0195  20.4070  24.3900  26.2299  28.0486

     occupation numbers 
     1.0000   1.0000   1.0000   1.0000   0.0000   0.0000   0.0000   0.0000

          k = 0.3830-0.0884 0.4419 (   393 PWs)   bands (ev):

    -2.1130   2.1514   5.9936   9.3420  20.7120  24.0026  26.1302  28.1802

     occupation numbers 
     1.0000   1.0000   1.0000   1.0000   0.0000   0.0000   0.0000   0.0000

          k = 0.3536-0.0589 0.4125 (   395 PWs)   bands (ev):

    -2.8943   3.2154   5.9173   9.7200  21.0479  23.5224  25.9763  27.6293

     occupation numbers 
     1.0000   1.0000   1.0000   1.0000   0.0000   0.0000   0.0000   0.0000

          k = 0.3241-0.0295 0.3830 (   395 PWs)   bands (ev):

    -3.6519   4.3288   5.9749  10.1373  21.3933  22.9503  25.6733  26.9986

     occupation numbers 
     1.0000   1.0000   1.0000   1.0000   0.0000   0.0000   0.0000   0.0000

          k = 0.2946-0.0000 0.3536 (   395 PWs)   bands (ev):

    -4.3482   5.2679   6.3414  10.5717  21.7125  22.3129  25.0579  26.6869

     occupation numbers 
     1.0000   1.0000   1.0000   1.0000   0.0000   0.0000   0.0000   0.0000

          k =-0.0589 0.4125-0.0000 (   395 PWs)   bands (ev):

    -5.0024   7.2071   8.3344   8.6936  17.8174  22.3961  25.8324  26.0812

     occupation numbers 
     1.0000   1.0000   1.0000   1.0000   0.0000   0.0000   0.0000   0.0000

          k =-0.0884 0.4419-0.0295 (   395 PWs)   bands (ev):

    -4.4661   6.3251   7.8975   8.4179  18.1256  22.1103  26.1172  26.6292

     occupation numbers 
     1.0000   1.0000   1.0000   1.0000   0.0000   0.0000   0.0000   0.0000

          k =-0.1179 0.4714-0.0589 (   395 PWs)   bands (ev):

    -3.8466   5.3466   7.4331   8.1802  18.5491  22.1482  26.2648  27.0235

     occupation numbers 
     1.0000   1.0000   1.0000   1.0000   0.0000   0.0000   0.0000   0.0000

          k =-0.1473 0.5009-0.0884 (   394 PWs)   bands (ev):

    -3.1513   4.3244   6.9148   8.0596  18.9353  22.5785  26.2939  27.2674

     occupation numbers 
     1.0000   1.0000   1.0000   1.0000   0.0000   0.0000   0.0000   0.0000

          k = 0.5303-0.1768 0.5893 (   394 PWs)   bands (ev):

    -2.3959   3.3013   6.3961   8.0505  19.2226  23.3861  26.2218  27.3837

     occupation numbers 
     1.0000   1.0000   1.0000   1.0000   0.0000   0.0000   0.0000   0.0000

          k = 0.5009-0.1473 0.5598 (   394 PWs)   bands (ev):

    -1.6203   2.3391   5.9211   8.1381  19.4529  24.4563  26.0624  27.4064

     occupation numbers 
     1.0000   1.0000   1.0000   1.0000   0.0000   0.0000   0.0000   0.0000

          k = 0.4714-0.1179 0.5303 (   393 PWs)   bands (ev):

    -0.9654   1.5946   5.5148   8.3125  19.6852  25.5607  25.9039  27.3787

     occupation numbers 
     1.0000   1.0000   1.0000   1.0000   0.0000   0.0000   0.0000   0.0000

          k = 0.4419-0.0884 0.5009 (   395 PWs)   bands (ev):

    -0.8680   1.5129   5.1931   8.5657  19.9529  25.4156  26.7668  27.4301

     occupation numbers 
     1.0000   1.0000   1.0000   1.0000   0.0000   0.0000   0.0000   0.0000

          k = 0.4125-0.0589 0.4714 (   394 PWs)   bands (ev):

    -1.4308   2.1928   4.9731   8.8886  20.2676  24.9597  27.0164  27.8928

     occupation numbers 
     1.0000   1.0000   1.0000   1.0000   0.0000   0.0000   0.0000   0.0000

          k = 0.3830-0.0295 0.4419 (   394 PWs)   bands (ev):

    -2.1862   3.1292   4.8965   9.2698  20.6260  24.3792  26.9385  27.6555

     occupation numbers 
     1.0000   1.0000   1.0000   1.0000   0.0000   0.0000   0.0000   0.0000

          k = 0.3536-0.0000 0.4125 (   395 PWs)   bands (ev):

    -2.9441   3.9519   5.1406   9.6937  21.0123  23.6924  26.5935  27.0813

     occupation numbers 
     1.0000   1.0000   1.0000   1.0000   0.0000   0.0000   0.0000   0.0000

          k =-0.0589 0.4714-0.0000 (   391 PWs)   bands (ev):

    -4.0820   5.9911   7.8007   8.0075  17.7083  21.2311  26.9960  27.2732

     occupation numbers 
     1.0000   1.0000   1.0000   1.0000   0.0000   0.0000   0.0000   0.0000

          k =-0.0884 0.5009-0.0295 (   395 PWs)   bands (ev):

    -3.4941   5.2059   7.3104   7.7837  18.0500  21.0563  27.2195  27.7626

     occupation numbers 
     1.0000   1.0000   1.0000   1.0000   0.0000   0.0000   0.0000   0.0000

          k =-0.1179 0.5303-0.0589 (   393 PWs)   bands (ev):

    -2.8288   4.3833   6.6797   7.6693  18.4708  21.2567  27.3059  28.0763

     occupation numbers 
     1.0000   1.0000   1.0000   1.0000   0.0000   0.0000   0.0000   0.0000

          k = 0.5598-0.1473 0.6187 (   395 PWs)   bands (ev):

    -2.0985   3.5416   6.0069   7.6571  18.8087  21.9019  27.2715  28.2274

     occupation numbers 
     1.0000   1.0000   1.0000   1.0000   0.0000   0.0000   0.0000   0.0000

          k = 0.5303-0.1179 0.5893 (   395 PWs)   bands (ev):

    -1.3323   2.7100   5.3748   7.7371  19.0545  22.9206  27.1238  28.2476

     occupation numbers 
     1.0000   1.0000   1.0000   1.0000   0.0000   0.0000   0.0000   0.0000

          k = 0.5009-0.0884 0.5598 (   392 PWs)   bands (ev):

    -0.6237   1.9856   4.8338   7.9030  19.2825  24.1657  26.8577  28.1777

     occupation numbers 
     1.0000   1.0000   1.0000   1.0000   0.0000   0.0000   0.0000   0.0000

          k = 0.4714-0.0589 0.5303 (   394 PWs)   bands (ev):

    -0.3193   1.7167   4.4150   8.1486  19.5430  25.4974  26.4636  28.0579

     occupation numbers 
     1.0000   1.0000   1.0000   1.0000   0.0000   0.0000   0.0000   0.0000

          k = 0.4419-0.0295 0.5009 (   395 PWs)   bands (ev):

    -0.7353   2.1936   4.1631   8.4661  19.8554  25.8781  26.7856  27.9122

     occupation numbers 
     1.0000   1.0000   1.0000   1.0000   0.0000   0.0000   0.0000   0.0000

          k = 0.4125-0.0000 0.4714 (   395 PWs)   bands (ev):

    -1.4432   2.8375   4.2362   8.8451  20.2205  25.1870  27.5084  27.6681

     occupation numbers 
     1.0000   1.0000   1.0000   1.0000   0.0000   0.0000   0.0000   0.0000

          k =-0.0589 0.5303 0.0000 (   397 PWs)   bands (ev):

    -3.0545   4.6664   7.3804   7.5007  17.6867  20.2355  28.0626  28.3375

     occupation numbers 
     1.0000   1.0000   1.0000   1.0000   0.0000   0.0000   0.0000   0.0000

          k =-0.0884 0.5598-0.0295 (   395 PWs)   bands (ev):

    -2.4202   3.9491   6.8554   7.3583  18.0629  20.1817  28.2182  28.7249

     occupation numbers 
     1.0000   1.0000   1.0000   1.0000   0.0000   0.0000   0.0000   0.0000

          k = 0.5893-0.1179 0.6482 (   396 PWs)   bands (ev):

    -1.7175   3.2462   6.1480   7.3340  18.4572  20.5694  28.2336  28.9123

     occupation numbers 
     1.0000   1.0000   1.0000   1.0000   0.0000   0.0000   0.0000   0.0000

          k = 0.5598-0.0884 0.6187 (   396 PWs)   bands (ev):

    -0.9684   2.5714   5.3887   7.4007  18.7293  21.4411  28.1118  28.9259

     occupation numbers 
     1.0000   1.0000   1.0000   1.0000   0.0000   0.0000   0.0000   0.0000

          k = 0.5303-0.0589 0.5893 (   394 PWs)   bands (ev):

    -0.2381   1.9637   4.6794   7.5533  18.9486  22.6426  27.8347  28.8122

     occupation numbers 
     1.0000   1.0000   1.0000   1.0000   0.0000   0.0000   0.0000   0.0000

          k = 0.5009-0.0295 0.5598 (   392 PWs)   bands (ev):

     0.1964   1.6483   4.1198   7.7868  19.1939  24.0190  27.3735  28.6156

     occupation numbers 
     1.0000   1.0000   1.0000   1.0000   0.0000   0.0000   0.0000   0.0000

          k = 0.4714 0.0000 0.5303 (   391 PWs)   bands (ev):

    -0.0993   1.9360   3.8618   8.0946  19.4948  25.4478  26.7229  28.3374

     occupation numbers 
     1.0000   1.0000   1.0000   1.0000   0.0000   0.0000   0.0000   0.0000

          k =-0.0589 0.5893-0.0000 (   394 PWs)   bands (ev):

    -1.9281   3.2942   7.0796   7.1477  17.7685  19.4198  28.9634  29.1933

     occupation numbers 
     1.0000   1.0000   1.0000   1.0000   0.0000   0.0000   0.0000   0.0000

          k = 0.6187-0.0884 0.6776 (   398 PWs)   bands (ev):

    -1.2547   2.6247   6.5568   7.0892  18.1705  19.4959  29.0336  29.4158

     occupation numbers 
     1.0000   1.0000   1.0000   1.0000   0.0000   0.0000   0.0000   0.0000

          k = 0.5893-0.0589 0.6482 (   397 PWs)   bands (ev):

    -0.5276   2.0012   5.8511   7.1387  18.4878  20.1167  28.9433  29.4196

     occupation numbers 
     1.0000   1.0000   1.0000   1.0000   0.0000   0.0000   0.0000   0.0000

          k = 0.5598-0.0295 0.6187 (   394 PWs)   bands (ev):

     0.2037   1.4506   5.0999   7.2747  18.6921  21.2074  28.6545  29.2629

     occupation numbers 
     1.0000   1.0000   1.0000   1.0000   0.0000   0.0000   0.0000   0.0000

          k = 0.5303-0.0000 0.5893 (   392 PWs)   bands (ev):

     0.5871   1.2549   4.4440   7.4930  18.9124  22.5505  28.1251  29.0015

     occupation numbers 
     1.0000   1.0000   1.0000   1.0000   0.0000   0.0000   0.0000   0.0000

          k = 0.6482-0.0589 0.7071 (   393 PWs)   bands (ev):

    -0.7135   1.9198   6.9022   6.9349  17.9683  18.7781  29.6043  29.7391

     occupation numbers 
     1.0000   1.0000   1.0000   1.0000   0.0000   0.0000   0.0000   0.0000

          k = 0.6187-0.0295 0.6776 (   395 PWs)   bands (ev):

    -0.0117   1.2919   6.4099   6.9574  18.3408  19.0362  29.5484  29.7372

     occupation numbers 
     1.0000   1.0000   1.0000   1.0000   0.0000   0.0000   0.0000   0.0000

          k = 0.5893-0.0000 0.6482 (   395 PWs)   bands (ev):

     0.6496   0.7985   5.7563   7.0748  18.5105  19.9532  29.2425  29.5624

     occupation numbers 
     1.0000   1.0000   1.0000   1.0000   0.0000   0.0000   0.0000   0.0000

          k =-0.0589-0.7071 0.0000 (   388 PWs)   bands (ev):

     0.5696   0.5811   6.8471   6.8608  18.2928  18.3063  29.8709  29.8970

     occupation numbers 
     1.0000   1.0000   1.0000   1.0000   0.0000   0.0000   0.0000   0.0000

          k =-0.1179 0.2357 0.0000 (   381 PWs)   bands (ev):

    -6.8772   9.2908   9.9606  11.9130  19.1990  22.0292  22.2157  26.3776

     occupation numbers 
     1.0000   1.0000   1.0000   1.0000   0.0000   0.0000   0.0000   0.0000

          k =-0.1473 0.2652-0.0295 (   383 PWs)   bands (ev):

    -6.4529   8.1924   9.4454  11.6179  19.5953  22.3413  22.8025  26.2439

     occupation numbers 
     1.0000   1.0000   1.0000   1.0000   0.0000   0.0000   0.0000   0.0000

          k =-0.1768 0.2946-0.0589 (   385 PWs)   bands (ev):

    -5.9380   6.9045   9.1221  11.2543  20.0629  22.5214  23.3092  26.2402

     occupation numbers 
     1.0000   1.0000   1.0000   1.0000   0.0000   0.0000   0.0000   0.0000

          k =-0.2062 0.3241-0.0884 (   388 PWs)   bands (ev):

    -5.3358   5.5809   8.8897  10.8644  20.5132  22.5811  23.6971  26.4397

     occupation numbers 
     1.0000   1.0000   1.0000   1.0000   0.0000   0.0000   0.0000   0.0000

          k =-0.2357 0.3536-0.1179 (   390 PWs)   bands (ev):

    -4.6518   4.2735   8.7310  10.4829  20.8844  22.5482  23.9663  26.8525

     occupation numbers 
     1.0000   1.0000   1.0000   1.0000   0.0000   0.0000   0.0000   0.0000

          k =-0.2652 0.3830-0.1473 (   391 PWs)   bands (ev):

    -3.8971   3.0163   8.6376  10.1380  21.1533  22.4630  24.1442  27.4151

     occupation numbers 
     1.0000   1.0000   1.0000   1.0000   0.0000   0.0000   0.0000   0.0000

          k = 0.4125-0.2946 0.5303 (   391 PWs)   bands (ev):

    -3.0976   1.8496   8.5980   9.8559  21.3277  22.3662  24.2564  28.0150

     occupation numbers 
     1.0000   1.0000   1.0000   1.0000   0.0000   0.0000   0.0000   0.0000

          k = 0.3830-0.2652 0.5009 (   391 PWs)   bands (ev):

    -2.3383   0.8667   8.5915   9.6663  21.4235  22.2929  24.3185  28.5010

     occupation numbers 
     1.0000   1.0000   1.0000   1.0000   0.0000   0.0000   0.0000   0.0000

          k = 0.3536-0.2357 0.4714 (   390 PWs)   bands (ev):

    -1.9462   0.3994   8.5908   9.6019  21.4490  22.2697  24.3388  28.6974

     occupation numbers 
     1.0000   1.0000   1.0000   1.0000   0.0000   0.0000   0.0000   0.0000

          k =-0.1179 0.2946 0.0000 (   383 PWs)   bands (ev):

    -6.3111   8.4144   9.1805  11.0327  18.9714  23.0151  23.5000  25.4159

     occupation numbers 
     1.0000   1.0000   1.0000   1.0000   0.0000   0.0000   0.0000   0.0000

          k =-0.1473 0.3241-0.0295 (   386 PWs)   bands (ev):

    -5.8277   7.3605   8.6920  10.7092  19.3876  23.2291  24.0911  25.2126

     occupation numbers 
     1.0000   1.0000   1.0000   1.0000   0.0000   0.0000   0.0000   0.0000

          k =-0.1768 0.3536-0.0589 (   388 PWs)   bands (ev):

    -5.2563   6.1263   8.4027  10.3294  19.8617  23.3040  24.5406  25.2817

     occupation numbers 
     1.0000   1.0000   1.0000   1.0000   0.0000   0.0000   0.0000   0.0000

          k =-0.2062 0.3830-0.0884 (   394 PWs)   bands (ev):

    -4.6017   4.8613   8.2046   9.9404  20.2931  23.2715  24.8344  25.6613

     occupation numbers 
     1.0000   1.0000   1.0000   1.0000   0.0000   0.0000   0.0000   0.0000

          k =-0.2357 0.4125-0.1179 (   394 PWs)   bands (ev):

    -3.8724   3.6201   8.0678   9.5857  20.6269  23.1782  25.0600  26.2447

     occupation numbers 
     1.0000   1.0000   1.0000   1.0000   0.0000   0.0000   0.0000   0.0000

          k = 0.4419-0.2652 0.5598 (   390 PWs)   bands (ev):

    -3.0880   2.4441   7.9681   9.3075  20.8675  23.0531  25.2236  26.9645

     occupation numbers 
     1.0000   1.0000   1.0000   1.0000   0.0000   0.0000   0.0000   0.0000

          k = 0.4125-0.2357 0.5303 (   388 PWs)   bands (ev):

    -2.3042   1.4021   7.8764   9.1476  21.0534  22.9090  25.3143  27.7188

     occupation numbers 
     1.0000   1.0000   1.0000   1.0000   0.0000   0.0000   0.0000   0.0000

          k = 0.3830-0.2062 0.5009 (   389 PWs)   bands (ev):

    -1.7345   0.7147   7.7743   9.1323  21.2209  22.7526  25.3384  28.3041

     occupation numbers 
     1.0000   1.0000   1.0000   1.0000   0.0000   0.0000   0.0000   0.0000

          k = 0.3536-0.1768 0.4714 (   391 PWs)   bands (ev):

    -1.8746   0.8811   7.6726   9.2542  21.3863  22.5887  25.3046  28.4324

     occupation numbers 
     1.0000   1.0000   1.0000   1.0000   0.0000   0.0000   0.0000   0.0000

          k = 0.3241-0.1473 0.4419 (   390 PWs)   bands (ev):

    -2.5620   1.7379   7.5985   9.4857  21.5334  22.4294  25.2169  28.0385

     occupation numbers 
     1.0000   1.0000   1.0000   1.0000   0.0000   0.0000   0.0000   0.0000

          k = 0.2946-0.1179 0.4125 (   392 PWs)   bands (ev):

    -3.3567   2.8406   7.5757   9.7990  21.5764  22.3322  25.0754  27.3888

     occupation numbers 
     1.0000   1.0000   1.0000   1.0000   0.0000   0.0000   0.0000   0.0000

          k = 0.2652-0.0884 0.3830 (   393 PWs)   bands (ev):

    -4.1254   4.0461   7.6204  10.1699  21.3862  22.3811  24.8721  26.7262

     occupation numbers 
     1.0000   1.0000   1.0000   1.0000   0.0000   0.0000   0.0000   0.0000

          k = 0.2357-0.0589 0.3536 (   391 PWs)   bands (ev):

    -4.8306   5.2969   7.7476  10.5741  20.9936  22.5008  24.5706  26.2147

     occupation numbers 
     1.0000   1.0000   1.0000   1.0000   0.0000   0.0000   0.0000   0.0000

          k = 0.2062-0.0295 0.3241 (   387 PWs)   bands (ev):

    -5.4577   6.5315   7.9892  10.9820  20.4975  22.5735  24.1095  25.9781

     occupation numbers 
     1.0000   1.0000   1.0000   1.0000   0.0000   0.0000   0.0000   0.0000

          k = 0.1768-0.0000 0.2946 (   387 PWs)   bands (ev):

    -5.9999   7.5733   8.4872  11.3558  19.9928  22.5302  23.4989  26.0215

     occupation numbers 
     1.0000   1.0000   1.0000   1.0000   0.0000   0.0000   0.0000   0.0000

          k =-0.1179 0.3536 0.0000 (   387 PWs)   bands (ev):

    -5.6243   7.5467   8.4676  10.0315  18.7578  24.0382  24.2319  24.8089

     occupation numbers 
     1.0000   1.0000   1.0000   1.0000   0.0000   0.0000   0.0000   0.0000

          k =-0.1473 0.3830-0.0295 (   394 PWs)   bands (ev):

    -5.0844   6.5588   8.0000   9.6848  19.1978  23.9035  24.3213  25.4057

     occupation numbers 
     1.0000   1.0000   1.0000   1.0000   0.0000   0.0000   0.0000   0.0000

          k =-0.1768 0.4125-0.0589 (   398 PWs)   bands (ev):

    -4.4602   5.4045   7.7185   9.3039  19.6730  23.8717  24.4752  25.8825

     occupation numbers 
     1.0000   1.0000   1.0000   1.0000   0.0000   0.0000   0.0000   0.0000

          k =-0.2062 0.4419-0.0884 (   398 PWs)   bands (ev):

    -3.7587   4.2199   7.5090   8.9542  20.0746  23.9259  24.7730  26.2366

     occupation numbers 
     1.0000   1.0000   1.0000   1.0000   0.0000   0.0000   0.0000   0.0000

          k = 0.4714-0.2357 0.5893 (   400 PWs)   bands (ev):

    -2.9950   3.0658   7.3196   8.6978  20.3692  23.8993  25.3458  26.5047

     occupation numbers 
     1.0000   1.0000   1.0000   1.0000   0.0000   0.0000   0.0000   0.0000

          k = 0.4419-0.2062 0.5598 (   394 PWs)   bands (ev):

    -2.2075   2.0030   7.1193   8.5805  20.5947  23.7827  25.9743  26.8423

     occupation numbers 
     1.0000   1.0000   1.0000   1.0000   0.0000   0.0000   0.0000   0.0000

          k = 0.4125-0.1768 0.5303 (   391 PWs)   bands (ev):

    -1.5317   1.1793   6.9102   8.6107  20.8029  23.6084  26.2404  27.4956

     occupation numbers 
     1.0000   1.0000   1.0000   1.0000   0.0000   0.0000   0.0000   0.0000

          k = 0.3830-0.1473 0.5009 (   390 PWs)   bands (ev):

    -1.4042   1.0373   6.7191   8.7669  21.0278  23.3876  26.2408  28.0810

     occupation numbers 
     1.0000   1.0000   1.0000   1.0000   0.0000   0.0000   0.0000   0.0000

          k = 0.3536-0.1179 0.4714 (   391 PWs)   bands (ev):

    -1.9696   1.7223   6.5735   9.0229  21.2830  23.1135  26.1278  28.0534

     occupation numbers 
     1.0000   1.0000   1.0000   1.0000   0.0000   0.0000   0.0000   0.0000

          k = 0.3241-0.0884 0.4419 (   391 PWs)   bands (ev):

    -2.7434   2.7448   6.4943   9.3563  21.5636  22.7683  25.9478  27.4847

     occupation numbers 
     1.0000   1.0000   1.0000   1.0000   0.0000   0.0000   0.0000   0.0000

          k = 0.2946-0.0589 0.4125 (   393 PWs)   bands (ev):

    -3.5191   3.8823   6.5012   9.7462  21.8229  22.3598  25.7294  26.7636

     occupation numbers 
     1.0000   1.0000   1.0000   1.0000   0.0000   0.0000   0.0000   0.0000

          k = 0.2652-0.0295 0.3830 (   394 PWs)   bands (ev):

    -4.2413   5.0339   6.6344  10.1688  21.6519  22.2671  25.4383  26.1346

     occupation numbers 
     1.0000   1.0000   1.0000   1.0000   0.0000   0.0000   0.0000   0.0000

          k = 0.2357-0.0000 0.3536 (   396 PWs)   bands (ev):

    -4.8906   6.0023   7.0568  10.5941  21.0780  22.4617  24.8684  25.8881

     occupation numbers 
     1.0000   1.0000   1.0000   1.0000   0.0000   0.0000   0.0000   0.0000

          k =-0.1179 0.4125-0.0000 (   393 PWs)   bands (ev):

    -4.8206   6.6525   7.8449   9.0154  18.5870  22.9595  25.1716  26.0902

     occupation numbers 
     1.0000   1.0000   1.0000   1.0000   0.0000   0.0000   0.0000   0.0000

          k =-0.1473 0.4419-0.0295 (   398 PWs)   bands (ev):

    -4.2276   5.7518   7.3782   8.6625  19.0535  22.8635  25.2599  26.6529

     occupation numbers 
     1.0000   1.0000   1.0000   1.0000   0.0000   0.0000   0.0000   0.0000

          k =-0.1768 0.4714-0.0589 (   399 PWs)   bands (ev):

    -3.5556   4.7125   7.0357   8.3310  19.5204  23.1016  25.2566  27.0616

     occupation numbers 
     1.0000   1.0000   1.0000   1.0000   0.0000   0.0000   0.0000   0.0000

          k = 0.5009-0.2062 0.6187 (   400 PWs)   bands (ev):

    -2.8165   3.6401   6.7140   8.1079  19.8802  23.6881  25.2032  27.3144

     occupation numbers 
     1.0000   1.0000   1.0000   1.0000   0.0000   0.0000   0.0000   0.0000

          k = 0.4714-0.1768 0.5893 (   397 PWs)   bands (ev):

    -2.0379   2.6070   6.3826   8.0325  20.1405  24.4092  25.2513  27.4285

     occupation numbers 
     1.0000   1.0000   1.0000   1.0000   0.0000   0.0000   0.0000   0.0000

          k = 0.4419-0.1473 0.5598 (   395 PWs)   bands (ev):

    -1.3078   1.7239   6.0614   8.0955  20.3658  24.5824  25.9341  27.4375

     occupation numbers 
     1.0000   1.0000   1.0000   1.0000   0.0000   0.0000   0.0000   0.0000

          k = 0.4125-0.1179 0.5303 (   395 PWs)   bands (ev):

    -0.9502   1.3272   5.7812   8.2726  20.6058  24.3892  26.7647  27.4763

     occupation numbers 
     1.0000   1.0000   1.0000   1.0000   0.0000   0.0000   0.0000   0.0000

          k = 0.3830-0.0884 0.5009 (   394 PWs)   bands (ev):

    -1.3378   1.7921   5.5670   8.5429  20.8833  24.0761  26.8646  27.8281

     occupation numbers 
     1.0000   1.0000   1.0000   1.0000   0.0000   0.0000   0.0000   0.0000

          k = 0.3536-0.0589 0.4714 (   394 PWs)   bands (ev):

    -2.0684   2.7073   5.4420   8.8884  21.2024  23.6454  26.6267  27.6898

     occupation numbers 
     1.0000   1.0000   1.0000   1.0000   0.0000   0.0000   0.0000   0.0000

          k = 0.3241-0.0295 0.4419 (   394 PWs)   bands (ev):

    -2.8410   3.7292   5.4518   9.2911  21.5540  23.0788  26.3621  27.0790

     occupation numbers 
     1.0000   1.0000   1.0000   1.0000   0.0000   0.0000   0.0000   0.0000

          k = 0.2946-0.0000 0.4125 (   398 PWs)   bands (ev):

    -3.5742   4.5983   5.7691   9.7284  21.9145  22.3971  26.1642  26.3136

     occupation numbers 
     1.0000   1.0000   1.0000   1.0000   0.0000   0.0000   0.0000   0.0000

          k =-0.1179 0.4714 0.0000 (   399 PWs)   bands (ev):

    -3.9051   5.6659   7.3270   8.1060  18.4811  21.8445  26.2589  27.2910

     occupation numbers 
     1.0000   1.0000   1.0000   1.0000   0.0000   0.0000   0.0000   0.0000

          k =-0.1473 0.5009-0.0295 (   395 PWs)   bands (ev):

    -3.2637   4.8663   6.8263   7.7872  18.9737  21.8839  26.2862  27.7817

     occupation numbers 
     1.0000   1.0000   1.0000   1.0000   0.0000   0.0000   0.0000   0.0000

          k = 0.5303-0.1768 0.6482 (   398 PWs)   bands (ev):

    -2.5520   3.9819   6.3175   7.5900  19.4153  22.3278  26.2233  28.0795

     occupation numbers 
     1.0000   1.0000   1.0000   1.0000   0.0000   0.0000   0.0000   0.0000

          k = 0.5009-0.1473 0.6187 (   397 PWs)   bands (ev):

    -1.7905   3.0712   5.8093   7.5430  19.7239  23.1760  26.0917  28.1838

     occupation numbers 
     1.0000   1.0000   1.0000   1.0000   0.0000   0.0000   0.0000   0.0000

          k = 0.4714-0.1179 0.5893 (   397 PWs)   bands (ev):

    -1.0384   2.2225   5.3450   7.6236  19.9618  24.2791  25.9142  28.1068

     occupation numbers 
     1.0000   1.0000   1.0000   1.0000   0.0000   0.0000   0.0000   0.0000

          k = 0.4419-0.0884 0.5598 (   393 PWs)   bands (ev):

    -0.5178   1.6771   4.9570   7.8096  20.2025  25.2585  25.9044  27.8698

     occupation numbers 
     1.0000   1.0000   1.0000   1.0000   0.0000   0.0000   0.0000   0.0000

          k = 0.4125-0.0589 0.5303 (   393 PWs)   bands (ev):

    -0.6919   1.9021   4.6712   8.0850  20.4812  25.1125  26.8412  27.5272

     occupation numbers 
     1.0000   1.0000   1.0000   1.0000   0.0000   0.0000   0.0000   0.0000

          k = 0.3830-0.0295 0.5009 (   394 PWs)   bands (ev):

    -1.3515   2.6561   4.5344   8.4355  20.8078  24.5948  27.0755  27.6457

     occupation numbers 
     1.0000   1.0000   1.0000   1.0000   0.0000   0.0000   0.0000   0.0000

          k = 0.3536 0.0000 0.4714 (   394 PWs)   bands (ev):

    -2.1065   3.3868   4.7127   8.8451  21.1756  23.8870  26.7358  27.5672

     occupation numbers 
     1.0000   1.0000   1.0000   1.0000   0.0000   0.0000   0.0000   0.0000

          k =-0.1179 0.5303 0.0000 (   395 PWs)   bands (ev):

    -2.8845   4.5389   6.9241   7.3986  18.4582  20.8905  27.3053  28.3380

     occupation numbers 
     1.0000   1.0000   1.0000   1.0000   0.0000   0.0000   0.0000   0.0000

          k = 0.5598-0.1473 0.6776 (   396 PWs)   bands (ev):

    -2.2021   3.8318   6.3609   7.1714  18.9701  21.0741  27.2839  28.6878

     occupation numbers 
     1.0000   1.0000   1.0000   1.0000   0.0000   0.0000   0.0000   0.0000

          k = 0.5303-0.1179 0.6482 (   399 PWs)   bands (ev):

    -1.4630   3.1101   5.6782   7.1316  19.3588  21.7387  27.1752  28.7908

     occupation numbers 
     1.0000   1.0000   1.0000   1.0000   0.0000   0.0000   0.0000   0.0000

          k = 0.5009-0.0884 0.6187 (   393 PWs)   bands (ev):

    -0.7087   2.4066   5.0189   7.2166  19.6149  22.8097  26.9853  28.6526

     occupation numbers 
     1.0000   1.0000   1.0000   1.0000   0.0000   0.0000   0.0000   0.0000

          k = 0.4714-0.0589 0.5893 (   390 PWs)   bands (ev):

    -0.0907   1.8585   4.4674   7.4022  19.8486  24.0979  26.6964  28.3134

     occupation numbers 
     1.0000   1.0000   1.0000   1.0000   0.0000   0.0000   0.0000   0.0000

          k = 0.4419-0.0295 0.5598 (   391 PWs)   bands (ev):

    -0.0693   1.8937   4.0931   7.6757  20.1180  25.4160  26.2883  27.8730

     occupation numbers 
     1.0000   1.0000   1.0000   1.0000   0.0000   0.0000   0.0000   0.0000

          k = 0.4125 0.0000 0.5303 (   394 PWs)   bands (ev):

    -0.6369   2.3824   4.0371   8.0255  20.4396  25.4522  26.8382  27.4595

     occupation numbers 
     1.0000   1.0000   1.0000   1.0000   0.0000   0.0000   0.0000   0.0000

          k = 0.5893-0.1179 0.7071 (   396 PWs)   bands (ev):

    -1.7687   3.2943   6.6440   6.9101  18.5342  20.1088  28.2543  29.1270

     occupation numbers 
     1.0000   1.0000   1.0000   1.0000   0.0000   0.0000   0.0000   0.0000

          k = 0.5598-0.0884 0.6776 (   398 PWs)   bands (ev):

    -1.0556   2.6573   6.0293   6.8084  19.0422  20.4551  28.1874  29.2350

     occupation numbers 
     1.0000   1.0000   1.0000   1.0000   0.0000   0.0000   0.0000   0.0000

          k = 0.5303-0.0589 0.6482 (   395 PWs)   bands (ev):

    -0.3113   2.0602   5.2796   6.8869  19.3396  21.3670  28.0204  29.0489

     occupation numbers 
     1.0000   1.0000   1.0000   1.0000   0.0000   0.0000   0.0000   0.0000

          k = 0.5009-0.0295 0.6187 (   391 PWs)   bands (ev):

     0.3522   1.5738   4.5847   7.0659  19.5589  22.6239  27.7025  28.6516

     occupation numbers 
     1.0000   1.0000   1.0000   1.0000   0.0000   0.0000   0.0000   0.0000

          k = 0.4714-0.0000 0.5893 (   390 PWs)   bands (ev):

     0.4337   1.5942   4.1026   7.3327  19.8100  24.0320  27.1099  28.2327

     occupation numbers 
     1.0000   1.0000   1.0000   1.0000   0.0000   0.0000   0.0000   0.0000

          k = 0.5893-0.0589 0.7071 (   397 PWs)   bands (ev):

    -0.5706   1.9943   6.4936   6.6129  18.7236  19.4944  29.0217  29.5353

     occupation numbers 
     1.0000   1.0000   1.0000   1.0000   0.0000   0.0000   0.0000   0.0000

          k = 0.5598-0.0295 0.6776 (   394 PWs)   bands (ev):

     0.1559   1.4129   5.8611   6.6422  19.1465  20.0766  28.8881  29.3223

     occupation numbers 
     1.0000   1.0000   1.0000   1.0000   0.0000   0.0000   0.0000   0.0000

          k = 0.5303 0.0000 0.6482 (   389 PWs)   bands (ev):

     0.7444   1.0277   5.1502   6.8106  19.3366  21.2394  28.4961  28.9559

     occupation numbers 
     1.0000   1.0000   1.0000   1.0000   0.0000   0.0000   0.0000   0.0000

          k =-0.1179-0.7071 0.0000 (   398 PWs)   bands (ev):

     0.6864   0.6985   6.4733   6.4873  19.0308  19.0454  29.4767  29.5002

     occupation numbers 
     1.0000   1.0000   1.0000   1.0000   0.0000   0.0000   0.0000   0.0000

          k =-0.1768 0.3536 0.0000 (   393 PWs)   bands (ev):

    -5.3173   6.7859   7.7893  10.3779  19.8442  23.2839  24.8061  24.9934

     occupation numbers 
     1.0000   1.0000   1.0000   1.0000   0.0000   0.0000   0.0000   0.0000

          k =-0.2062 0.3830-0.0295 (   393 PWs)   bands (ev):

    -4.7209   5.7958   7.3330   9.9817  20.3824  23.1918  24.9962  25.4676

     occupation numbers 
     1.0000   1.0000   1.0000   1.0000   0.0000   0.0000   0.0000   0.0000

          k =-0.2357 0.4125-0.0589 (   396 PWs)   bands (ev):

    -4.0446   4.6272   7.1249   9.5714  20.8776  23.0343  25.2338  26.0383

     occupation numbers 
     1.0000   1.0000   1.0000   1.0000   0.0000   0.0000   0.0000   0.0000

          k = 0.4419-0.2652 0.6187 (   395 PWs)   bands (ev):

    -3.2996   3.4494   7.0245   9.1904  21.2383  22.8879  25.6139  26.5760

     occupation numbers 
     1.0000   1.0000   1.0000   1.0000   0.0000   0.0000   0.0000   0.0000

          k = 0.4125-0.2357 0.5893 (   394 PWs)   bands (ev):

    -2.5131   2.3360   6.9876   8.8763  21.4448  22.7851  25.9774  27.1714

     occupation numbers 
     1.0000   1.0000   1.0000   1.0000   0.0000   0.0000   0.0000   0.0000

          k = 0.3830-0.2062 0.5598 (   390 PWs)   bands (ev):

    -1.7698   1.3908   6.9840   8.6663  21.5354  22.7297  26.1959  27.7885

     occupation numbers 
     1.0000   1.0000   1.0000   1.0000   0.0000   0.0000   0.0000   0.0000

          k = 0.3536-0.1768 0.5303 (   394 PWs)   bands (ev):

    -1.3888   0.9412   6.9852   8.5943  21.5551  22.7164  26.2616  28.0995

     occupation numbers 
     1.0000   1.0000   1.0000   1.0000   0.0000   0.0000   0.0000   0.0000

          k =-0.1768 0.4125 0.0000 (   393 PWs)   bands (ev):

    -4.5196   5.9939   7.1837   9.3216  19.7012  23.6245  24.4296  26.1139

     occupation numbers 
     1.0000   1.0000   1.0000   1.0000   0.0000   0.0000   0.0000   0.0000

          k =-0.2062 0.4419-0.0295 (   399 PWs)   bands (ev):

    -3.8734   5.0865   6.7461   8.9134  20.2647  23.5095  24.5463  26.7000

     occupation numbers 
     1.0000   1.0000   1.0000   1.0000   0.0000   0.0000   0.0000   0.0000

          k = 0.4714-0.2357 0.6482 (   399 PWs)   bands (ev):

    -3.1552   4.0168   6.5309   8.5261  20.7399  23.5242  24.8067  27.1331

     occupation numbers 
     1.0000   1.0000   1.0000   1.0000   0.0000   0.0000   0.0000   0.0000

          k = 0.4419-0.2062 0.6187 (   395 PWs)   bands (ev):

    -2.3850   2.9419   6.4001   8.2168  21.0615  23.5286  25.3593  27.4078

     occupation numbers 
     1.0000   1.0000   1.0000   1.0000   0.0000   0.0000   0.0000   0.0000

          k = 0.4125-0.1768 0.5893 (   395 PWs)   bands (ev):

    -1.6192   1.9667   6.2922   8.0356  21.2768  23.4527  26.1301  27.5398

     occupation numbers 
     1.0000   1.0000   1.0000   1.0000   0.0000   0.0000   0.0000   0.0000

          k = 0.3830-0.1473 0.5598 (   391 PWs)   bands (ev):

    -1.0683   1.3207   6.1795   8.0121  21.4574  23.3141  26.7815  27.6067

     occupation numbers 
     1.0000   1.0000   1.0000   1.0000   0.0000   0.0000   0.0000   0.0000

          k = 0.3536-0.1179 0.5303 (   391 PWs)   bands (ev):

    -1.2075   1.4859   6.0687   8.1420  21.6429  23.1256  26.8010  27.7464

     occupation numbers 
     1.0000   1.0000   1.0000   1.0000   0.0000   0.0000   0.0000   0.0000

          k = 0.3241-0.0884 0.5009 (   394 PWs)   bands (ev):

    -1.8765   2.3000   5.9888   8.3973  21.8321  22.8859  26.3492  27.6567

     occupation numbers 
     1.0000   1.0000   1.0000   1.0000   0.0000   0.0000   0.0000   0.0000

          k = 0.2946-0.0589 0.4714 (   393 PWs)   bands (ev):

    -2.6535   3.3264   5.9749   8.7455  21.9184  22.6629  25.7901  27.3186

     occupation numbers 
     1.0000   1.0000   1.0000   1.0000   0.0000   0.0000   0.0000   0.0000

          k = 0.2652-0.0295 0.4419 (   398 PWs)   bands (ev):

    -3.4080   4.3879   6.0812   9.1549  21.6048  22.7210  25.3398  26.8187

     occupation numbers 
     1.0000   1.0000   1.0000   1.0000   0.0000   0.0000   0.0000   0.0000

          k = 0.2357-0.0000 0.4125 (   395 PWs)   bands (ev):

    -4.1021   5.2813   6.4672   9.5908  21.0049  22.9689  25.0804  26.1844

     occupation numbers 
     1.0000   1.0000   1.0000   1.0000   0.0000   0.0000   0.0000   0.0000

          k =-0.1768 0.4714 0.0000 (   399 PWs)   bands (ev):

    -3.6127   5.1813   6.6843   8.2686  19.6113  22.7294  25.2528  27.3241

     occupation numbers 
     1.0000   1.0000   1.0000   1.0000   0.0000   0.0000   0.0000   0.0000

          k = 0.5009-0.2062 0.6776 (   399 PWs)   bands (ev):

    -2.9234   4.3744   6.2420   7.8749  20.1943  22.8960  25.1877  27.8087

     occupation numbers 
     1.0000   1.0000   1.0000   1.0000   0.0000   0.0000   0.0000   0.0000

          k = 0.4714-0.1768 0.6482 (   395 PWs)   bands (ev):

    -2.1752   3.4412   5.9415   7.5738  20.6307  23.4225  25.1207  28.0668

     occupation numbers 
     1.0000   1.0000   1.0000   1.0000   0.0000   0.0000   0.0000   0.0000

          k = 0.4419-0.1473 0.6187 (   393 PWs)   bands (ev):

    -1.4073   2.5149   5.6792   7.4272  20.9122  24.0619  25.2472  28.0691

     occupation numbers 
     1.0000   1.0000   1.0000   1.0000   0.0000   0.0000   0.0000   0.0000

          k = 0.4125-0.1179 0.5893 (   394 PWs)   bands (ev):

    -0.7550   1.7763   5.4278   7.4495  21.1368  24.2311  25.9689  27.7953

     occupation numbers 
     1.0000   1.0000   1.0000   1.0000   0.0000   0.0000   0.0000   0.0000

          k = 0.3830-0.0884 0.5598 (   394 PWs)   bands (ev):

    -0.6447   1.6696   5.2088   7.6175  21.3725  24.0499  26.9095  27.3045

     occupation numbers 
     1.0000   1.0000   1.0000   1.0000   0.0000   0.0000   0.0000   0.0000

          k = 0.3536-0.0589 0.5303 (   394 PWs)   bands (ev):

    -1.1974   2.3128   5.0595   7.9003  21.6474  23.6967  26.5691  27.7134

     occupation numbers 
     1.0000   1.0000   1.0000   1.0000   0.0000   0.0000   0.0000   0.0000

          k = 0.3241-0.0295 0.5009 (   395 PWs)   bands (ev):

    -1.9479   3.2004   5.0391   8.2702  21.9674  23.1552  25.9770  27.8506

     occupation numbers 
     1.0000   1.0000   1.0000   1.0000   0.0000   0.0000   0.0000   0.0000

          k = 0.2946-0.0000 0.4714 (   394 PWs)   bands (ev):

    -2.7026   3.9798   5.3111   8.7002  22.3225  22.4332  25.5701  27.4724

     occupation numbers 
     1.0000   1.0000   1.0000   1.0000   0.0000   0.0000   0.0000   0.0000

          k = 0.5303-0.1768 0.7071 (   397 PWs)   bands (ev):

    -2.6052   4.2820   6.3034   7.3451  19.5950  21.8612  26.2206  28.3303

     occupation numbers 
     1.0000   1.0000   1.0000   1.0000   0.0000   0.0000   0.0000   0.0000

          k = 0.5009-0.1473 0.6776 (   397 PWs)   bands (ev):

    -1.8830   3.5824   5.8201   7.0184  20.1841  22.2180  26.0938  28.5977

     occupation numbers 
     1.0000   1.0000   1.0000   1.0000   0.0000   0.0000   0.0000   0.0000

          k = 0.4714-0.1179 0.6482 (   395 PWs)   bands (ev):

    -1.1257   2.8246   5.3354   6.8935  20.5572  23.0480  25.9277  28.5328

     occupation numbers 
     1.0000   1.0000   1.0000   1.0000   0.0000   0.0000   0.0000   0.0000

          k = 0.4419-0.0884 0.6187 (   393 PWs)   bands (ev):

    -0.4215   2.1258   4.8901   6.9490  20.8052  24.1496  25.7590  28.1315

     occupation numbers 
     1.0000   1.0000   1.0000   1.0000   0.0000   0.0000   0.0000   0.0000

          k = 0.4125-0.0589 0.5893 (   394 PWs)   bands (ev):

    -0.1026   1.8350   4.5373   7.1420  21.0461  24.9488  25.9295  27.4857

     occupation numbers 
     1.0000   1.0000   1.0000   1.0000   0.0000   0.0000   0.0000   0.0000

          k = 0.3830-0.0295 0.5598 (   392 PWs)   bands (ev):

    -0.5055   2.2686   4.3376   7.4423  21.3239  24.6973  26.7795  26.9467

     occupation numbers 
     1.0000   1.0000   1.0000   1.0000   0.0000   0.0000   0.0000   0.0000

          k = 0.3536 0.0000 0.5303 (   396 PWs)   bands (ev):

    -1.2084   2.8779   4.4362   7.8271  21.6454  24.0080  26.2862  27.7542

     occupation numbers 
     1.0000   1.0000   1.0000   1.0000   0.0000   0.0000   0.0000   0.0000

          k = 0.5303-0.1179 0.7071 (   398 PWs)   bands (ev):

    -1.5092   3.2446   6.0516   6.6512  19.6692  21.1385  27.1854  28.9785

     occupation numbers 
     1.0000   1.0000   1.0000   1.0000   0.0000   0.0000   0.0000   0.0000

          k = 0.5009-0.0884 0.6776 (   396 PWs)   bands (ev):

    -0.7707   2.6390   5.4958   6.4633  20.2308  21.6902  27.0279  28.8745

     occupation numbers 
     1.0000   1.0000   1.0000   1.0000   0.0000   0.0000   0.0000   0.0000

          k = 0.4714-0.0589 0.6482 (   390 PWs)   bands (ev):

    -0.0463   2.0621   4.8513   6.5330  20.5176  22.7765  26.8114  28.3956

     occupation numbers 
     1.0000   1.0000   1.0000   1.0000   0.0000   0.0000   0.0000   0.0000

          k = 0.4419-0.0295 0.6187 (   393 PWs)   bands (ev):

     0.4079   1.7255   4.3262   6.7398  20.7499  24.0845  26.4868  27.7075

     occupation numbers 
     1.0000   1.0000   1.0000   1.0000   0.0000   0.0000   0.0000   0.0000

          k = 0.4125-0.0000 0.5893 (   394 PWs)   bands (ev):

     0.1270   1.9870   4.0821   7.0502  21.0160  25.2234  26.0852  27.1316

     occupation numbers 
     1.0000   1.0000   1.0000   1.0000   0.0000   0.0000   0.0000   0.0000

          k = 0.5303-0.0589 0.7071 (   399 PWs)   bands (ev):

    -0.3426   2.0867   5.9406   6.2084  19.8484  20.5669  28.0729  29.1239

     occupation numbers 
     1.0000   1.0000   1.0000   1.0000   0.0000   0.0000   0.0000   0.0000

          k = 0.5009-0.0295 0.6776 (   393 PWs)   bands (ev):

     0.3823   1.5562   5.3149   6.2120  20.2952  21.3818  27.8834  28.6066

     occupation numbers 
     1.0000   1.0000   1.0000   1.0000   0.0000   0.0000   0.0000   0.0000

          k = 0.4714-0.0000 0.6482 (   393 PWs)   bands (ev):

     0.8098   1.3142   4.6718   6.4261  20.5054  22.6815  27.4261  28.0065

     occupation numbers 
     1.0000   1.0000   1.0000   1.0000   0.0000   0.0000   0.0000   0.0000

          k =-0.1768-0.7071 0.0000 (   392 PWs)   bands (ev):

     0.8632   0.8763   5.9777   5.9924  20.1340  20.1503  28.7634  28.7823

     occupation numbers 
     1.0000   1.0000   1.0000   1.0000   0.0000   0.0000   0.0000   0.0000

          k = 0.4714-0.2357 0.7071 (   397 PWs)   bands (ev):

    -3.2097   4.6053   5.9861   8.4729  20.9675  23.2518  24.6568  27.3762

     occupation numbers 
     1.0000   1.0000   1.0000   1.0000   0.0000   0.0000   0.0000   0.0000

          k = 0.4419-0.2062 0.6776 (   399 PWs)   bands (ev):

    -2.4809   3.7989   5.6286   8.0460  21.5908  23.1427  24.9050  27.8353

     occupation numbers 
     1.0000   1.0000   1.0000   1.0000   0.0000   0.0000   0.0000   0.0000

          k = 0.4125-0.1768 0.6482 (   398 PWs)   bands (ev):

    -1.7143   2.8574   5.5113   7.6882  21.9334  23.1882  25.4268  27.9893

     occupation numbers 
     1.0000   1.0000   1.0000   1.0000   0.0000   0.0000   0.0000   0.0000

          k = 0.3830-0.1473 0.6187 (   393 PWs)   bands (ev):

    -0.9931   2.0013   5.4849   7.4471  22.0351  23.2704  26.2174  27.7451

     occupation numbers 
     1.0000   1.0000   1.0000   1.0000   0.0000   0.0000   0.0000   0.0000

          k = 0.3536-0.1179 0.5893 (   394 PWs)   bands (ev):

    -0.6243   1.5831   5.4823   7.3635  22.0478  23.3052  26.9426  27.2319

     occupation numbers 
     1.0000   1.0000   1.0000   1.0000   0.0000   0.0000   0.0000   0.0000

          k = 0.4714-0.1768 0.7071 (   397 PWs)   bands (ev):

    -2.2235   3.8905   5.6307   7.4079  20.9711  22.8947  25.0976  28.2905

     occupation numbers 
     1.0000   1.0000   1.0000   1.0000   0.0000   0.0000   0.0000   0.0000

          k = 0.4419-0.1473 0.6776 (   395 PWs)   bands (ev):

    -1.4756   3.1953   5.2733   7.0205  21.5882  23.2323  25.0535  28.3790

     occupation numbers 
     1.0000   1.0000   1.0000   1.0000   0.0000   0.0000   0.0000   0.0000

          k = 0.4125-0.1179 0.6482 (   395 PWs)   bands (ev):

    -0.7352   2.4296   5.0611   6.7871  21.9008  23.7739  25.2671  27.9972

     occupation numbers 
     1.0000   1.0000   1.0000   1.0000   0.0000   0.0000   0.0000   0.0000

          k = 0.3830-0.0884 0.6187 (   394 PWs)   bands (ev):

    -0.2060   1.8815   4.8982   6.7490  22.0907  23.9466  26.0332  27.2374

     occupation numbers 
     1.0000   1.0000   1.0000   1.0000   0.0000   0.0000   0.0000   0.0000

          k = 0.3536-0.0589 0.5893 (   395 PWs)   bands (ev):

    -0.3521   2.0453   4.7759   6.8983  22.2819  23.7617  26.3128  27.0710

     occupation numbers 
     1.0000   1.0000   1.0000   1.0000   0.0000   0.0000   0.0000   0.0000

          k = 0.3241-0.0295 0.5598 (   396 PWs)   bands (ev):

    -1.0004   2.7218   4.7573   7.1960  22.5071  23.2953  25.5582  27.8865

     occupation numbers 
     1.0000   1.0000   1.0000   1.0000   0.0000   0.0000   0.0000   0.0000

          k = 0.2946 0.0000 0.5303 (   395 PWs)   bands (ev):

    -1.7495   3.3907   4.9872   7.6004  22.4645  22.8500  25.1077  28.1687

     occupation numbers 
     1.0000   1.0000   1.0000   1.0000   0.0000   0.0000   0.0000   0.0000

          k = 0.4714-0.1179 0.7071 (   395 PWs)   bands (ev):

    -1.1609   3.0878   5.4152   6.5026  21.0504  22.3440  25.9308  28.6655

     occupation numbers 
     1.0000   1.0000   1.0000   1.0000   0.0000   0.0000   0.0000   0.0000

          k = 0.4419-0.0884 0.6776 (   395 PWs)   bands (ev):

    -0.4219   2.5076   5.0241   6.2212  21.6209  23.0030  25.7564  28.2154

     occupation numbers 
     1.0000   1.0000   1.0000   1.0000   0.0000   0.0000   0.0000   0.0000

          k = 0.4125-0.0589 0.6482 (   393 PWs)   bands (ev):

     0.2026   1.9838   4.6381   6.2178  21.8775  24.0632  25.6280  27.3940

     occupation numbers 
     1.0000   1.0000   1.0000   1.0000   0.0000   0.0000   0.0000   0.0000

          k = 0.3830-0.0295 0.6187 (   393 PWs)   bands (ev):

     0.2641   1.9559   4.3653   6.4174  22.0976  24.6243  25.9868  26.4999

     occupation numbers 
     1.0000   1.0000   1.0000   1.0000   0.0000   0.0000   0.0000   0.0000

          k = 0.3536-0.0000 0.5893 (   394 PWs)   bands (ev):

    -0.2914   2.4007   4.3499   6.7582  22.3455  24.1093  25.8589  27.0447

     occupation numbers 
     1.0000   1.0000   1.0000   1.0000   0.0000   0.0000   0.0000   0.0000

          k = 0.4714-0.0589 0.7071 (   393 PWs)   bands (ev):

    -0.0486   2.1439   5.3599   5.8575  21.2201  21.8590  26.8492  28.4097

     occupation numbers 
     1.0000   1.0000   1.0000   1.0000   0.0000   0.0000   0.0000   0.0000

          k = 0.4419-0.0295 0.6776 (   392 PWs)   bands (ev):

     0.6237   1.6726   4.8878   5.7971  21.6605  22.8144  26.6293  27.5594

     occupation numbers 
     1.0000   1.0000   1.0000   1.0000   0.0000   0.0000   0.0000   0.0000

          k = 0.4125-0.0000 0.6482 (   394 PWs)   bands (ev):

     0.7682   1.6246   4.4384   6.0415  21.8710  24.0990  26.1823  26.7811

     occupation numbers 
     1.0000   1.0000   1.0000   1.0000   0.0000   0.0000   0.0000   0.0000

          k =-0.2357-0.7071 0.0000 (   390 PWs)   bands (ev):

     1.0665   1.0812   5.4848   5.5005  21.4762  21.4952  27.7205  27.7328

     occupation numbers 
     1.0000   1.0000   1.0000   1.0000   0.0000   0.0000   0.0000   0.0000

          k = 0.4125-0.1179 0.7071 (   395 PWs)   bands (ev):

    -0.7444   2.7993   4.8241   6.5385  22.5729  23.1619  25.0675  28.0495

     occupation numbers 
     1.0000   1.0000   1.0000   1.0000   0.0000   0.0000   0.0000   0.0000

          k = 0.3830-0.0884 0.6776 (   394 PWs)   bands (ev):

    -0.0522   2.2559   4.6349   6.2041  22.9046  23.6365  25.3375  27.1915

     occupation numbers 
     1.0000   1.0000   1.0000   1.0000   0.0000   0.0000   0.0000   0.0000

          k = 0.3536-0.0589 0.6482 (   396 PWs)   bands (ev):

     0.3149   1.9230   4.5923   6.0850  22.9001  23.9380  25.9925  26.2851

     occupation numbers 
     1.0000   1.0000   1.0000   1.0000   0.0000   0.0000   0.0000   0.0000

          k = 0.4125-0.0589 0.7071 (   391 PWs)   bands (ev):

     0.2755   2.0990   4.8534   5.6849  22.7241  23.1217  25.6026  27.3532

     occupation numbers 
     1.0000   1.0000   1.0000   1.0000   0.0000   0.0000   0.0000   0.0000

          k = 0.3830-0.0295 0.6776 (   393 PWs)   bands (ev):

     0.7969   1.7230   4.6657   5.5310  23.0430  24.0094  25.5412  26.2995

     occupation numbers 
     1.0000   1.0000   1.0000   1.0000   0.0000   0.0000   0.0000   0.0000

          k = 0.3536 0.0000 0.6482 (   393 PWs)   bands (ev):

     0.5784   1.9042   4.5103   5.7679  23.1712  24.1464  25.5468  26.1260

     occupation numbers 
     1.0000   1.0000   1.0000   1.0000   0.0000   0.0000   0.0000   0.0000

          k =-0.2946-0.7071 0.0000 (   394 PWs)   bands (ev):

     1.2394   1.2557   5.1147   5.1317  22.9085  22.9342  26.4520  26.4570

     occupation numbers 
     1.0000   1.0000   1.0000   1.0000   0.0000   0.0000   0.0000   0.0000

          k =-0.3536-0.7071 0.0000 (   396 PWs)   bands (ev):

     1.3096   1.3266   4.9750   4.9927  23.8659  23.9075  25.5304  25.5465

     occupation numbers 
     1.0000   1.0000   1.0000   1.0000   0.0000   0.0000   0.0000   0.0000

          k =-0.0295 0.0295 0.0295 (   399 PWs)   bands (ev):

    -8.0999  12.9669  13.1629  13.1629  18.9903  18.9903  19.0382  26.5381

     occupation numbers 
     1.0000   1.0000   1.0000   1.0000   0.0000   0.0000   0.0000   0.0000

          k =-0.0589 0.0589 0.0589 (   384 PWs)   bands (ev):

    -7.9561  12.0795  12.9307  12.9307  19.2954  19.2954  19.5426  26.6632

     occupation numbers 
     1.0000   1.0000   1.0000   1.0000   0.0000   0.0000   0.0000   0.0000

          k =-0.0884 0.0884 0.0884 (   381 PWs)   bands (ev):

    -7.7171  10.8881  12.6050  12.6050  19.7249  19.7249  20.1144  26.8682

     occupation numbers 
     1.0000   1.0000   1.0000   1.0000   0.0000   0.0000   0.0000   0.0000

          k =-0.1179 0.1179 0.1179 (   380 PWs)   bands (ev):

    -7.3835   9.5460  12.2381  12.2381  20.2025  20.2025  20.6315  27.1435

     occupation numbers 
     1.0000   1.0000   1.0000   1.0000   0.0000   0.0000   0.0000   0.0000

          k =-0.1473 0.1473 0.1473 (   386 PWs)   bands (ev):

    -6.9568   8.1376  11.8685  11.8685  20.6611  20.6611  21.0523  27.4699

     occupation numbers 
     1.0000   1.0000   1.0000   1.0000   0.0000   0.0000   0.0000   0.0000

          k =-0.1768 0.1768 0.1768 (   386 PWs)   bands (ev):

    -6.4387   6.7131  11.5215  11.5215  21.0505  21.0505  21.3761  27.8186

     occupation numbers 
     1.0000   1.0000   1.0000   1.0000   0.0000   0.0000   0.0000   0.0000

          k =-0.2062 0.2062 0.2062 (   395 PWs)   bands (ev):

    -5.8325   5.3054  11.2125  11.2125  21.3427  21.3427  21.6174  28.1548

     occupation numbers 
     1.0000   1.0000   1.0000   1.0000   0.0000   0.0000   0.0000   0.0000

          k =-0.2357 0.2357 0.2357 (   389 PWs)   bands (ev):

    -5.1432   3.9399  10.9516  10.9516  21.5349  21.5349  21.7934  28.4441

     occupation numbers 
     1.0000   1.0000   1.0000   1.0000   0.0000   0.0000   0.0000   0.0000

          k =-0.2652 0.2652 0.2652 (   395 PWs)   bands (ev):

    -4.3818   2.6407  10.7444  10.7444  21.6433  21.6433  21.9181  28.6627

     occupation numbers 
     1.0000   1.0000   1.0000   1.0000   0.0000   0.0000   0.0000   0.0000

          k =-0.2946 0.2946 0.2946 (   389 PWs)   bands (ev):

    -3.5741   1.4430  10.5944  10.5944  21.6945  21.6945  22.0015  28.8049

     occupation numbers 
     1.0000   1.0000   1.0000   1.0000   0.0000   0.0000   0.0000   0.0000

          k =-0.3241 0.3241 0.3241 (   392 PWs)   bands (ev):

    -2.8051   0.4378  10.5038  10.5038  21.7136  21.7136  22.0493  28.8805

     occupation numbers 
     1.0000   1.0000   1.0000   1.0000   0.0000   0.0000   0.0000   0.0000

          k = 0.3536-0.3536-0.3536 (   392 PWs)   bands (ev):

    -2.4069  -0.0395  10.4735  10.4735  21.7180  21.7180  22.0650  28.9037

     occupation numbers 
     1.0000   1.0000   1.0000   1.0000   0.0000   0.0000   0.0000   0.0000

          k =-0.0884-0.0295-0.0295 (   390 PWs)   bands (ev):

    -7.9721  12.3267  12.6905  13.0598  18.8693  19.5707  19.5983  26.6271

     occupation numbers 
     1.0000   1.0000   1.0000   1.0000   0.0000   0.0000   0.0000   0.0000

          k =-0.0295 0.0884 0.0295 (   390 PWs)   bands (ev):

    -7.9721  12.3726  12.6922  13.0060  18.8880  19.5671  19.5877  26.6256

     occupation numbers 
     1.0000   1.0000   1.0000   1.0000   0.0000   0.0000   0.0000   0.0000

          k =-0.1179-0.0589-0.0589 (   381 PWs)   bands (ev):

    -7.7648  11.2483  12.3233  12.8539  19.1465  20.0528  20.1523  26.7772

     occupation numbers 
     1.0000   1.0000   1.0000   1.0000   0.0000   0.0000   0.0000   0.0000

          k =-0.0589 0.1179 0.0589 (   381 PWs)   bands (ev):

    -7.7648  11.2860  12.3271  12.8026  19.1706  20.0441  20.1427  26.7731

     occupation numbers 
     1.0000   1.0000   1.0000   1.0000   0.0000   0.0000   0.0000   0.0000

          k =-0.1473-0.0884-0.0884 (   379 PWs)   bands (ev):

    -7.4628   9.9697  11.9356  12.5440  19.5584  20.5677  20.6814  26.9899

     occupation numbers 
     1.0000   1.0000   1.0000   1.0000   0.0000   0.0000   0.0000   0.0000

          k =-0.0884 0.1473 0.0884 (   379 PWs)   bands (ev):

    -7.4628  10.0003  11.9414  12.4971  19.5825  20.5528  20.6753  26.9825

     occupation numbers 
     1.0000   1.0000   1.0000   1.0000   0.0000   0.0000   0.0000   0.0000

          k =-0.1768-0.1179-0.1179 (   382 PWs)   bands (ev):

    -7.0672   8.5945  11.5608  12.1836  20.0198  21.0531  21.1250  27.2537

     occupation numbers 
     1.0000   1.0000   1.0000   1.0000   0.0000   0.0000   0.0000   0.0000

          k =-0.1179 0.1768 0.1179 (   382 PWs)   bands (ev):

    -7.0672   8.6198  11.5685  12.1410  20.0422  21.0314  21.1224  27.2421

     occupation numbers 
     1.0000   1.0000   1.0000   1.0000   0.0000   0.0000   0.0000   0.0000

          k =-0.2062-0.1473-0.1473 (   384 PWs)   bands (ev):

    -6.5795   7.1838  11.2205  11.8126  20.4596  21.4598  21.4713  27.5543

     occupation numbers 
     1.0000   1.0000   1.0000   1.0000   0.0000   0.0000   0.0000   0.0000

          k =-0.1473 0.2062 0.1473 (   384 PWs)   bands (ev):

    -6.5795   7.2053  11.2299  11.7737  20.4802  21.4312  21.4717  27.5380

     occupation numbers 
     1.0000   1.0000   1.0000   1.0000   0.0000   0.0000   0.0000   0.0000

          k =-0.2357-0.1768-0.1768 (   390 PWs)   bands (ev):

    -6.0023   5.7766  10.9279  11.4573  20.8293  21.7307  21.7576  27.8753

     occupation numbers 
     1.0000   1.0000   1.0000   1.0000   0.0000   0.0000   0.0000   0.0000

          k =-0.1768 0.2357 0.1768 (   390 PWs)   bands (ev):

    -6.0024   5.7953  10.9388  11.4213  20.8487  21.7227  21.7332  27.8541

     occupation numbers 
     1.0000   1.0000   1.0000   1.0000   0.0000   0.0000   0.0000   0.0000

          k =-0.2652-0.2062-0.2062 (   391 PWs)   bands (ev):

    -5.3401   4.4009  10.6913  11.1344  21.1084  21.9198  21.9401  28.1949

     occupation numbers 
     1.0000   1.0000   1.0000   1.0000   0.0000   0.0000   0.0000   0.0000

          k =-0.2062 0.2652 0.2062 (   391 PWs)   bands (ev):

    -5.3404   4.4178  10.7035  11.1007  21.1271  21.8999  21.9234  28.1689

     occupation numbers 
     1.0000   1.0000   1.0000   1.0000   0.0000   0.0000   0.0000   0.0000

          k =-0.2946-0.2357-0.2357 (   396 PWs)   bands (ev):

    -4.6010   3.0811  10.5154  10.8545  21.3025  22.0217  22.0536  28.4831

     occupation numbers 
     1.0000   1.0000   1.0000   1.0000   0.0000   0.0000   0.0000   0.0000

          k =-0.2357 0.2946 0.2357 (   396 PWs)   bands (ev):

    -4.6019   3.0970  10.5286  10.8226  21.3210  21.9775  22.0577  28.4531

     occupation numbers 
     1.0000   1.0000   1.0000   1.0000   0.0000   0.0000   0.0000   0.0000

          k =-0.3241-0.2652-0.2652 (   391 PWs)   bands (ev):

    -3.8034   1.8467  10.4024  10.6244  21.4342  22.0295  22.1438  28.7105

     occupation numbers 
     1.0000   1.0000   1.0000   1.0000   0.0000   0.0000   0.0000   0.0000

          k =-0.2652 0.3241 0.2652 (   391 PWs)   bands (ev):

    -3.8054   1.8626  10.4164  10.5939  21.4528  21.9826  22.1478  28.6776

     occupation numbers 
     1.0000   1.0000   1.0000   1.0000   0.0000   0.0000   0.0000   0.0000

          k =-0.3536-0.2946-0.2946 (   393 PWs)   bands (ev):

    -3.0019   0.7591  10.3531  10.4492  21.5298  21.9917  22.1976  28.8603

     occupation numbers 
     1.0000   1.0000   1.0000   1.0000   0.0000   0.0000   0.0000   0.0000

          k =-0.2946 0.3536 0.2946 (   393 PWs)   bands (ev):

    -3.0065   0.7769  10.3677  10.4197  21.5485  21.9433  22.2014  28.8260

     occupation numbers 
     1.0000   1.0000   1.0000   1.0000   0.0000   0.0000   0.0000   0.0000

          k = 0.3241 0.3830 0.3830 (   395 PWs)   bands (ev):

    -2.4118   0.0383  10.3321  10.3672  21.6102  21.9301  22.2191  28.9309

     occupation numbers 
     1.0000   1.0000   1.0000   1.0000   0.0000   0.0000   0.0000   0.0000

          k = 0.3830-0.3241-0.3830 (   395 PWs)   bands (ev):

    -2.4210   0.0603  10.3033  10.3821  21.6288  21.8811  22.2226  28.8965

     occupation numbers 
     1.0000   1.0000   1.0000   1.0000   0.0000   0.0000   0.0000   0.0000

          k = 0.2946 0.3536 0.3536 (   394 PWs)   bands (ev):

    -2.5554   0.2082  10.2756  10.4435  21.6851  21.8557  22.2098  28.9256

     occupation numbers 
     1.0000   1.0000   1.0000   1.0000   0.0000   0.0000   0.0000   0.0000

          k = 0.3536-0.2946-0.3536 (   394 PWs)   bands (ev):

    -2.5630   0.2286  10.2472  10.4585  21.7035  21.8069  22.2130  28.8922

     occupation numbers 
     1.0000   1.0000   1.0000   1.0000   0.0000   0.0000   0.0000   0.0000

          k = 0.2652 0.3241 0.3241 (   394 PWs)   bands (ev):

    -3.2627   1.0987  10.2815  10.5801  21.7520  21.7676  22.1688  28.8433

     occupation numbers 
     1.0000   1.0000   1.0000   1.0000   0.0000   0.0000   0.0000   0.0000

          k = 0.3241-0.2652-0.3241 (   394 PWs)   bands (ev):

    -3.2661   1.1152  10.2533  10.5949  21.7200  21.7700  22.1718  28.8120

     occupation numbers 
     1.0000   1.0000   1.0000   1.0000   0.0000   0.0000   0.0000   0.0000

          k = 0.2357 0.2946 0.2946 (   394 PWs)   bands (ev):

    -4.0739   2.2472  10.3507  10.7740  21.6531  21.7958  22.0932  28.6803

     occupation numbers 
     1.0000   1.0000   1.0000   1.0000   0.0000   0.0000   0.0000   0.0000

          k = 0.2946-0.2357-0.2946 (   394 PWs)   bands (ev):

    -4.0754   2.2624  10.3225  10.7884  21.6078  21.8137  22.0954  28.6521

     occupation numbers 
     1.0000   1.0000   1.0000   1.0000   0.0000   0.0000   0.0000   0.0000

          k = 0.2062 0.2652 0.2652 (   394 PWs)   bands (ev):

    -4.8552   3.5148  10.4835  11.0215  21.4912  21.7902  21.9775  28.4401

     occupation numbers 
     1.0000   1.0000   1.0000   1.0000   0.0000   0.0000   0.0000   0.0000

          k = 0.2652-0.2062-0.2652 (   394 PWs)   bands (ev):

    -4.8558   3.5301  10.4549  11.0351  21.4494  21.8096  21.9772  28.4158

     occupation numbers 
     1.0000   1.0000   1.0000   1.0000   0.0000   0.0000   0.0000   0.0000

          k = 0.1768 0.2357 0.2357 (   389 PWs)   bands (ev):

    -5.5699   4.8564  10.6788  11.3170  21.2579  21.6970  21.8196  28.1419

     occupation numbers 
     1.0000   1.0000   1.0000   1.0000   0.0000   0.0000   0.0000   0.0000

          k = 0.2357-0.1768-0.2357 (   389 PWs)   bands (ev):

    -5.5702   4.8727  10.6494  11.3294  21.2212  21.7245  21.8099  28.1220

     occupation numbers 
     1.0000   1.0000   1.0000   1.0000   0.0000   0.0000   0.0000   0.0000

          k = 0.1473 0.2062 0.2062 (   384 PWs)   bands (ev):

    -6.2044   6.2459  10.9336  11.6523  20.9379  21.4746  21.6206  27.8161

     occupation numbers 
     1.0000   1.0000   1.0000   1.0000   0.0000   0.0000   0.0000   0.0000

          k = 0.2062-0.1473-0.2062 (   384 PWs)   bands (ev):

    -6.2045   6.2640  10.9031  11.6632  20.9074  21.5076  21.6037  27.8007

     occupation numbers 
     1.0000   1.0000   1.0000   1.0000   0.0000   0.0000   0.0000   0.0000

          k = 0.1179 0.1768 0.1768 (   384 PWs)   bands (ev):

    -6.7522   7.6584  11.2428  12.0148  20.5348  21.1266  21.3511  27.4925

     occupation numbers 
     1.0000   1.0000   1.0000   1.0000   0.0000   0.0000   0.0000   0.0000

          k = 0.1768-0.1179-0.1768 (   384 PWs)   bands (ev):

    -6.7522   7.6790  11.2106  12.0238  20.5114  21.1583  21.3335  27.4814

     occupation numbers 
     1.0000   1.0000   1.0000   1.0000   0.0000   0.0000   0.0000   0.0000

          k = 0.0884 0.1473 0.1473 (   382 PWs)   bands (ev):

    -7.2094   9.0628  11.5971  12.3848  20.0780  20.6787  20.9856  27.1940

     occupation numbers 
     1.0000   1.0000   1.0000   1.0000   0.0000   0.0000   0.0000   0.0000

          k = 0.1473-0.0884-0.1473 (   382 PWs)   bands (ev):

    -7.2094   9.0870  11.5627  12.3917  20.0618  20.7094  20.9668  27.1867

     occupation numbers 
     1.0000   1.0000   1.0000   1.0000   0.0000   0.0000   0.0000   0.0000

          k = 0.0589 0.1179 0.1179 (   380 PWs)   bands (ev):

    -7.5740  10.4137  11.9818  12.7319  19.6218  20.1700  20.5201  26.9375

     occupation numbers 
     1.0000   1.0000   1.0000   1.0000   0.0000   0.0000   0.0000   0.0000

          k = 0.1179-0.0589-0.1179 (   380 PWs)   bands (ev):

    -7.5739  10.4425  11.9448  12.7364  19.6124  20.1985  20.5006  26.9335

     occupation numbers 
     1.0000   1.0000   1.0000   1.0000   0.0000   0.0000   0.0000   0.0000

          k = 0.0295 0.0884 0.0884 (   382 PWs)   bands (ev):

    -7.8445  11.6361  12.3741  13.0118  19.2390  19.6599  19.9783  26.7369

     occupation numbers 
     1.0000   1.0000   1.0000   1.0000   0.0000   0.0000   0.0000   0.0000

          k = 0.0884-0.0295-0.0884 (   382 PWs)   bands (ev):

    -7.8445  11.6695  12.3359  13.0137  19.2352  19.6815  19.9618  26.7354

     occupation numbers 
     1.0000   1.0000   1.0000   1.0000   0.0000   0.0000   0.0000   0.0000

          k = 0.0000 0.0589 0.0589 (   385 PWs)   bands (ev):

    -8.0200  12.5799  12.7601  13.1698  19.0085  19.2329  19.4335  26.6022

     occupation numbers 
     1.0000   1.0000   1.0000   1.0000   0.0000   0.0000   0.0000   0.0000

          k =-0.1473-0.0295-0.0295 (   382 PWs)   bands (ev):

    -7.7170  11.5392  11.9524  12.5531  18.6935  20.5093  20.5207  26.6537

     occupation numbers 
     1.0000   1.0000   1.0000   1.0000   0.0000   0.0000   0.0000   0.0000

          k =-0.0295 0.1473 0.0295 (   382 PWs)   bands (ev):

    -7.7170  11.5792  11.9544  12.5044  18.7042  20.5078  20.5157  26.6512

     occupation numbers 
     1.0000   1.0000   1.0000   1.0000   0.0000   0.0000   0.0000   0.0000

          k =-0.1768-0.0589-0.0589 (   381 PWs)   bands (ev):

    -7.4468  10.3743  11.5495  12.3582  18.9476  21.0540  21.0691  26.7133

     occupation numbers 
     1.0000   1.0000   1.0000   1.0000   0.0000   0.0000   0.0000   0.0000

          k =-0.0589 0.1768 0.0589 (   381 PWs)   bands (ev):

    -7.4468  10.4088  11.5534  12.3098  18.9628  21.0543  21.0580  26.7074

     occupation numbers 
     1.0000   1.0000   1.0000   1.0000   0.0000   0.0000   0.0000   0.0000

          k =-0.2062-0.0884-0.0884 (   380 PWs)   bands (ev):

    -7.0827   9.0665  11.1691  12.0555  19.3448  21.5267  21.5848  26.8042

     occupation numbers 
     1.0000   1.0000   1.0000   1.0000   0.0000   0.0000   0.0000   0.0000

          k =-0.0884 0.2062 0.0884 (   380 PWs)   bands (ev):

    -7.0826   9.0952  11.1749  12.0106  19.3609  21.5296  21.5669  26.7943

     occupation numbers 
     1.0000   1.0000   1.0000   1.0000   0.0000   0.0000   0.0000   0.0000

          k =-0.2357-0.1179-0.1179 (   384 PWs)   bands (ev):

    -6.6261   7.6938  10.8309  11.6946  19.7934  21.9028  22.0189  26.9421

     occupation numbers 
     1.0000   1.0000   1.0000   1.0000   0.0000   0.0000   0.0000   0.0000

          k =-0.1179 0.2357 0.1179 (   384 PWs)   bands (ev):

    -6.6260   7.7179  10.8383  11.6535  19.8088  21.9082  21.9941  26.9280

     occupation numbers 
     1.0000   1.0000   1.0000   1.0000   0.0000   0.0000   0.0000   0.0000

          k =-0.2652-0.1473-0.1473 (   384 PWs)   bands (ev):

    -6.0791   6.3045  10.5471  11.3158  20.2163  22.1868  22.3380  27.1540

     occupation numbers 
     1.0000   1.0000   1.0000   1.0000   0.0000   0.0000   0.0000   0.0000

          k =-0.1473 0.2652 0.1473 (   384 PWs)   bands (ev):

    -6.0792   6.3253  10.5559  11.2782  20.2307  22.1942  22.3066  27.1355

     occupation numbers 
     1.0000   1.0000   1.0000   1.0000   0.0000   0.0000   0.0000   0.0000

          k =-0.2946-0.1768-0.1768 (   387 PWs)   bands (ev):

    -5.4457   4.9323  10.3254  10.9467  20.5656  22.3935  22.5301  27.4569

     occupation numbers 
     1.0000   1.0000   1.0000   1.0000   0.0000   0.0000   0.0000   0.0000

          k =-0.1768 0.2946 0.1768 (   387 PWs)   bands (ev):

    -5.4459   4.9507  10.3354  10.9121  20.5792  22.4021  22.4932  27.4341

     occupation numbers 
     1.0000   1.0000   1.0000   1.0000   0.0000   0.0000   0.0000   0.0000

          k =-0.3241-0.2062-0.2062 (   386 PWs)   bands (ev):

    -4.7322   3.6037  10.1700  10.6055  20.8288  22.5388  22.6054  27.8354

     occupation numbers 
     1.0000   1.0000   1.0000   1.0000   0.0000   0.0000   0.0000   0.0000

          k =-0.2062 0.3241 0.2062 (   386 PWs)   bands (ev):

    -4.7329   3.6206  10.1811  10.5733  20.8418  22.5480  22.5642  27.8082

     occupation numbers 
     1.0000   1.0000   1.0000   1.0000   0.0000   0.0000   0.0000   0.0000

          k =-0.3536-0.2357-0.2357 (   393 PWs)   bands (ev):

    -3.9528   2.3461  10.0829  10.3043  21.0223  22.5891  22.6357  28.2366

     occupation numbers 
     1.0000   1.0000   1.0000   1.0000   0.0000   0.0000   0.0000   0.0000

          k =-0.2357 0.3536 0.2357 (   393 PWs)   bands (ev):

    -3.9544   2.3625  10.0949  10.2741  21.0348  22.5450  22.6450  28.2052

     occupation numbers 
     1.0000   1.0000   1.0000   1.0000   0.0000   0.0000   0.0000   0.0000

          k =-0.3830-0.2652-0.2652 (   391 PWs)   bands (ev):

    -3.1441   1.2056  10.0519  10.0644  21.1754  22.5108  22.6938  28.5893

     occupation numbers 
     1.0000   1.0000   1.0000   1.0000   0.0000   0.0000   0.0000   0.0000

          k =-0.2652 0.3830 0.2652 (   391 PWs)   bands (ev):

    -3.1477   1.2230  10.0233  10.0771  21.1873  22.4651  22.7032  28.5546

     occupation numbers 
     1.0000   1.0000   1.0000   1.0000   0.0000   0.0000   0.0000   0.0000

          k = 0.2946 0.4125 0.4125 (   391 PWs)   bands (ev):

    -2.4404   0.3220   9.8546  10.1136  21.3142  22.3956  22.7188  28.8298

     occupation numbers 
     1.0000   1.0000   1.0000   1.0000   0.0000   0.0000   0.0000   0.0000

          k = 0.4125-0.2946-0.4125 (   391 PWs)   bands (ev):

    -2.4482   0.3430   9.8272  10.1267  21.3252  22.3491  22.7283  28.7935

     occupation numbers 
     1.0000   1.0000   1.0000   1.0000   0.0000   0.0000   0.0000   0.0000

          k = 0.2652 0.3830 0.3830 (   393 PWs)   bands (ev):

    -2.2988   0.1552   9.7173  10.2282  21.4541  22.2586  22.7137  28.9198

     occupation numbers 
     1.0000   1.0000   1.0000   1.0000   0.0000   0.0000   0.0000   0.0000

          k = 0.3830-0.2652-0.3830 (   393 PWs)   bands (ev):

    -2.3080   0.1774   9.6908  10.2415  21.4640  22.2123  22.7234  28.8842

     occupation numbers 
     1.0000   1.0000   1.0000   1.0000   0.0000   0.0000   0.0000   0.0000

          k = 0.2357 0.3536 0.3536 (   393 PWs)   bands (ev):

    -2.8859   0.8725   9.6436  10.4049  21.5972  22.1036  22.6783  28.8489

     occupation numbers 
     1.0000   1.0000   1.0000   1.0000   0.0000   0.0000   0.0000   0.0000

          k = 0.3536-0.2357-0.3536 (   393 PWs)   bands (ev):

    -2.8904   0.8901   9.6178  10.4182  21.6056  22.0584  22.6886  28.8162

     occupation numbers 
     1.0000   1.0000   1.0000   1.0000   0.0000   0.0000   0.0000   0.0000

          k = 0.2062 0.3241 0.3241 (   392 PWs)   bands (ev):

    -3.6843   1.9544   9.6364  10.6394  21.7324  21.9227  22.6093  28.6330

     occupation numbers 
     1.0000   1.0000   1.0000   1.0000   0.0000   0.0000   0.0000   0.0000

          k = 0.3241-0.2062-0.3241 (   392 PWs)   bands (ev):

    -3.6863   1.9698   9.6109  10.6523  21.7388  21.8798  22.6205  28.6047

     occupation numbers 
     1.0000   1.0000   1.0000   1.0000   0.0000   0.0000   0.0000   0.0000

          k = 0.1768 0.2946 0.2946 (   394 PWs)   bands (ev):

    -4.4796   3.1818   9.6973  10.9257  21.6993  21.8360  22.4975  28.3143

     occupation numbers 
     1.0000   1.0000   1.0000   1.0000   0.0000   0.0000   0.0000   0.0000

          k = 0.2946-0.1768-0.2946 (   394 PWs)   bands (ev):

    -4.4804   3.1968   9.6720  10.9379  21.6600  21.8400  22.5101  28.2910

     occupation numbers 
     1.0000   1.0000   1.0000   1.0000   0.0000   0.0000   0.0000   0.0000

          k = 0.1473 0.2652 0.2652 (   390 PWs)   bands (ev):

    -5.2168   4.4920   9.8272  11.2557  21.4140  21.8780  22.3260  27.9550

     occupation numbers 
     1.0000   1.0000   1.0000   1.0000   0.0000   0.0000   0.0000   0.0000

          k = 0.2652-0.1473-0.2652 (   390 PWs)   bands (ev):

    -5.2171   4.5077   9.8016  11.2669  21.3798  21.8791  22.3400  27.9367

     occupation numbers 
     1.0000   1.0000   1.0000   1.0000   0.0000   0.0000   0.0000   0.0000

          k = 0.1179 0.2357 0.2357 (   384 PWs)   bands (ev):

    -5.8777   5.8546  10.0252  11.6182  21.0547  21.8294  22.0700  27.6179

     occupation numbers 
     1.0000   1.0000   1.0000   1.0000   0.0000   0.0000   0.0000   0.0000

          k = 0.2357-0.1179-0.2357 (   384 PWs)   bands (ev):

    -5.8778   5.8716   9.9992  11.6279  21.0270  21.8282  22.0842  27.6042

     occupation numbers 
     1.0000   1.0000   1.0000   1.0000   0.0000   0.0000   0.0000   0.0000

          k = 0.0884 0.2062 0.2062 (   385 PWs)   bands (ev):

    -6.4539   7.2426  10.2895  11.9968  20.6282  21.6656  21.7143  27.3422

     occupation numbers 
     1.0000   1.0000   1.0000   1.0000   0.0000   0.0000   0.0000   0.0000

          k = 0.2062-0.0884-0.2062 (   385 PWs)   bands (ev):

    -6.4539   7.2616  10.2627  12.0045  20.6078  21.6702  21.7202  27.3328

     occupation numbers 
     1.0000   1.0000   1.0000   1.0000   0.0000   0.0000   0.0000   0.0000

          k = 0.0589 0.1768 0.1768 (   383 PWs)   bands (ev):

    -6.9408   8.6231  10.6172  12.3668  20.1676  21.2343  21.4048  27.1321

     occupation numbers 
     1.0000   1.0000   1.0000   1.0000   0.0000   0.0000   0.0000   0.0000

          k = 0.1768-0.0589-0.1768 (   383 PWs)   bands (ev):

    -6.9408   8.6445  10.5898  12.3721  20.1547  21.2496  21.3971  27.1264

     occupation numbers 
     1.0000   1.0000   1.0000   1.0000   0.0000   0.0000   0.0000   0.0000

          k = 0.0295 0.1473 0.1473 (   382 PWs)   bands (ev):

    -7.3359   9.9417  11.0102  12.6923  19.7314  20.6972  21.0134  26.9696

     occupation numbers 
     1.0000   1.0000   1.0000   1.0000   0.0000   0.0000   0.0000   0.0000

          k = 0.1473-0.0295-0.1473 (   382 PWs)   bands (ev):

    -7.3359   9.9639  10.9844  12.6950  19.7255  20.7068  21.0079  26.9671

     occupation numbers 
     1.0000   1.0000   1.0000   1.0000   0.0000   0.0000   0.0000   0.0000

          k = 0.0000 0.1179 0.1179 (   381 PWs)   bands (ev):

    -7.6375  11.0495  11.5353  12.9249  19.3955  20.1519  20.5167  26.8387

     occupation numbers 
     1.0000   1.0000   1.0000   1.0000   0.0000   0.0000   0.0000   0.0000

          k =-0.2062-0.0295-0.0295 (   382 PWs)   bands (ev):

    -7.3355  10.6721  11.1237  11.7928  18.4608  21.6305  21.6617  26.3401

     occupation numbers 
     1.0000   1.0000   1.0000   1.0000   0.0000   0.0000   0.0000   0.0000

          k =-0.0295 0.2062 0.0295 (   382 PWs)   bands (ev):

    -7.3355  10.7093  11.1256  11.7479  18.4682  21.6319  21.6557  26.3368

     occupation numbers 
     1.0000   1.0000   1.0000   1.0000   0.0000   0.0000   0.0000   0.0000

          k =-0.2357-0.0589-0.0589 (   384 PWs)   bands (ev):

    -7.0033   9.4845  10.7352  11.5868  18.7049  22.1492  22.2180  26.1860

     occupation numbers 
     1.0000   1.0000   1.0000   1.0000   0.0000   0.0000   0.0000   0.0000

          k =-0.0589 0.2357 0.0589 (   384 PWs)   bands (ev):

    -7.0033   9.5173  10.7389  11.5416  18.7158  22.1532  22.2053  26.1789

     occupation numbers 
     1.0000   1.0000   1.0000   1.0000   0.0000   0.0000   0.0000   0.0000

          k =-0.2652-0.0884-0.0884 (   384 PWs)   bands (ev):

    -6.5782   8.1875  10.3931  11.2713  19.0965  22.5708  22.6951  26.0923

     occupation numbers 
     1.0000   1.0000   1.0000   1.0000   0.0000   0.0000   0.0000   0.0000

          k =-0.0884 0.2652 0.0884 (   384 PWs)   bands (ev):

    -6.5782   8.2153  10.3984  11.2291  19.1085  22.5775  22.6752  26.0813

     occupation numbers 
     1.0000   1.0000   1.0000   1.0000   0.0000   0.0000   0.0000   0.0000

          k =-0.2946-0.1179-0.1179 (   386 PWs)   bands (ev):

    -6.0623   6.8444  10.1096  10.8936  19.5347  22.8920  23.0555  26.1230

     occupation numbers 
     1.0000   1.0000   1.0000   1.0000   0.0000   0.0000   0.0000   0.0000

          k =-0.1179 0.2946 0.1179 (   386 PWs)   bands (ev):

    -6.0623   6.8681  10.1162  10.8551  19.5466  22.9009  23.0289  26.1082

     occupation numbers 
     1.0000   1.0000   1.0000   1.0000   0.0000   0.0000   0.0000   0.0000

          k =-0.3241-0.1473-0.1473 (   388 PWs)   bands (ev):

    -5.4588   5.4970   9.8923  10.4950  19.9364  23.1259  23.2809  26.3313

     occupation numbers 
     1.0000   1.0000   1.0000   1.0000   0.0000   0.0000   0.0000   0.0000

          k =-0.1473 0.3241 0.1473 (   388 PWs)   bands (ev):

    -5.4589   5.5176   9.9001  10.4599  19.9479  23.1361  23.2484  26.3128

     occupation numbers 
     1.0000   1.0000   1.0000   1.0000   0.0000   0.0000   0.0000   0.0000

          k =-0.3536-0.1768-0.1768 (   390 PWs)   bands (ev):

    -4.7731   4.1763   9.7456  10.1046  20.2577  23.2894  23.3748  26.7303

     occupation numbers 
     1.0000   1.0000   1.0000   1.0000   0.0000   0.0000   0.0000   0.0000

          k =-0.1768 0.3536 0.1768 (   390 PWs)   bands (ev):

    -4.7736   4.1948   9.7544  10.0724  20.2685  23.3001  23.3377  26.7081

     occupation numbers 
     1.0000   1.0000   1.0000   1.0000   0.0000   0.0000   0.0000   0.0000

          k =-0.3830-0.2062-0.2062 (   391 PWs)   bands (ev):

    -4.0160   2.9107   9.6717   9.7422  20.4998  23.3587  23.3975  27.2772

     occupation numbers 
     1.0000   1.0000   1.0000   1.0000   0.0000   0.0000   0.0000   0.0000

          k =-0.2062 0.3830 0.2062 (   391 PWs)   bands (ev):

    -4.0173   2.9281   9.6813   9.7125  20.5099  23.3184  23.4082  27.2509

     occupation numbers 
     1.0000   1.0000   1.0000   1.0000   0.0000   0.0000   0.0000   0.0000

          k =-0.4125-0.2357-0.2357 (   389 PWs)   bands (ev):

    -3.2137   1.7383   9.4214   9.6709  20.6920  23.2615  23.4621  27.8816

     occupation numbers 
     1.0000   1.0000   1.0000   1.0000   0.0000   0.0000   0.0000   0.0000

          k =-0.2357 0.4125 0.2357 (   389 PWs)   bands (ev):

    -3.2165   1.7560   9.3938   9.6812  20.7013  23.2193  23.4727  27.8505

     occupation numbers 
     1.0000   1.0000   1.0000   1.0000   0.0000   0.0000   0.0000   0.0000

          k = 0.2652 0.4419 0.4419 (   391 PWs)   bands (ev):

    -2.4512   0.7519   9.1524   9.7419  20.8677  23.1103  23.4914  28.4234

     occupation numbers 
     1.0000   1.0000   1.0000   1.0000   0.0000   0.0000   0.0000   0.0000

          k = 0.4419-0.2652-0.4419 (   391 PWs)   bands (ev):

    -2.4575   0.7721   9.1264   9.7526  20.8759  23.0674  23.5020  28.3875

     occupation numbers 
     1.0000   1.0000   1.0000   1.0000   0.0000   0.0000   0.0000   0.0000

          k = 0.2357 0.4125 0.4125 (   391 PWs)   bands (ev):

    -2.0586   0.2858   8.9424   9.8823  21.0499  22.9237  23.4902  28.7731

     occupation numbers 
     1.0000   1.0000   1.0000   1.0000   0.0000   0.0000   0.0000   0.0000

          k = 0.4125-0.2357-0.4125 (   391 PWs)   bands (ev):

    -2.0686   0.3093   8.9177   9.8932  21.0569  22.8809  23.5009  28.7345

     occupation numbers 
     1.0000   1.0000   1.0000   1.0000   0.0000   0.0000   0.0000   0.0000

          k = 0.2062 0.3830 0.3830 (   393 PWs)   bands (ev):

    -2.4549   0.7607   8.7972  10.0880  21.2472  22.7091  23.4595  28.8356

     occupation numbers 
     1.0000   1.0000   1.0000   1.0000   0.0000   0.0000   0.0000   0.0000

          k = 0.3830-0.2062-0.3830 (   393 PWs)   bands (ev):

    -2.4608   0.7799   8.7735  10.0989  21.2529  22.6677  23.4704  28.7990

     occupation numbers 
     1.0000   1.0000   1.0000   1.0000   0.0000   0.0000   0.0000   0.0000

          k = 0.1768 0.3536 0.3536 (   392 PWs)   bands (ev):

    -3.2174   1.7526   8.7211  10.3535  21.4542  22.4631  23.3954  28.6143

     occupation numbers 
     1.0000   1.0000   1.0000   1.0000   0.0000   0.0000   0.0000   0.0000

          k = 0.3536-0.1768-0.3536 (   392 PWs)   bands (ev):

    -3.2199   1.7686   8.6982  10.3641  21.4584  22.4242  23.4067  28.5838

     occupation numbers 
     1.0000   1.0000   1.0000   1.0000   0.0000   0.0000   0.0000   0.0000

          k = 0.1473 0.3241 0.3241 (   393 PWs)   bands (ev):

    -4.0189   2.9300   8.7173  10.6712  21.6515  22.1734  23.2863  28.2106

     occupation numbers 
     1.0000   1.0000   1.0000   1.0000   0.0000   0.0000   0.0000   0.0000

          k = 0.3241-0.1473-0.3241 (   393 PWs)   bands (ev):

    -4.0200   2.9450   8.6949  10.6811  21.6541  22.1384  23.2980  28.1871

     occupation numbers 
     1.0000   1.0000   1.0000   1.0000   0.0000   0.0000   0.0000   0.0000

          k = 0.1179 0.2946 0.2946 (   396 PWs)   bands (ev):

    -4.7753   4.2008   8.7883  11.0308  21.8091  21.8252  23.1088  27.7576

     occupation numbers 
     1.0000   1.0000   1.0000   1.0000   0.0000   0.0000   0.0000   0.0000

          k = 0.2946-0.1179-0.2946 (   396 PWs)   bands (ev):

    -4.7757   4.2161   8.7661  11.0397  21.7957  21.8100  23.1206  27.7402

     occupation numbers 
     1.0000   1.0000   1.0000   1.0000   0.0000   0.0000   0.0000   0.0000

          k = 0.0884 0.2652 0.2652 (   389 PWs)   bands (ev):

    -5.4603   5.5259   8.9360  11.4181  21.4117  21.8911  22.8290  27.3718

     occupation numbers 
     1.0000   1.0000   1.0000   1.0000   0.0000   0.0000   0.0000   0.0000

          k = 0.2652-0.0884-0.2652 (   389 PWs)   bands (ev):

    -5.4604   5.5421   8.9139  11.4255  21.3890  21.8905  22.8400  27.3598

     occupation numbers 
     1.0000   1.0000   1.0000   1.0000   0.0000   0.0000   0.0000   0.0000

          k = 0.0589 0.2357 0.2357 (   386 PWs)   bands (ev):

    -6.0634   6.8725   9.1643  11.8128  20.9453  21.8660  22.4204  27.1231

     occupation numbers 
     1.0000   1.0000   1.0000   1.0000   0.0000   0.0000   0.0000   0.0000

          k = 0.2357-0.0589-0.2357 (   386 PWs)   bands (ev):

    -6.0634   6.8898   9.1425  11.8181  20.9302  21.8644  22.4292  27.1157

     occupation numbers 
     1.0000   1.0000   1.0000   1.0000   0.0000   0.0000   0.0000   0.0000

          k = 0.0295 0.2062 0.2062 (   386 PWs)   bands (ev):

    -6.5790   8.1886   9.4906  12.1857  20.4645  21.7131  21.8930  27.0110

     occupation numbers 
     1.0000   1.0000   1.0000   1.0000   0.0000   0.0000   0.0000   0.0000

          k = 0.2062-0.0295-0.2062 (   386 PWs)   bands (ev):

    -6.5790   8.2052   9.4713  12.1885  20.4573  21.7119  21.8981  27.0077

     occupation numbers 
     1.0000   1.0000   1.0000   1.0000   0.0000   0.0000   0.0000   0.0000

          k = 0.0000 0.1768 0.1768 (   381 PWs)   bands (ev):

    -7.0038   9.3094  10.0315  12.4964  20.0324  21.2959  21.4266  26.9802

     occupation numbers 
     1.0000   1.0000   1.0000   1.0000   0.0000   0.0000   0.0000   0.0000

          k =-0.2652-0.0295-0.0295 (   386 PWs)   bands (ev):

    -6.8293   9.7863  10.2997  10.8650  18.2065  22.8549  22.8931  25.4920

     occupation numbers 
     1.0000   1.0000   1.0000   1.0000   0.0000   0.0000   0.0000   0.0000

          k =-0.0295 0.2652 0.0295 (   386 PWs)   bands (ev):

    -6.8293   9.8233  10.3014  10.8216  18.2120  22.8577  22.8863  25.4881

     occupation numbers 
     1.0000   1.0000   1.0000   1.0000   0.0000   0.0000   0.0000   0.0000

          k =-0.2946-0.0589-0.0589 (   386 PWs)   bands (ev):

    -6.4361   8.6099   9.9491  10.6342  18.4535  23.3452  23.4271  25.1573

     occupation numbers 
     1.0000   1.0000   1.0000   1.0000   0.0000   0.0000   0.0000   0.0000

          k =-0.0589 0.2946 0.0589 (   386 PWs)   bands (ev):

    -6.4361   8.6423   9.9524  10.5915  18.4621  23.3518  23.4132  25.1488

     occupation numbers 
     1.0000   1.0000   1.0000   1.0000   0.0000   0.0000   0.0000   0.0000

          k =-0.3241-0.0884-0.0884 (   390 PWs)   bands (ev):

    -5.9517   7.3510   9.6593  10.2874  18.8462  23.7223  23.8467  24.9846

     occupation numbers 
     1.0000   1.0000   1.0000   1.0000   0.0000   0.0000   0.0000   0.0000

          k =-0.0884 0.3241 0.0884 (   390 PWs)   bands (ev):

    -5.9518   7.3787   9.6638  10.2477  18.8560  23.7333  23.8257  24.9707

     occupation numbers 
     1.0000   1.0000   1.0000   1.0000   0.0000   0.0000   0.0000   0.0000

          k =-0.3536-0.1179-0.1179 (   390 PWs)   bands (ev):

    -5.3790   6.0593   9.4380   9.8774  19.2724  23.9977  24.1266  25.0417

     occupation numbers 
     1.0000   1.0000   1.0000   1.0000   0.0000   0.0000   0.0000   0.0000

          k =-0.1179 0.3536 0.1179 (   390 PWs)   bands (ev):

    -5.3791   6.0832   9.4437   9.8414  19.2824  24.0119  24.0994  25.0230

     occupation numbers 
     1.0000   1.0000   1.0000   1.0000   0.0000   0.0000   0.0000   0.0000

          k =-0.3830-0.1473-0.1473 (   389 PWs)   bands (ev):

    -4.7224   4.7712   9.2904   9.4489  19.6449  24.1921  24.2627  25.3670

     occupation numbers 
     1.0000   1.0000   1.0000   1.0000   0.0000   0.0000   0.0000   0.0000

          k =-0.1473 0.3830 0.1473 (   389 PWs)   bands (ev):

    -4.7229   4.7922   9.2970   9.4163  19.6546  24.2065  24.2305  25.3459

     occupation numbers 
     1.0000   1.0000   1.0000   1.0000   0.0000   0.0000   0.0000   0.0000

          k =-0.4125-0.1768-0.1768 (   389 PWs)   bands (ev):

    -3.9909   3.5180   9.0328   9.2187  19.9324  24.2702  24.3210  25.9479

     occupation numbers 
     1.0000   1.0000   1.0000   1.0000   0.0000   0.0000   0.0000   0.0000

          k =-0.1768 0.4125 0.1768 (   389 PWs)   bands (ev):

    -3.9919   3.5372   9.0032   9.2261  19.9414  24.2344  24.3340  25.9252

     occupation numbers 
     1.0000   1.0000   1.0000   1.0000   0.0000   0.0000   0.0000   0.0000

          k =-0.4419-0.2062-0.2062 (   387 PWs)   bands (ev):

    -3.2035   2.3351   8.6501   9.2236  20.1557  24.1758  24.3979  26.7107

     occupation numbers 
     1.0000   1.0000   1.0000   1.0000   0.0000   0.0000   0.0000   0.0000

          k =-0.2062 0.4419 0.2062 (   387 PWs)   bands (ev):

    -3.2058   2.3537   8.6230   9.2316  20.1637  24.1378  24.4098  26.6847

     occupation numbers 
     1.0000   1.0000   1.0000   1.0000   0.0000   0.0000   0.0000   0.0000

          k = 0.2357 0.4714 0.4714 (   393 PWs)   bands (ev):

    -2.4165   1.2891   8.3154   9.3041  20.3546  24.0069  24.4342  27.5370

     occupation numbers 
     1.0000   1.0000   1.0000   1.0000   0.0000   0.0000   0.0000   0.0000

          k = 0.4714-0.2357-0.4714 (   393 PWs)   bands (ev):

    -2.4216   1.3092   8.2904   9.3124  20.3614  23.9681  24.4457  27.5056

     occupation numbers 
     1.0000   1.0000   1.0000   1.0000   0.0000   0.0000   0.0000   0.0000

          k = 0.2062 0.4419 0.4419 (   393 PWs)   bands (ev):

    -1.8453   0.6023   8.0391   9.4575  20.5611  23.7847  24.4379  28.2656

     occupation numbers 
     1.0000   1.0000   1.0000   1.0000   0.0000   0.0000   0.0000   0.0000

          k = 0.4419-0.2062-0.4419 (   393 PWs)   bands (ev):

    -1.8550   0.6262   8.0158   9.4660  20.5668  23.7463  24.4492  28.2273

     occupation numbers 
     1.0000   1.0000   1.0000   1.0000   0.0000   0.0000   0.0000   0.0000

          k = 0.1768 0.4125 0.4125 (   395 PWs)   bands (ev):

    -1.9900   0.7777   7.8291   9.6797  20.7915  23.5198  24.4117  28.6741

     occupation numbers 
     1.0000   1.0000   1.0000   1.0000   0.0000   0.0000   0.0000   0.0000

          k = 0.4125-0.1768-0.4125 (   395 PWs)   bands (ev):

    -1.9977   0.7992   7.8071   9.6881  20.7961  23.4830  24.4229  28.6322

     occupation numbers 
     1.0000   1.0000   1.0000   1.0000   0.0000   0.0000   0.0000   0.0000

          k = 0.1473 0.3830 0.3830 (   390 PWs)   bands (ev):

    -2.6812   1.6457   7.6910   9.9645  21.0472  23.2121  24.3517  28.5971

     occupation numbers 
     1.0000   1.0000   1.0000   1.0000   0.0000   0.0000   0.0000   0.0000

          k = 0.3830-0.1473-0.3830 (   390 PWs)   bands (ev):

    -2.6846   1.6628   7.6701   9.9726  21.0506  23.1782  24.3628  28.5615

     occupation numbers 
     1.0000   1.0000   1.0000   1.0000   0.0000   0.0000   0.0000   0.0000

          k = 0.1179 0.3536 0.3536 (   394 PWs)   bands (ev):

    -3.4782   2.7613   7.6298  10.3035  21.3154  22.8529  24.2423  28.1574

     occupation numbers 
     1.0000   1.0000   1.0000   1.0000   0.0000   0.0000   0.0000   0.0000

          k = 0.3536-0.1179-0.3536 (   394 PWs)   bands (ev):

    -3.4795   2.7767   7.6097  10.3108  21.3176  22.8235  24.2533  28.1319

     occupation numbers 
     1.0000   1.0000   1.0000   1.0000   0.0000   0.0000   0.0000   0.0000

          k = 0.0884 0.3241 0.3241 (   396 PWs)   bands (ev):

    -4.2484   3.9833   7.6503  10.6848  21.5705  22.4327  24.0490  27.6144

     occupation numbers 
     1.0000   1.0000   1.0000   1.0000   0.0000   0.0000   0.0000   0.0000

          k = 0.3241-0.0884-0.3241 (   396 PWs)   bands (ev):

    -4.2489   3.9984   7.6308  10.6910  21.5716  22.4093  24.0591  27.5974

     occupation numbers 
     1.0000   1.0000   1.0000   1.0000   0.0000   0.0000   0.0000   0.0000

          k = 0.0589 0.2946 0.2946 (   394 PWs)   bands (ev):

    -4.9547   5.2566   7.7606  11.0920  21.7758  21.9508  23.7187  27.1705

     occupation numbers 
     1.0000   1.0000   1.0000   1.0000   0.0000   0.0000   0.0000   0.0000

          k = 0.2946-0.0589-0.2946 (   394 PWs)   bands (ev):

    -4.9549   5.2718   7.7420  11.0966  21.7760  21.9348  23.7266  27.1602

     occupation numbers 
     1.0000   1.0000   1.0000   1.0000   0.0000   0.0000   0.0000   0.0000

          k = 0.0295 0.2652 0.2652 (   392 PWs)   bands (ev):

    -5.5827   6.5226   7.9878  11.5018  21.4271  21.8895  23.2185  26.9371

     occupation numbers 
     1.0000   1.0000   1.0000   1.0000   0.0000   0.0000   0.0000   0.0000

          k = 0.2652-0.0295-0.2652 (   392 PWs)   bands (ev):

    -5.5827   6.5364   7.9720  11.5044  21.4191  21.8892  23.2228  26.9326

     occupation numbers 
     1.0000   1.0000   1.0000   1.0000   0.0000   0.0000   0.0000   0.0000

          k = 0.0000 0.2357 0.2357 (   385 PWs)   bands (ev):

    -6.1254   7.5994   8.4797  11.8818  20.9069  21.8754  22.5837  26.9110

     occupation numbers 
     1.0000   1.0000   1.0000   1.0000   0.0000   0.0000   0.0000   0.0000

          k =-0.3241-0.0295-0.0295 (   387 PWs)   bands (ev):

    -6.2001   8.8792   9.5297   9.8649  17.9622  24.1036  24.1579  24.2811

     occupation numbers 
     1.0000   1.0000   1.0000   1.0000   0.0000   0.0000   0.0000   0.0000

          k =-0.0295 0.3241 0.0295 (   387 PWs)   bands (ev):

    -6.2001   8.9163   9.5312   9.8226  17.9666  24.1229  24.1506  24.2612

     occupation numbers 
     1.0000   1.0000   1.0000   1.0000   0.0000   0.0000   0.0000   0.0000

          k =-0.3536-0.0589-0.0589 (   393 PWs)   bands (ev):

    -5.7477   7.7461   9.2287   9.5909  18.2228  23.8750  24.5963  24.6522

     occupation numbers 
     1.0000   1.0000   1.0000   1.0000   0.0000   0.0000   0.0000   0.0000

          k =-0.0589 0.3536 0.0589 (   393 PWs)   bands (ev):

    -5.7478   7.7786   9.2315   9.5501  18.2299  23.8768  24.5933  24.6377

     occupation numbers 
     1.0000   1.0000   1.0000   1.0000   0.0000   0.0000   0.0000   0.0000

          k =-0.3830-0.0884-0.0884 (   394 PWs)   bands (ev):

    -5.2064   6.5535   8.9977   9.1928  18.6200  23.7467  24.9394  25.0055

     occupation numbers 
     1.0000   1.0000   1.0000   1.0000   0.0000   0.0000   0.0000   0.0000

          k =-0.0884 0.3830 0.0884 (   394 PWs)   bands (ev):

    -5.2065   6.5818   9.0015   9.1551  18.6284  23.7443  24.9396  24.9843

     occupation numbers 
     1.0000   1.0000   1.0000   1.0000   0.0000   0.0000   0.0000   0.0000

          k =-0.4125-0.1179-0.1179 (   393 PWs)   bands (ev):

    -4.5802   5.3362   8.7357   8.8418  19.0279  23.9276  25.1800  25.2048

     occupation numbers 
     1.0000   1.0000   1.0000   1.0000   0.0000   0.0000   0.0000   0.0000

          k =-0.1179 0.4125 0.1179 (   393 PWs)   bands (ev):

    -4.5806   5.3609   8.7017   8.8465  19.0366  23.9229  25.1781  25.1809

     occupation numbers 
     1.0000   1.0000   1.0000   1.0000   0.0000   0.0000   0.0000   0.0000

          k =-0.4419-0.1473-0.1473 (   391 PWs)   bands (ev):

    -3.8764   4.1273   8.2689   8.7641  19.3628  24.4380  25.2578  25.3415

     occupation numbers 
     1.0000   1.0000   1.0000   1.0000   0.0000   0.0000   0.0000   0.0000

          k =-0.1473 0.4419 0.1473 (   391 PWs)   bands (ev):

    -3.8773   4.1493   8.2384   8.7695  19.3712  24.4339  25.2270  25.3398

     occupation numbers 
     1.0000   1.0000   1.0000   1.0000   0.0000   0.0000   0.0000   0.0000

          k =-0.4714-0.1768-0.1768 (   395 PWs)   bands (ev):

    -3.1097   2.9618   7.8252   8.7656  19.6176  25.1862  25.1902  25.4818

     occupation numbers 
     1.0000   1.0000   1.0000   1.0000   0.0000   0.0000   0.0000   0.0000

          k =-0.1768 0.4714 0.1768 (   395 PWs)   bands (ev):

    -3.1116   2.9825   7.7977   8.7714  19.6249  25.1530  25.2134  25.4500

     occupation numbers 
     1.0000   1.0000   1.0000   1.0000   0.0000   0.0000   0.0000   0.0000

          k = 0.2062 0.5009 0.5009 (   393 PWs)   bands (ev):

    -2.3187   1.8935   7.4258   8.8454  19.8330  25.0167  25.4477  26.2503

     occupation numbers 
     1.0000   1.0000   1.0000   1.0000   0.0000   0.0000   0.0000   0.0000

          k = 0.5009-0.2062-0.5009 (   393 PWs)   bands (ev):

    -2.3229   1.9145   7.4010   8.8516  19.8390  24.9827  25.4703  26.2149

     occupation numbers 
     1.0000   1.0000   1.0000   1.0000   0.0000   0.0000   0.0000   0.0000

          k = 0.1768 0.4714 0.4714 (   395 PWs)   bands (ev):

    -1.6408   1.0694   7.0851   9.0014  20.0515  24.7717  25.4694  27.2674

     occupation numbers 
     1.0000   1.0000   1.0000   1.0000   0.0000   0.0000   0.0000   0.0000

          k = 0.4714-0.1768-0.4714 (   395 PWs)   bands (ev):

    -1.6493   1.0934   7.0624   9.0076  20.0563  24.7382  25.4854  27.2315

     occupation numbers 
     1.0000   1.0000   1.0000   1.0000   0.0000   0.0000   0.0000   0.0000

          k = 0.1473 0.4419 0.4419 (   397 PWs)   bands (ev):

    -1.5176   0.9367   6.8131   9.2293  20.2982  24.4640  25.4536  28.1369

     occupation numbers 
     1.0000   1.0000   1.0000   1.0000   0.0000   0.0000   0.0000   0.0000

          k = 0.4419-0.1473-0.4419 (   397 PWs)   bands (ev):

    -1.5269   0.9608   6.7921   9.2354  20.3019  24.4325  25.4677  28.0931

     occupation numbers 
     1.0000   1.0000   1.0000   1.0000   0.0000   0.0000   0.0000   0.0000

          k = 0.1179 0.4125 0.4125 (   393 PWs)   bands (ev):

    -2.0880   1.6352   6.6174   9.5229  20.5812  24.0962  25.4036  28.4791

     occupation numbers 
     1.0000   1.0000   1.0000   1.0000   0.0000   0.0000   0.0000   0.0000

          k = 0.4125-0.1179-0.4125 (   393 PWs)   bands (ev):

    -2.0923   1.6538   6.5978   9.5286  20.5839  24.0682  25.4167  28.4348

     occupation numbers 
     1.0000   1.0000   1.0000   1.0000   0.0000   0.0000   0.0000   0.0000

          k = 0.0884 0.3830 0.3830 (   395 PWs)   bands (ev):

    -2.8643   2.6728   6.5054   9.8734  20.8944  23.6633  25.3007  28.1348

     occupation numbers 
     1.0000   1.0000   1.0000   1.0000   0.0000   0.0000   0.0000   0.0000

          k = 0.3830-0.0884-0.3830 (   395 PWs)   bands (ev):

    -2.8660   2.6886   6.4870   9.8783  20.8961  23.6404  25.3128  28.1048

     occupation numbers 
     1.0000   1.0000   1.0000   1.0000   0.0000   0.0000   0.0000   0.0000

          k = 0.0589 0.3536 0.3536 (   393 PWs)   bands (ev):

    -3.6415   3.8306   6.4882  10.2683  21.2188  23.1611  25.0886  27.5355

     occupation numbers 
     1.0000   1.0000   1.0000   1.0000   0.0000   0.0000   0.0000   0.0000

          k = 0.3536-0.0589-0.3536 (   393 PWs)   bands (ev):

    -3.6421   3.8452   6.4712  10.2720  21.2198  23.1449  25.0984  27.5181

     occupation numbers 
     1.0000   1.0000   1.0000   1.0000   0.0000   0.0000   0.0000   0.0000

          k = 0.0295 0.3241 0.3241 (   397 PWs)   bands (ev):

    -4.3648   5.0121   6.5989  10.6898  21.5225  22.5965  24.6687  27.0669

     occupation numbers 
     1.0000   1.0000   1.0000   1.0000   0.0000   0.0000   0.0000   0.0000

          k = 0.3241-0.0295-0.3241 (   397 PWs)   bands (ev):

    -4.3649   5.0245   6.5851  10.6920  21.5228  22.5882  24.6739  27.0595

     occupation numbers 
     1.0000   1.0000   1.0000   1.0000   0.0000   0.0000   0.0000   0.0000

          k = 0.0000 0.2946 0.2946 (   395 PWs)   bands (ev):

    -5.0149   6.0142   7.0051  11.1133  21.7620  21.9982  24.0106  26.8824

     occupation numbers 
     1.0000   1.0000   1.0000   1.0000   0.0000   0.0000   0.0000   0.0000

          k =-0.3830-0.0295-0.0295 (   392 PWs)   bands (ev):

    -5.4511   7.8688   8.8409   8.9361  17.7551  22.9381  25.3870  25.4167

     occupation numbers 
     1.0000   1.0000   1.0000   1.0000   0.0000   0.0000   0.0000   0.0000

          k =-0.0295 0.3830 0.0295 (   392 PWs)   bands (ev):

    -5.4511   7.8984   8.8422   8.9024  17.7589  22.9366  25.3881  25.4093

     occupation numbers 
     1.0000   1.0000   1.0000   1.0000   0.0000   0.0000   0.0000   0.0000

          k =-0.4125-0.0589-0.0589 (   394 PWs)   bands (ev):

    -4.9417   6.8402   8.5705   8.5960  18.0373  22.6173  25.8213  25.8592

     occupation numbers 
     1.0000   1.0000   1.0000   1.0000   0.0000   0.0000   0.0000   0.0000

          k =-0.0589 0.4125 0.0589 (   394 PWs)   bands (ev):

    -4.9418   6.8707   8.5337   8.5982  18.0436  22.6137  25.8238  25.8448

     occupation numbers 
     1.0000   1.0000   1.0000   1.0000   0.0000   0.0000   0.0000   0.0000

          k =-0.4419-0.0884-0.0884 (   397 PWs)   bands (ev):

    -4.3467   5.7570   8.0891   8.4269  18.4375  22.6072  26.1295  26.1403

     occupation numbers 
     1.0000   1.0000   1.0000   1.0000   0.0000   0.0000   0.0000   0.0000

          k =-0.0884 0.4419 0.0884 (   397 PWs)   bands (ev):

    -4.3470   5.7854   8.0537   8.4300  18.4451  22.6014  26.1198  26.1331

     occupation numbers 
     1.0000   1.0000   1.0000   1.0000   0.0000   0.0000   0.0000   0.0000

          k =-0.4714-0.1179-0.1179 (   392 PWs)   bands (ev):

    -3.6722   4.6492   7.5628   8.3374  18.8170  22.9679  26.2582  26.3343

     occupation numbers 
     1.0000   1.0000   1.0000   1.0000   0.0000   0.0000   0.0000   0.0000

          k =-0.1179 0.4714 0.1179 (   392 PWs)   bands (ev):

    -3.6729   4.6749   7.5304   8.3411  18.8247  22.9605  26.2332  26.3382

     occupation numbers 
     1.0000   1.0000   1.0000   1.0000   0.0000   0.0000   0.0000   0.0000

          k =-0.5009-0.1473-0.1473 (   395 PWs)   bands (ev):

    -2.9299   3.5496   7.0452   8.3287  19.1095  23.6930  26.2282  26.4617

     occupation numbers 
     1.0000   1.0000   1.0000   1.0000   0.0000   0.0000   0.0000   0.0000

          k =-0.1473 0.5009 0.1473 (   395 PWs)   bands (ev):

    -2.9315   3.5733   7.0162   8.3329  19.1164  23.6851  26.2003  26.4646

     occupation numbers 
     1.0000   1.0000   1.0000   1.0000   0.0000   0.0000   0.0000   0.0000

          k = 0.1768 0.5303 0.5303 (   395 PWs)   bands (ev):

    -2.1477   2.5050   6.5697   8.4007  19.3409  24.6894  26.0735  26.5382

     occupation numbers 
     1.0000   1.0000   1.0000   1.0000   0.0000   0.0000   0.0000   0.0000

          k = 0.5303-0.1768-0.5303 (   395 PWs)   bands (ev):

    -2.1511   2.5280   6.5439   8.4050  19.3464  24.6831  26.0447  26.5370

     occupation numbers 
     1.0000   1.0000   1.0000   1.0000   0.0000   0.0000   0.0000   0.0000

          k = 0.1473 0.5009 0.5009 (   394 PWs)   bands (ev):

    -1.4147   1.6192   6.1565   8.5512  19.5639  25.8069  25.8164  26.6113

     occupation numbers 
     1.0000   1.0000   1.0000   1.0000   0.0000   0.0000   0.0000   0.0000

          k = 0.5009-0.1473-0.5009 (   394 PWs)   bands (ev):

    -1.4219   1.6440   6.1334   8.5556  19.5682  25.7883  25.8152  26.5911

     occupation numbers 
     1.0000   1.0000   1.0000   1.0000   0.0000   0.0000   0.0000   0.0000

          k = 0.1179 0.4714 0.4714 (   393 PWs)   bands (ev):

    -1.0608   1.2314   5.8185   8.7765  19.8149  25.4711  26.4331  27.1669

     occupation numbers 
     1.0000   1.0000   1.0000   1.0000   0.0000   0.0000   0.0000   0.0000

          k = 0.4714-0.1179-0.4714 (   393 PWs)   bands (ev):

    -1.0711   1.2578   5.7977   8.7806  19.8180  25.4454  26.4726  27.1073

     occupation numbers 
     1.0000   1.0000   1.0000   1.0000   0.0000   0.0000   0.0000   0.0000

          k = 0.0884 0.4419 0.4419 (   394 PWs)   bands (ev):

    -1.4552   1.7132   5.5658   9.0705  20.1089  25.0424  26.4549  28.0406

     occupation numbers 
     1.0000   1.0000   1.0000   1.0000   0.0000   0.0000   0.0000   0.0000

          k = 0.4419-0.0884-0.4419 (   394 PWs)   bands (ev):

    -1.4605   1.7338   5.5470   9.0742  20.1110  25.0210  26.4782  27.9861

     occupation numbers 
     1.0000   1.0000   1.0000   1.0000   0.0000   0.0000   0.0000   0.0000

          k = 0.0589 0.4125 0.4125 (   395 PWs)   bands (ev):

    -2.1887   2.6478   5.4122   9.4245  20.4458  24.5296  26.3858  28.0919

     occupation numbers 
     1.0000   1.0000   1.0000   1.0000   0.0000   0.0000   0.0000   0.0000

          k = 0.4125-0.0589-0.4125 (   395 PWs)   bands (ev):

    -2.1906   2.6638   5.3954   9.4273  20.4470  24.5140  26.4036  28.0522

     occupation numbers 
     1.0000   1.0000   1.0000   1.0000   0.0000   0.0000   0.0000   0.0000

          k = 0.0295 0.3830 0.3830 (   395 PWs)   bands (ev):

    -2.9628   3.6978   5.3951   9.8258  20.8128  23.9349  26.1639  27.5127

     occupation numbers 
     1.0000   1.0000   1.0000   1.0000   0.0000   0.0000   0.0000   0.0000

          k = 0.3830-0.0295-0.3830 (   395 PWs)   bands (ev):

    -2.9633   3.7100   5.3821   9.8275  20.8134  23.9267  26.1747  27.4953

     occupation numbers 
     1.0000   1.0000   1.0000   1.0000   0.0000   0.0000   0.0000   0.0000

          k = 0.0000 0.3536 0.3536 (   399 PWs)   bands (ev):

    -3.6970   4.5988   5.6913  10.2567  21.1848  23.2749  25.5678  27.1236

     occupation numbers 
     1.0000   1.0000   1.0000   1.0000   0.0000   0.0000   0.0000   0.0000

          k =-0.4419-0.0295-0.0295 (   391 PWs)   bands (ev):

    -4.5860   6.6807   8.1996   8.2501  17.6082  21.6944  26.6096  26.6332

     occupation numbers 
     1.0000   1.0000   1.0000   1.0000   0.0000   0.0000   0.0000   0.0000

          k =-0.0295 0.4419 0.0295 (   391 PWs)   bands (ev):

    -4.5861   6.6976   8.1796   8.2511  17.6115  21.6923  26.6112  26.6259

     occupation numbers 
     1.0000   1.0000   1.0000   1.0000   0.0000   0.0000   0.0000   0.0000

          k =-0.4714-0.0589-0.0589 (   395 PWs)   bands (ev):

    -4.0228   5.7995   7.7142   8.0646  17.9165  21.4789  27.0032  27.0110

     occupation numbers 
     1.0000   1.0000   1.0000   1.0000   0.0000   0.0000   0.0000   0.0000

          k =-0.0589 0.4714 0.0589 (   395 PWs)   bands (ev):

    -4.0231   5.8225   7.6866   8.0664  17.9222  21.4747  26.9973  27.0062

     occupation numbers 
     1.0000   1.0000   1.0000   1.0000   0.0000   0.0000   0.0000   0.0000

          k =-0.5009-0.0884-0.0884 (   392 PWs)   bands (ev):

    -3.3788   4.8752   7.1146   7.9592  18.3125  21.6260  27.2106  27.2692

     occupation numbers 
     1.0000   1.0000   1.0000   1.0000   0.0000   0.0000   0.0000   0.0000

          k =-0.0884 0.5009 0.0884 (   392 PWs)   bands (ev):

    -3.3794   4.9003   7.0848   7.9616  18.3194  21.6198  27.1919  27.2731

     occupation numbers 
     1.0000   1.0000   1.0000   1.0000   0.0000   0.0000   0.0000   0.0000

          k =-0.5303-0.1179-0.1179 (   391 PWs)   bands (ev):

    -2.6635   3.9283   6.4853   7.9359  18.6503  22.1930  27.2384  27.4353

     occupation numbers 
     1.0000   1.0000   1.0000   1.0000   0.0000   0.0000   0.0000   0.0000

          k =-0.1179 0.5303 0.1179 (   391 PWs)   bands (ev):

    -2.6649   3.9535   6.4562   7.9386  18.6569  22.1861  27.2166  27.4391

     occupation numbers 
     1.0000   1.0000   1.0000   1.0000   0.0000   0.0000   0.0000   0.0000

          k = 0.1473 0.5598 0.5598 (   396 PWs)   bands (ev):

    -1.8981   2.9888   5.8913   7.9946  18.9023  23.1287  27.1121  27.5301

     occupation numbers 
     1.0000   1.0000   1.0000   1.0000   0.0000   0.0000   0.0000   0.0000

          k = 0.5598-0.1473-0.5598 (   396 PWs)   bands (ev):

    -1.9009   3.0138   5.8644   7.9975  18.9075  23.1221  27.0891  27.5326

     occupation numbers 
     1.0000   1.0000   1.0000   1.0000   0.0000   0.0000   0.0000   0.0000

          k = 0.1179 0.5303 0.5303 (   393 PWs)   bands (ev):

    -1.1425   2.1299   5.3705   8.1340  19.1261  24.3054  26.8520  27.5803

     occupation numbers 
     1.0000   1.0000   1.0000   1.0000   0.0000   0.0000   0.0000   0.0000

          k = 0.5303-0.1179-0.5303 (   393 PWs)   bands (ev):

    -1.1485   2.1559   5.3464   8.1369  19.1298  24.3001  26.8300  27.5794

     occupation numbers 
     1.0000   1.0000   1.0000   1.0000   0.0000   0.0000   0.0000   0.0000

          k = 0.0884 0.5009 0.5009 (   391 PWs)   bands (ev):

    -0.6250   1.5914   4.9435   8.3505  19.3726  25.5876  26.4726  27.6155

     occupation numbers 
     1.0000   1.0000   1.0000   1.0000   0.0000   0.0000   0.0000   0.0000

          k = 0.5009-0.0884-0.5009 (   391 PWs)   bands (ev):

    -0.6350   1.6193   4.9224   8.3531  19.3751  25.5866  26.4535  27.6060

     occupation numbers 
     1.0000   1.0000   1.0000   1.0000   0.0000   0.0000   0.0000   0.0000

          k = 0.0589 0.4714 0.4714 (   394 PWs)   bands (ev):

    -0.8084   1.8380   4.6277   8.6385  19.6657  25.9814  26.7565  27.7126

     occupation numbers 
     1.0000   1.0000   1.0000   1.0000   0.0000   0.0000   0.0000   0.0000

          k = 0.4714-0.0589-0.4714 (   394 PWs)   bands (ev):

    -0.8145   1.8598   4.6098   8.6406  19.6672  25.9671  26.7750  27.6761

     occupation numbers 
     1.0000   1.0000   1.0000   1.0000   0.0000   0.0000   0.0000   0.0000

          k = 0.0295 0.4419 0.4419 (   395 PWs)   bands (ev):

    -1.4715   2.6186   4.4629   8.9897  20.0106  25.3831  27.2575  27.9461

     occupation numbers 
     1.0000   1.0000   1.0000   1.0000   0.0000   0.0000   0.0000   0.0000

          k = 0.4419-0.0295-0.4419 (   395 PWs)   bands (ev):

    -1.4732   2.6320   4.4500   8.9909  20.0113  25.3754  27.2919  27.8925

     occupation numbers 
     1.0000   1.0000   1.0000   1.0000   0.0000   0.0000   0.0000   0.0000

          k = 0.0000 0.4125 0.4125 (   395 PWs)   bands (ev):

    -2.2279   3.3777   4.6194   9.3918  20.3995  24.6890  27.0916  27.5976

     occupation numbers 
     1.0000   1.0000   1.0000   1.0000   0.0000   0.0000   0.0000   0.0000

          k =-0.5009-0.0295-0.0295 (   391 PWs)   bands (ev):

    -3.6102   5.3627   7.6476   7.7677  17.5403  20.6048  27.7463  27.7625

     occupation numbers 
     1.0000   1.0000   1.0000   1.0000   0.0000   0.0000   0.0000   0.0000

          k =-0.0295 0.5009 0.0295 (   391 PWs)   bands (ev):

    -3.6103   5.3716   7.6365   7.7685  17.5435  20.6025  27.7479  27.7558

     occupation numbers 
     1.0000   1.0000   1.0000   1.0000   0.0000   0.0000   0.0000   0.0000

          k =-0.5303-0.0589-0.0589 (   397 PWs)   bands (ev):

    -2.9975   4.5923   7.0953   7.6439  17.8753  20.5143  28.0561  28.0833

     occupation numbers 
     1.0000   1.0000   1.0000   1.0000   0.0000   0.0000   0.0000   0.0000

          k =-0.0589 0.5303 0.0589 (   397 PWs)   bands (ev):

    -2.9980   4.6063   7.0783   7.6452  17.8807  20.5098  28.0440  28.0861

     occupation numbers 
     1.0000   1.0000   1.0000   1.0000   0.0000   0.0000   0.0000   0.0000

          k =-0.5598-0.0884-0.0884 (   394 PWs)   bands (ev):

    -2.3112   3.8211   6.4014   7.6026  18.2503  20.8434  28.1548  28.2936

     occupation numbers 
     1.0000   1.0000   1.0000   1.0000   0.0000   0.0000   0.0000   0.0000

          k =-0.0884 0.5598 0.0884 (   394 PWs)   bands (ev):

    -2.3123   3.8386   6.3813   7.6043  18.2563  20.8377  28.1393  28.2969

     occupation numbers 
     1.0000   1.0000   1.0000   1.0000   0.0000   0.0000   0.0000   0.0000

          k = 0.1179 0.5893 0.5893 (   392 PWs)   bands (ev):

    -1.5675   3.0602   5.6666   7.6446  18.5327  21.6292  28.0688  28.4074

     occupation numbers 
     1.0000   1.0000   1.0000   1.0000   0.0000   0.0000   0.0000   0.0000

          k = 0.5893-0.1179-0.5893 (   392 PWs)   bands (ev):

    -1.5699   3.0805   5.6453   7.6464  18.5375  21.6240  28.0521  28.4102

     occupation numbers 
     1.0000   1.0000   1.0000   1.0000   0.0000   0.0000   0.0000   0.0000

          k = 0.0884 0.5598 0.5598 (   392 PWs)   bands (ev):

    -0.8092   2.3372   4.9791   7.7686  18.7557  22.7555  27.8137  28.4515

     occupation numbers 
     1.0000   1.0000   1.0000   1.0000   0.0000   0.0000   0.0000   0.0000

          k = 0.5598-0.0884-0.5598 (   392 PWs)   bands (ev):

    -0.8142   2.3601   4.9584   7.7704  18.7590  22.7513  27.7981  28.4529

     occupation numbers 
     1.0000   1.0000   1.0000   1.0000   0.0000   0.0000   0.0000   0.0000

          k = 0.0589 0.5303 0.5303 (   392 PWs)   bands (ev):

    -0.1943   1.7918   4.4055   7.9718  18.9907  24.0770  27.4044  28.4442

     occupation numbers 
     1.0000   1.0000   1.0000   1.0000   0.0000   0.0000   0.0000   0.0000

          k = 0.5303-0.0589-0.5303 (   392 PWs)   bands (ev):

    -0.2033   1.8169   4.3875   7.9733  18.9926  24.0742  27.3921  28.4428

     occupation numbers 
     1.0000   1.0000   1.0000   1.0000   0.0000   0.0000   0.0000   0.0000

          k = 0.0295 0.5009 0.5009 (   395 PWs)   bands (ev):

    -0.1862   1.8535   4.0093   8.2491  19.2738  25.4711  26.8516  28.3845

     occupation numbers 
     1.0000   1.0000   1.0000   1.0000   0.0000   0.0000   0.0000   0.0000

          k = 0.5009-0.0295-0.5009 (   395 PWs)   bands (ev):

    -0.1917   1.8702   3.9970   8.2500  19.2746  25.4704  26.8447  28.3797

     occupation numbers 
     1.0000   1.0000   1.0000   1.0000   0.0000   0.0000   0.0000   0.0000

          k = 0.0000 0.4714 0.4714 (   403 PWs)   bands (ev):

    -0.7577   2.3652   3.9358   8.5926  19.6152  26.1677  26.7582  28.1952

     occupation numbers 
     1.0000   1.0000   1.0000   1.0000   0.0000   0.0000   0.0000   0.0000

          k =-0.5598-0.0295-0.0295 (   394 PWs)   bands (ev):

    -2.5305   3.9845   7.2466   7.4008  17.5680  19.6945  28.7338  28.7414

     occupation numbers 
     1.0000   1.0000   1.0000   1.0000   0.0000   0.0000   0.0000   0.0000

          k =-0.0295 0.5598 0.0295 (   394 PWs)   bands (ev):

    -2.5308   3.9893   7.2405   7.4014  17.5709  19.6921  28.7353  28.7358

     occupation numbers 
     1.0000   1.0000   1.0000   1.0000   0.0000   0.0000   0.0000   0.0000

          k =-0.5893-0.0589-0.0589 (   396 PWs)   bands (ev):

    -1.8744   3.2820   6.6881   7.3396  17.9217  19.7420  28.9196  28.9863

     occupation numbers 
     1.0000   1.0000   1.0000   1.0000   0.0000   0.0000   0.0000   0.0000

          k =-0.0589 0.5893 0.0589 (   396 PWs)   bands (ev):

    -1.8753   3.2899   6.6787   7.3405  17.9266  19.7375  28.9104  28.9886

     occupation numbers 
     1.0000   1.0000   1.0000   1.0000   0.0000   0.0000   0.0000   0.0000

          k = 0.0884 0.6187 0.6187 (   395 PWs)   bands (ev):

    -1.1560   2.6152   5.9691   7.3623  18.2425  20.2843  28.8829  29.1099

     occupation numbers 
     1.0000   1.0000   1.0000   1.0000   0.0000   0.0000   0.0000   0.0000

          k = 0.6187-0.0884-0.6187 (   395 PWs)   bands (ev):

    -1.1580   2.6257   5.9584   7.3633  18.2470  20.2799  28.8724  29.1123

     occupation numbers 
     1.0000   1.0000   1.0000   1.0000   0.0000   0.0000   0.0000   0.0000

          k = 0.0589 0.5893 0.5893 (   392 PWs)   bands (ev):

    -0.4070   2.0018   5.1991   7.4682  18.4644  21.2869  28.6417  29.1271

     occupation numbers 
     1.0000   1.0000   1.0000   1.0000   0.0000   0.0000   0.0000   0.0000

          k = 0.5893-0.0589-0.5893 (   392 PWs)   bands (ev):

    -0.4112   2.0147   5.1887   7.4691  18.4670  21.2840  28.6325  29.1287

     occupation numbers 
     1.0000   1.0000   1.0000   1.0000   0.0000   0.0000   0.0000   0.0000

          k = 0.0295 0.5598 0.5598 (   392 PWs)   bands (ev):

     0.2504   1.5212   4.4917   7.6549  18.6801  22.5700  28.2102  29.0432

     occupation numbers 
     1.0000   1.0000   1.0000   1.0000   0.0000   0.0000   0.0000   0.0000

          k = 0.5598-0.0295-0.5598 (   392 PWs)   bands (ev):

     0.2430   1.5354   4.4841   7.6555  18.6812  22.5686  28.2046  29.0435

     occupation numbers 
     1.0000   1.0000   1.0000   1.0000   0.0000   0.0000   0.0000   0.0000

          k = 0.0000 0.5303 0.5303 (   391 PWs)   bands (ev):

     0.3114   1.5705   4.0000   7.9179  18.9451  24.0006  27.6039  28.8258

     occupation numbers 
     1.0000   1.0000   1.0000   1.0000   0.0000   0.0000   0.0000   0.0000

          k =-0.6187-0.0295-0.0295 (   394 PWs)   bands (ev):

    -1.3562   2.5935   6.9825   7.1540  17.7048  18.9658  29.4835  29.4853

     occupation numbers 
     1.0000   1.0000   1.0000   1.0000   0.0000   0.0000   0.0000   0.0000

          k =-0.0295 0.6187 0.0295 (   394 PWs)   bands (ev):

    -1.3568   2.5963   6.9794   7.1543  17.7076  18.9633  29.4798  29.4864

     occupation numbers 
     1.0000   1.0000   1.0000   1.0000   0.0000   0.0000   0.0000   0.0000

          k = 0.0589 0.6482 0.6482 (   392 PWs)   bands (ev):

    -0.6653   1.9398   6.4551   7.1557  18.0425  19.1843  29.5027  29.6078

     occupation numbers 
     1.0000   1.0000   1.0000   1.0000   0.0000   0.0000   0.0000   0.0000

          k = 0.6482-0.0589-0.6482 (   392 PWs)   bands (ev):

    -0.6668   1.9443   6.4510   7.1562  18.0463  19.1807  29.4976  29.6092

     occupation numbers 
     1.0000   1.0000   1.0000   1.0000   0.0000   0.0000   0.0000   0.0000

          k = 0.0295 0.6187 0.6187 (   391 PWs)   bands (ev):

     0.0666   1.3472   5.7677   7.2415  18.2595  19.9835  29.2860  29.5828

     occupation numbers 
     1.0000   1.0000   1.0000   1.0000   0.0000   0.0000   0.0000   0.0000

          k = 0.6187-0.0295-0.6187 (   391 PWs)   bands (ev):

     0.0631   1.3532   5.7645   7.2419  18.2612  19.9818  29.2822  29.5837

     occupation numbers 
     1.0000   1.0000   1.0000   1.0000   0.0000   0.0000   0.0000   0.0000

          k = 0.0000 0.5893 0.5893 (   389 PWs)   bands (ev):

     0.6200   0.9993   5.0504   7.4094  18.4431  21.1710  28.8463  29.4063

     occupation numbers 
     1.0000   1.0000   1.0000   1.0000   0.0000   0.0000   0.0000   0.0000

          k = 0.0295 0.6776 0.6776 (   388 PWs)   bands (ev):

    -0.0993   1.2235   6.8506   7.0300  17.9534  18.4209  29.8898  29.8992

     occupation numbers 
     1.0000   1.0000   1.0000   1.0000   0.0000   0.0000   0.0000   0.0000

          k = 0.6776-0.0295-0.6776 (   388 PWs)   bands (ev):

    -0.1002   1.2251   6.8497   7.0301  17.9558  18.4186  29.8885  29.8996

     occupation numbers 
     1.0000   1.0000   1.0000   1.0000   0.0000   0.0000   0.0000   0.0000

          k = 0.0000 0.6482 0.6482 (   392 PWs)   bands (ev):

     0.5726   0.6552   6.3778   7.0944  18.1346  18.9465  29.7094  29.8336

     occupation numbers 
     1.0000   1.0000   1.0000   1.0000   0.0000   0.0000   0.0000   0.0000

          k = 0.1179 0.0589-0.0000 (   385 PWs)   bands (ev):

    -7.8286  11.8158  12.1296  12.9426  18.9112  19.9856  20.1142  26.6974

     occupation numbers 
     1.0000   1.0000   1.0000   1.0000   0.0000   0.0000   0.0000   0.0000

          k = 0.1473 0.0884-0.0295 (   380 PWs)   bands (ev):

    -7.5898  10.7899  11.6509  12.7550  19.1617  20.5020  20.6627  26.8095

     occupation numbers 
     1.0000   1.0000   1.0000   1.0000   0.0000   0.0000   0.0000   0.0000

          k =-0.1473-0.0884-0.0295 (   380 PWs)   bands (ev):

    -7.5898  10.7893  11.6446  12.7636  19.1567  20.5078  20.6607  26.8101

     occupation numbers 
     1.0000   1.0000   1.0000   1.0000   0.0000   0.0000   0.0000   0.0000

          k =-0.0295 0.1473 0.0884 (   380 PWs)   bands (ev):

    -7.5898  10.8264  11.6391  12.7215  19.1788  20.4910  20.6609  26.8052

     occupation numbers 
     1.0000   1.0000   1.0000   1.0000   0.0000   0.0000   0.0000   0.0000

          k = 0.1768 0.1179-0.0589 (   379 PWs)   bands (ev):

    -7.2567   9.5165  11.2470  12.4626  19.5561  21.0370  21.1460  26.9590

     occupation numbers 
     1.0000   1.0000   1.0000   1.0000   0.0000   0.0000   0.0000   0.0000

          k =-0.1768-0.1179-0.0589 (   379 PWs)   bands (ev):

    -7.2567   9.5151  11.2401  12.4732  19.5482  21.0437  21.1456  26.9606

     occupation numbers 
     1.0000   1.0000   1.0000   1.0000   0.0000   0.0000   0.0000   0.0000

          k =-0.0589 0.1768 0.1179 (   379 PWs)   bands (ev):

    -7.2567   9.5453  11.2382  12.4339  19.5707  21.0256  21.1438  26.9521

     occupation numbers 
     1.0000   1.0000   1.0000   1.0000   0.0000   0.0000   0.0000   0.0000

          k = 0.2062 0.1473-0.0884 (   383 PWs)   bands (ev):

    -6.8306   8.1501  10.8849  12.1093  20.0112  21.5216  21.5315  27.1472

     occupation numbers 
     1.0000   1.0000   1.0000   1.0000   0.0000   0.0000   0.0000   0.0000

          k =-0.2062-0.1473-0.0884 (   383 PWs)   bands (ev):

    -6.8306   8.1487  10.8782  12.1197  20.0006  21.5117  21.5504  27.1504

     occupation numbers 
     1.0000   1.0000   1.0000   1.0000   0.0000   0.0000   0.0000   0.0000

          k =-0.0884 0.2062 0.1473 (   383 PWs)   bands (ev):

    -6.8306   8.1737  10.8786  12.0842  20.0217  21.5059  21.5325  27.1379

     occupation numbers 
     1.0000   1.0000   1.0000   1.0000   0.0000   0.0000   0.0000   0.0000

          k = 0.2357 0.1768-0.1179 (   384 PWs)   bands (ev):

    -6.3132   6.7537  10.5731  11.7358  20.4533  21.8056  21.9199  27.3850

     occupation numbers 
     1.0000   1.0000   1.0000   1.0000   0.0000   0.0000   0.0000   0.0000

          k =-0.2357-0.1768-0.1179 (   384 PWs)   bands (ev):

    -6.3132   6.7526  10.5671  11.7452  20.4395  21.8047  21.9330  27.3901

     occupation numbers 
     1.0000   1.0000   1.0000   1.0000   0.0000   0.0000   0.0000   0.0000

          k =-0.1179 0.2357 0.1768 (   384 PWs)   bands (ev):

    -6.3132   6.7739  10.5691  11.7134  20.4590  21.8032  21.9067  27.3734

     occupation numbers 
     1.0000   1.0000   1.0000   1.0000   0.0000   0.0000   0.0000   0.0000

          k = 0.2652 0.2062-0.1473 (   388 PWs)   bands (ev):

    -5.7078   5.3659  10.3190  11.3711  20.8319  21.9814  22.2073  27.6809

     occupation numbers 
     1.0000   1.0000   1.0000   1.0000   0.0000   0.0000   0.0000   0.0000

          k =-0.2652-0.2062-0.1473 (   388 PWs)   bands (ev):

    -5.7078   5.3649  10.3141  11.3788  20.8139  21.9887  22.2165  27.6878

     occupation numbers 
     1.0000   1.0000   1.0000   1.0000   0.0000   0.0000   0.0000   0.0000

          k =-0.1473 0.2652 0.2062 (   388 PWs)   bands (ev):

    -5.7079   5.3836  10.3171  11.3505  20.8323  21.9807  22.1925  27.6666

     occupation numbers 
     1.0000   1.0000   1.0000   1.0000   0.0000   0.0000   0.0000   0.0000

          k = 0.2946 0.2357-0.1768 (   389 PWs)   bands (ev):

    -5.0196   4.0145  10.1267  11.0352  21.1259  22.0631  22.3994  28.0221

     occupation numbers 
     1.0000   1.0000   1.0000   1.0000   0.0000   0.0000   0.0000   0.0000

          k =-0.2946-0.2357-0.1768 (   389 PWs)   bands (ev):

    -5.0196   4.0138  10.1236  11.0404  21.1021  22.0818  22.4034  28.0302

     occupation numbers 
     1.0000   1.0000   1.0000   1.0000   0.0000   0.0000   0.0000   0.0000

          k =-0.1768 0.2946 0.2357 (   389 PWs)   bands (ev):

    -5.0201   4.0307  10.1269  11.0153  21.1202  22.0646  22.3845  28.0042

     occupation numbers 
     1.0000   1.0000   1.0000   1.0000   0.0000   0.0000   0.0000   0.0000

          k = 0.3241 0.2652-0.2062 (   394 PWs)   bands (ev):

    -4.2594   2.7255   9.9966  10.7425  21.3406  22.0653  22.5225  28.3671

     occupation numbers 
     1.0000   1.0000   1.0000   1.0000   0.0000   0.0000   0.0000   0.0000

          k =-0.3241-0.2652-0.2062 (   394 PWs)   bands (ev):

    -4.2593   2.7249   9.9967  10.7438  21.3089  22.0979  22.5213  28.3750

     occupation numbers 
     1.0000   1.0000   1.0000   1.0000   0.0000   0.0000   0.0000   0.0000

          k =-0.2062 0.3241 0.2652 (   394 PWs)   bands (ev):

    -4.2605   2.7410   9.9994  10.7221  21.3275  22.0710  22.5083  28.3447

     occupation numbers 
     1.0000   1.0000   1.0000   1.0000   0.0000   0.0000   0.0000   0.0000

          k = 0.3536 0.2946-0.2357 (   393 PWs)   bands (ev):

    -3.4526   1.5346   9.9256  10.5060  21.4956  22.0137  22.5990  28.6599

     occupation numbers 
     1.0000   1.0000   1.0000   1.0000   0.0000   0.0000   0.0000   0.0000

          k =-0.3536-0.2946-0.2357 (   393 PWs)   bands (ev):

    -3.4525   1.5342   9.9314  10.5009  21.4532  22.0618  22.5938  28.6665

     occupation numbers 
     1.0000   1.0000   1.0000   1.0000   0.0000   0.0000   0.0000   0.0000

          k =-0.2357 0.3536 0.2946 (   393 PWs)   bands (ev):

    -3.4552   1.5508   9.9319  10.4837  21.4725  22.0270  22.5856  28.6329

     occupation numbers 
     1.0000   1.0000   1.0000   1.0000   0.0000   0.0000   0.0000   0.0000

          k =-0.3241-0.3830 0.4419 (   393 PWs)   bands (ev):

    -2.6835   0.5327   9.9021  10.3430  21.6061  21.9418  22.6412  28.8527

     occupation numbers 
     1.0000   1.0000   1.0000   1.0000   0.0000   0.0000   0.0000   0.0000

          k = 0.3241 0.3830 0.4419 (   393 PWs)   bands (ev):

    -2.6834   0.5324   9.9184  10.3264  21.5505  22.0066  22.6332  28.8574

     occupation numbers 
     1.0000   1.0000   1.0000   1.0000   0.0000   0.0000   0.0000   0.0000

          k = 0.4419-0.3241-0.3830 (   393 PWs)   bands (ev):

    -2.6895   0.5517   9.9131  10.3167  21.5689  21.9679  22.6283  28.8223

     occupation numbers 
     1.0000   1.0000   1.0000   1.0000   0.0000   0.0000   0.0000   0.0000

          k =-0.2946-0.3536 0.4125 (   394 PWs)   bands (ev):

    -2.2841   0.0552   9.9008  10.2817  21.6552  21.9013  22.6547  28.9195

     occupation numbers 
     1.0000   1.0000   1.0000   1.0000   0.0000   0.0000   0.0000   0.0000

          k = 0.4125-0.2946-0.3536 (   394 PWs)   bands (ev):

    -2.2939   0.0780   9.9151  10.2525  21.6070  21.9381  22.6420  28.8879

     occupation numbers 
     1.0000   1.0000   1.0000   1.0000   0.0000   0.0000   0.0000   0.0000

          k = 0.1768 0.0589 0.0000 (   383 PWs)   bands (ev):

    -7.5103  10.9683  11.3339  12.3498  18.7127  21.0459  21.0831  26.6055

     occupation numbers 
     1.0000   1.0000   1.0000   1.0000   0.0000   0.0000   0.0000   0.0000

          k = 0.2062 0.0884-0.0295 (   381 PWs)   bands (ev):

    -7.2090   9.9063  10.8454  12.1398  18.9568  21.5886  21.6188  26.5586

     occupation numbers 
     1.0000   1.0000   1.0000   1.0000   0.0000   0.0000   0.0000   0.0000

          k =-0.2062-0.0884-0.0295 (   381 PWs)   bands (ev):

    -7.2090   9.9045  10.8395  12.1495  18.9525  21.5810  21.6293  26.5602

     occupation numbers 
     1.0000   1.0000   1.0000   1.0000   0.0000   0.0000   0.0000   0.0000

          k =-0.0295 0.2062 0.0884 (   381 PWs)   bands (ev):

    -7.2090   9.9389  10.8350  12.1099  18.9666  21.5836  21.6160  26.5539

     occupation numbers 
     1.0000   1.0000   1.0000   1.0000   0.0000   0.0000   0.0000   0.0000

          k = 0.2357 0.1179-0.0589 (   382 PWs)   bands (ev):

    -6.8144   8.6274  10.4645  11.8372  19.3507  22.0031  22.1470  26.5388

     occupation numbers 
     1.0000   1.0000   1.0000   1.0000   0.0000   0.0000   0.0000   0.0000

          k =-0.2357-0.1179-0.0589 (   382 PWs)   bands (ev):

    -6.8144   8.6248  10.4585  11.8488  19.3430  21.9977  22.1580  26.5427

     occupation numbers 
     1.0000   1.0000   1.0000   1.0000   0.0000   0.0000   0.0000   0.0000

          k =-0.0589 0.2357 0.1179 (   382 PWs)   bands (ev):

    -6.8144   8.6535  10.4569  11.8115  19.3582  21.9989  22.1416  26.5329

     occupation numbers 
     1.0000   1.0000   1.0000   1.0000   0.0000   0.0000   0.0000   0.0000

          k = 0.2652 0.1473-0.0884 (   385 PWs)   bands (ev):

    -6.3281   7.2775  10.1442  11.4763  19.8017  22.3031  22.5915  26.5952

     occupation numbers 
     1.0000   1.0000   1.0000   1.0000   0.0000   0.0000   0.0000   0.0000

          k =-0.2652-0.1473-0.0884 (   385 PWs)   bands (ev):

    -6.3281   7.2750  10.1390  11.4870  19.7906  22.3007  22.6027  26.6026

     occupation numbers 
     1.0000   1.0000   1.0000   1.0000   0.0000   0.0000   0.0000   0.0000

          k =-0.0884 0.2652 0.1473 (   385 PWs)   bands (ev):

    -6.3281   7.2991  10.1393  11.4534  19.8054  22.2993  22.5842  26.5890

     occupation numbers 
     1.0000   1.0000   1.0000   1.0000   0.0000   0.0000   0.0000   0.0000

          k = 0.2946 0.1768-0.1179 (   388 PWs)   bands (ev):

    -5.7528   5.9124   9.8849  11.0970  20.2291  22.4935  22.9243  26.7809

     occupation numbers 
     1.0000   1.0000   1.0000   1.0000   0.0000   0.0000   0.0000   0.0000

          k =-0.2946-0.1768-0.1179 (   388 PWs)   bands (ev):

    -5.7528   5.9102   9.8815  11.1052  20.2139  22.4965  22.9340  26.7922

     occupation numbers 
     1.0000   1.0000   1.0000   1.0000   0.0000   0.0000   0.0000   0.0000

          k =-0.1179 0.2946 0.1768 (   388 PWs)   bands (ev):

    -5.7529   5.9310   9.8825  11.0757  20.2281  22.4904  22.9157  26.7745

     occupation numbers 
     1.0000   1.0000   1.0000   1.0000   0.0000   0.0000   0.0000   0.0000

          k = 0.3241 0.2062-0.1473 (   389 PWs)   bands (ev):

    -5.0929   4.5672   9.6875  10.7310  20.5827  22.5832  23.1481  27.1186

     occupation numbers 
     1.0000   1.0000   1.0000   1.0000   0.0000   0.0000   0.0000   0.0000

          k =-0.3241-0.2062-0.1473 (   389 PWs)   bands (ev):

    -5.0929   4.5655   9.6871  10.7351  20.5628  22.5946  23.1547  27.1328

     occupation numbers 
     1.0000   1.0000   1.0000   1.0000   0.0000   0.0000   0.0000   0.0000

          k =-0.1473 0.3241 0.2062 (   389 PWs)   bands (ev):

    -5.0933   4.5840   9.6879  10.7100  20.5764  22.5818  23.1390  27.1107

     occupation numbers 
     1.0000   1.0000   1.0000   1.0000   0.0000   0.0000   0.0000   0.0000

          k = 0.3536 0.2357-0.1768 (   390 PWs)   bands (ev):

    -4.3570   3.2701   9.5476  10.4045  20.8510  22.5864  23.2865  27.5774

     occupation numbers 
     1.0000   1.0000   1.0000   1.0000   0.0000   0.0000   0.0000   0.0000

          k =-0.3536-0.2357-0.1768 (   390 PWs)   bands (ev):

    -4.3569   3.2688   9.5526  10.4021  20.8259  22.6082  23.2889  27.5929

     occupation numbers 
     1.0000   1.0000   1.0000   1.0000   0.0000   0.0000   0.0000   0.0000

          k =-0.1768 0.3536 0.2357 (   390 PWs)   bands (ev):

    -4.3579   3.2859   9.5517  10.3821  20.8392  22.5880  23.2772  27.5661

     occupation numbers 
     1.0000   1.0000   1.0000   1.0000   0.0000   0.0000   0.0000   0.0000

          k = 0.3830 0.2652-0.2062 (   391 PWs)   bands (ev):

    -3.5637   2.0530   9.4512  10.1463  21.0526  22.5236  23.3655  28.0794

     occupation numbers 
     1.0000   1.0000   1.0000   1.0000   0.0000   0.0000   0.0000   0.0000

          k =-0.3830-0.2652-0.2062 (   391 PWs)   bands (ev):

    -3.5637   2.0520   9.4654  10.1332  21.0224  22.5562  23.3637  28.0941

     occupation numbers 
     1.0000   1.0000   1.0000   1.0000   0.0000   0.0000   0.0000   0.0000

          k =-0.2062 0.3830 0.2652 (   391 PWs)   bands (ev):

    -3.5658   2.0689   9.4599  10.1207  21.0354  22.5294  23.3561  28.0625

     occupation numbers 
     1.0000   1.0000   1.0000   1.0000   0.0000   0.0000   0.0000   0.0000

          k =-0.2946-0.4125 0.4714 (   389 PWs)   bands (ev):

    -2.7681   0.9794   9.3689   9.9946  21.2172  22.4171  23.4033  28.5205

     occupation numbers 
     1.0000   1.0000   1.0000   1.0000   0.0000   0.0000   0.0000   0.0000

          k = 0.2946 0.4125 0.4714 (   389 PWs)   bands (ev):

    -2.7680   0.9787   9.3953   9.9681  21.1820  22.4599  23.3980  28.5328

     occupation numbers 
     1.0000   1.0000   1.0000   1.0000   0.0000   0.0000   0.0000   0.0000

          k = 0.4714-0.2946-0.4125 (   389 PWs)   bands (ev):

    -2.7728   0.9974   9.3815   9.9660  21.1944  22.4282  23.3937  28.4971

     occupation numbers 
     1.0000   1.0000   1.0000   1.0000   0.0000   0.0000   0.0000   0.0000

          k =-0.2652-0.3830 0.4419 (   392 PWs)   bands (ev):

    -2.1850   0.2694   9.2767   9.9789  21.3684  22.2858  23.4095  28.7964

     occupation numbers 
     1.0000   1.0000   1.0000   1.0000   0.0000   0.0000   0.0000   0.0000

          k = 0.2652 0.3830 0.4419 (   392 PWs)   bands (ev):

    -2.1850   0.2691   9.3097   9.9444  21.3279  22.3382  23.4011  28.8051

     occupation numbers 
     1.0000   1.0000   1.0000   1.0000   0.0000   0.0000   0.0000   0.0000

          k = 0.4419-0.2652-0.3830 (   392 PWs)   bands (ev):

    -2.1944   0.2918   9.2887   9.9511  21.3395  22.3034  23.3994  28.7679

     occupation numbers 
     1.0000   1.0000   1.0000   1.0000   0.0000   0.0000   0.0000   0.0000

          k =-0.2357-0.3536 0.4125 (   392 PWs)   bands (ev):

    -2.3272   0.4380   9.1908  10.0854  21.5144  22.1435  23.3878  28.8365

     occupation numbers 
     1.0000   1.0000   1.0000   1.0000   0.0000   0.0000   0.0000   0.0000

          k = 0.2357 0.3536 0.4125 (   392 PWs)   bands (ev):

    -2.3274   0.4381   9.2235  10.0498  21.4680  22.2054  23.3764  28.8418

     occupation numbers 
     1.0000   1.0000   1.0000   1.0000   0.0000   0.0000   0.0000   0.0000

          k = 0.4125-0.2357-0.3536 (   392 PWs)   bands (ev):

    -2.3351   0.4590   9.1998  10.0603  21.4781  22.1695  23.3770  28.8068

     occupation numbers 
     1.0000   1.0000   1.0000   1.0000   0.0000   0.0000   0.0000   0.0000

          k =-0.2062-0.3241 0.3830 (   394 PWs)   bands (ev):

    -3.0277   1.3177   9.1418  10.2832  21.6314  22.0118  23.3366  28.6373

     occupation numbers 
     1.0000   1.0000   1.0000   1.0000   0.0000   0.0000   0.0000   0.0000

          k = 0.2062 0.3241 0.3830 (   394 PWs)   bands (ev):

    -3.0279   1.3181   9.1721  10.2484  21.5816  22.0801  23.3220  28.6405

     occupation numbers 
     1.0000   1.0000   1.0000   1.0000   0.0000   0.0000   0.0000   0.0000

          k = 0.3830-0.2062-0.3241 (   394 PWs)   bands (ev):

    -3.0313   1.3349   9.1480  10.2598  21.5868  22.0478  23.3246  28.6111

     occupation numbers 
     1.0000   1.0000   1.0000   1.0000   0.0000   0.0000   0.0000   0.0000

          k =-0.1768-0.2946 0.3536 (   393 PWs)   bands (ev):

    -3.8335   2.4524   9.1482  10.5504  21.6048  21.9789  23.2493  28.2650

     occupation numbers 
     1.0000   1.0000   1.0000   1.0000   0.0000   0.0000   0.0000   0.0000

          k = 0.1768 0.2946 0.3536 (   393 PWs)   bands (ev):

    -3.8337   2.4532   9.1763  10.5164  21.5836  22.0216  23.2309  28.2676

     occupation numbers 
     1.0000   1.0000   1.0000   1.0000   0.0000   0.0000   0.0000   0.0000

          k = 0.3536-0.1768-0.2946 (   393 PWs)   bands (ev):

    -3.8351   2.4685   9.1523  10.5276  21.5737  22.0040  23.2356  28.2446

     occupation numbers 
     1.0000   1.0000   1.0000   1.0000   0.0000   0.0000   0.0000   0.0000

          k =-0.1473-0.2652 0.3241 (   393 PWs)   bands (ev):

    -4.6108   3.7022   9.2191  10.8720  21.3902  22.0445  23.1113  27.8225

     occupation numbers 
     1.0000   1.0000   1.0000   1.0000   0.0000   0.0000   0.0000   0.0000

          k = 0.1473 0.2652 0.3241 (   393 PWs)   bands (ev):

    -4.6109   3.7034   9.2452  10.8384  21.4022  22.0569  23.0887  27.8252

     occupation numbers 
     1.0000   1.0000   1.0000   1.0000   0.0000   0.0000   0.0000   0.0000

          k = 0.3241-0.1473-0.2652 (   393 PWs)   bands (ev):

    -4.6115   3.7186   9.2213  10.8488  21.3826  22.0501  23.0955  27.8078

     occupation numbers 
     1.0000   1.0000   1.0000   1.0000   0.0000   0.0000   0.0000   0.0000

          k =-0.1179-0.2357 0.2946 (   391 PWs)   bands (ev):

    -5.3225   5.0198   9.3588  11.2334  21.0670  22.0797  22.8988  27.4133

     occupation numbers 
     1.0000   1.0000   1.0000   1.0000   0.0000   0.0000   0.0000   0.0000

          k = 0.1179 0.2357 0.2946 (   391 PWs)   bands (ev):

    -5.3225   5.0217   9.3832  11.1997  21.0909  22.0829  22.8724  27.4157

     occupation numbers 
     1.0000   1.0000   1.0000   1.0000   0.0000   0.0000   0.0000   0.0000

          k = 0.2946-0.1179-0.2357 (   391 PWs)   bands (ev):

    -5.3227   5.0377   9.3592  11.2088  21.0717  22.0784  22.8807  27.4026

     occupation numbers 
     1.0000   1.0000   1.0000   1.0000   0.0000   0.0000   0.0000   0.0000

          k =-0.0884-0.2062 0.2652 (   386 PWs)   bands (ev):

    -5.9546   6.3754   9.5691  11.6170  20.6601  22.0279  22.5829  27.1121

     occupation numbers 
     1.0000   1.0000   1.0000   1.0000   0.0000   0.0000   0.0000   0.0000

          k = 0.0884 0.2062 0.2652 (   386 PWs)   bands (ev):

    -5.9546   6.3783   9.5918  11.5829  20.6872  22.0299  22.5546  27.1129

     occupation numbers 
     1.0000   1.0000   1.0000   1.0000   0.0000   0.0000   0.0000   0.0000

          k = 0.2652-0.0884-0.2062 (   386 PWs)   bands (ev):

    -5.9547   6.3958   9.5676  11.5902  20.6722  22.0253  22.5632  27.1036

     occupation numbers 
     1.0000   1.0000   1.0000   1.0000   0.0000   0.0000   0.0000   0.0000

          k =-0.0589-0.1768 0.2357 (   384 PWs)   bands (ev):

    -6.5005   7.7361   9.8522  11.9989  20.2007  21.8641  22.1502  26.9407

     occupation numbers 
     1.0000   1.0000   1.0000   1.0000   0.0000   0.0000   0.0000   0.0000

          k = 0.0589 0.1768 0.2357 (   384 PWs)   bands (ev):

    -6.5005   7.7413   9.8724  11.9640  20.2274  21.8671  22.1225  26.9389

     occupation numbers 
     1.0000   1.0000   1.0000   1.0000   0.0000   0.0000   0.0000   0.0000

          k = 0.2357-0.0589-0.1768 (   384 PWs)   bands (ev):

    -6.5005   7.7604   9.8482  11.9691  20.2181  21.8623  22.1302  26.9331

     occupation numbers 
     1.0000   1.0000   1.0000   1.0000   0.0000   0.0000   0.0000   0.0000

          k =-0.0295-0.1473 0.2062 (   382 PWs)   bands (ev):

    -6.9564   9.0479  10.2202  12.3455  19.7453  21.5770  21.6226  26.8664

     occupation numbers 
     1.0000   1.0000   1.0000   1.0000   0.0000   0.0000   0.0000   0.0000

          k = 0.0295 0.1473 0.2062 (   382 PWs)   bands (ev):

    -6.9564   9.0588  10.2351  12.3094  19.7705  21.5795  21.5985  26.8623

     occupation numbers 
     1.0000   1.0000   1.0000   1.0000   0.0000   0.0000   0.0000   0.0000

          k = 0.2062-0.0295-0.1473 (   382 PWs)   bands (ev):

    -6.9564   9.0779  10.2130  12.3120  19.7666  21.5741  21.6053  26.8597

     occupation numbers 
     1.0000   1.0000   1.0000   1.0000   0.0000   0.0000   0.0000   0.0000

          k = 0.0000 0.1179 0.1768 (   382 PWs)   bands (ev):

    -7.3200  10.1777  10.7691  12.5754  19.3943  21.0274  21.1734  26.8305

     occupation numbers 
     1.0000   1.0000   1.0000   1.0000   0.0000   0.0000   0.0000   0.0000

          k = 0.2357 0.0589 0.0000 (   385 PWs)   bands (ev):

    -7.0664  10.0808  10.5019  11.5309  18.4694  22.1972  22.2635  26.0445

     occupation numbers 
     1.0000   1.0000   1.0000   1.0000   0.0000   0.0000   0.0000   0.0000

          k = 0.2652 0.0884-0.0295 (   384 PWs)   bands (ev):

    -6.7036   9.0243  10.0312  11.2960  18.7147  22.6593  22.8485  25.7756

     occupation numbers 
     1.0000   1.0000   1.0000   1.0000   0.0000   0.0000   0.0000   0.0000

          k =-0.2652-0.0884-0.0295 (   384 PWs)   bands (ev):

    -6.7036   9.0210  10.0278  11.3046  18.7110  22.6568  22.8535  25.7782

     occupation numbers 
     1.0000   1.0000   1.0000   1.0000   0.0000   0.0000   0.0000   0.0000

          k =-0.0295 0.2652 0.0884 (   384 PWs)   bands (ev):

    -6.7036   9.0540  10.0230  11.2684  18.7213  22.6572  22.8438  25.7715

     occupation numbers 
     1.0000   1.0000   1.0000   1.0000   0.0000   0.0000   0.0000   0.0000

          k = 0.2946 0.1179-0.0589 (   385 PWs)   bands (ev):

    -6.2488   7.7725   9.6862  10.9746  19.1123  23.0003  23.3574  25.6096

     occupation numbers 
     1.0000   1.0000   1.0000   1.0000   0.0000   0.0000   0.0000   0.0000

          k =-0.2946-0.1179-0.0589 (   385 PWs)   bands (ev):

    -6.2488   7.7683   9.6838  10.9839  19.1050  22.9989  23.3636  25.6165

     occupation numbers 
     1.0000   1.0000   1.0000   1.0000   0.0000   0.0000   0.0000   0.0000

          k =-0.0589 0.2946 0.1179 (   385 PWs)   bands (ev):

    -6.2488   7.7964   9.6809  10.9502  19.1165  22.9969  23.3521  25.6061

     occupation numbers 
     1.0000   1.0000   1.0000   1.0000   0.0000   0.0000   0.0000   0.0000

          k = 0.3241 0.1473-0.0884 (   390 PWs)   bands (ev):

    -5.7045   6.4631   9.4100  10.6013  19.5579  23.2205  23.7521  25.6277

     occupation numbers 
     1.0000   1.0000   1.0000   1.0000   0.0000   0.0000   0.0000   0.0000

          k =-0.3241-0.1473-0.0884 (   390 PWs)   bands (ev):

    -5.7045   6.4592   9.4099  10.6077  19.5465  23.2228  23.7570  25.6405

     occupation numbers 
     1.0000   1.0000   1.0000   1.0000   0.0000   0.0000   0.0000   0.0000

          k =-0.0884 0.3241 0.1473 (   390 PWs)   bands (ev):

    -5.7045   6.4832   9.4078  10.5783  19.5582  23.2164  23.7458  25.6259

     occupation numbers 
     1.0000   1.0000   1.0000   1.0000   0.0000   0.0000   0.0000   0.0000

          k = 0.3536 0.1768-0.1179 (   390 PWs)   bands (ev):

    -5.0742   5.1479   9.1931  10.2220  19.9633  23.3277  24.0247  25.8843

     occupation numbers 
     1.0000   1.0000   1.0000   1.0000   0.0000   0.0000   0.0000   0.0000

          k =-0.3536-0.1768-0.1179 (   390 PWs)   bands (ev):

    -5.0742   5.1447   9.1975  10.2228  19.9474  23.3366  24.0268  25.9023

     occupation numbers 
     1.0000   1.0000   1.0000   1.0000   0.0000   0.0000   0.0000   0.0000

          k =-0.1179 0.3536 0.1768 (   390 PWs)   bands (ev):

    -5.0745   5.1656   9.1945  10.1989  19.9589  23.3241  24.0183  25.8832

     occupation numbers 
     1.0000   1.0000   1.0000   1.0000   0.0000   0.0000   0.0000   0.0000

          k = 0.3830 0.2062-0.1473 (   391 PWs)   bands (ev):

    -4.3651   3.8614   9.0211   9.8820  20.2842  23.3381  24.1966  26.3718

     occupation numbers 
     1.0000   1.0000   1.0000   1.0000   0.0000   0.0000   0.0000   0.0000

          k =-0.3830-0.2062-0.1473 (   391 PWs)   bands (ev):

    -4.3651   3.8589   9.0333   9.8736  20.2640  23.3555  24.1959  26.3925

     occupation numbers 
     1.0000   1.0000   1.0000   1.0000   0.0000   0.0000   0.0000   0.0000

          k =-0.1473 0.3830 0.2062 (   391 PWs)   bands (ev):

    -4.3658   3.8777   9.0270   9.8569  20.2750  23.3367  24.1902  26.3694

     occupation numbers 
     1.0000   1.0000   1.0000   1.0000   0.0000   0.0000   0.0000   0.0000

          k = 0.4125 0.2357-0.1768 (   393 PWs)   bands (ev):

    -3.5914   2.6357   8.8632   9.6335  20.5267  23.2729  24.2941  27.0240

     occupation numbers 
     1.0000   1.0000   1.0000   1.0000   0.0000   0.0000   0.0000   0.0000

          k =-0.4125-0.2357-0.1768 (   393 PWs)   bands (ev):

    -3.5913   2.6338   8.8861   9.6128  20.5028  23.2991  24.2909  27.0450

     occupation numbers 
     1.0000   1.0000   1.0000   1.0000   0.0000   0.0000   0.0000   0.0000

          k =-0.1768 0.4125 0.2357 (   393 PWs)   bands (ev):

    -3.5930   2.6518   8.8732   9.6058  20.5131  23.2750  24.2875  27.0178

     occupation numbers 
     1.0000   1.0000   1.0000   1.0000   0.0000   0.0000   0.0000   0.0000

          k =-0.2652-0.4419 0.5009 (   388 PWs)   bands (ev):

    -2.7905   1.5202   8.6850   9.5248  20.7248  23.1522  24.3370  27.7327

     occupation numbers 
     1.0000   1.0000   1.0000   1.0000   0.0000   0.0000   0.0000   0.0000

          k = 0.2652 0.4419 0.5009 (   388 PWs)   bands (ev):

    -2.7903   1.5187   8.7153   9.4949  20.6980  23.1864  24.3314  27.7524

     occupation numbers 
     1.0000   1.0000   1.0000   1.0000   0.0000   0.0000   0.0000   0.0000

          k = 0.5009-0.2652-0.4419 (   388 PWs)   bands (ev):

    -2.7942   1.5375   8.6958   9.4972  20.7074  23.1583  24.3299  27.7201

     occupation numbers 
     1.0000   1.0000   1.0000   1.0000   0.0000   0.0000   0.0000   0.0000

          k =-0.2357-0.4125 0.4714 (   391 PWs)   bands (ev):

    -2.0975   0.6569   8.4939   9.5571  20.9129  22.9909  24.3390  28.3493

     occupation numbers 
     1.0000   1.0000   1.0000   1.0000   0.0000   0.0000   0.0000   0.0000

          k = 0.2357 0.4125 0.4714 (   391 PWs)   bands (ev):

    -2.0974   0.6561   8.5248   9.5248  20.8839  23.0320  24.3307  28.3660

     occupation numbers 
     1.0000   1.0000   1.0000   1.0000   0.0000   0.0000   0.0000   0.0000

          k = 0.4714-0.2357-0.4125 (   391 PWs)   bands (ev):

    -2.1055   0.6782   8.5025   9.5318  20.8923  23.0013  24.3311  28.3282

     occupation numbers 
     1.0000   1.0000   1.0000   1.0000   0.0000   0.0000   0.0000   0.0000

          k =-0.2062-0.3830 0.4419 (   394 PWs)   bands (ev):

    -1.9608   0.4983   8.3252   9.6992  21.1126  22.7981  24.3079  28.6885

     occupation numbers 
     1.0000   1.0000   1.0000   1.0000   0.0000   0.0000   0.0000   0.0000

          k = 0.2062 0.3830 0.4419 (   394 PWs)   bands (ev):

    -1.9610   0.4983   8.3541   9.6671  21.0817  22.8449  24.2966  28.7001

     occupation numbers 
     1.0000   1.0000   1.0000   1.0000   0.0000   0.0000   0.0000   0.0000

          k = 0.4419-0.2062-0.3830 (   394 PWs)   bands (ev):

    -1.9703   0.5212   8.3316   9.6759  21.0891  22.8128  24.2988  28.6607

     occupation numbers 
     1.0000   1.0000   1.0000   1.0000   0.0000   0.0000   0.0000   0.0000

          k =-0.1768-0.3536 0.4125 (   390 PWs)   bands (ev):

    -2.5391   1.2036   8.2052   9.9259  21.3297  22.5740  24.2450  28.6208

     occupation numbers 
     1.0000   1.0000   1.0000   1.0000   0.0000   0.0000   0.0000   0.0000

          k = 0.1768 0.3536 0.4125 (   390 PWs)   bands (ev):

    -2.5394   1.2042   8.2318   9.8943  21.2970  22.6259  24.2302  28.6276

     occupation numbers 
     1.0000   1.0000   1.0000   1.0000   0.0000   0.0000   0.0000   0.0000

          k = 0.4125-0.1768-0.3536 (   390 PWs)   bands (ev):

    -2.5439   1.2223   8.2097   9.9034  21.3034  22.5937  24.2343  28.5938

     occupation numbers 
     1.0000   1.0000   1.0000   1.0000   0.0000   0.0000   0.0000   0.0000

          k =-0.1473-0.3241 0.3830 (   392 PWs)   bands (ev):

    -3.3284   2.2663   8.1480  10.2203  21.5539  22.3115  24.1444  28.2198

     occupation numbers 
     1.0000   1.0000   1.0000   1.0000   0.0000   0.0000   0.0000   0.0000

          k = 0.1473 0.3241 0.3830 (   392 PWs)   bands (ev):

    -3.3287   2.2675   8.1725  10.1889  21.5181  22.3689  24.1255  28.2246

     occupation numbers 
     1.0000   1.0000   1.0000   1.0000   0.0000   0.0000   0.0000   0.0000

          k = 0.3830-0.1473-0.3241 (   392 PWs)   bands (ev):

    -3.3306   2.2832   8.1510  10.1977  21.5235  22.3381  24.1313  28.1996

     occupation numbers 
     1.0000   1.0000   1.0000   1.0000   0.0000   0.0000   0.0000   0.0000

          k =-0.1179-0.2946 0.3536 (   391 PWs)   bands (ev):

    -4.1166   3.4681   8.1619  10.5682  21.7376  22.0208  23.9894  27.6815

     occupation numbers 
     1.0000   1.0000   1.0000   1.0000   0.0000   0.0000   0.0000   0.0000

          k = 0.1179 0.2946 0.3536 (   391 PWs)   bands (ev):

    -4.1168   3.4699   8.1845  10.5367  21.6956  22.0862  23.9659  27.6866

     occupation numbers 
     1.0000   1.0000   1.0000   1.0000   0.0000   0.0000   0.0000   0.0000

          k = 0.3536-0.1179-0.2946 (   391 PWs)   bands (ev):

    -4.1176   3.4850   8.1634  10.5446  21.6985  22.0601  23.9730  27.6689

     occupation numbers 
     1.0000   1.0000   1.0000   1.0000   0.0000   0.0000   0.0000   0.0000

          k =-0.0884-0.2652 0.3241 (   394 PWs)   bands (ev):

    -4.8487   4.7423   8.2528  10.9537  21.5389  21.9973  23.7475  27.1826

     occupation numbers 
     1.0000   1.0000   1.0000   1.0000   0.0000   0.0000   0.0000   0.0000

          k = 0.0884 0.2652 0.3241 (   394 PWs)   bands (ev):

    -4.8488   4.7453   8.2734  10.9218  21.5526  22.0083  23.7199  27.1879

     occupation numbers 
     1.0000   1.0000   1.0000   1.0000   0.0000   0.0000   0.0000   0.0000

          k = 0.3241-0.0884-0.2652 (   394 PWs)   bands (ev):

    -4.8491   4.7607   8.2527  10.9285  21.5394  22.0022  23.7272  27.1756

     occupation numbers 
     1.0000   1.0000   1.0000   1.0000   0.0000   0.0000   0.0000   0.0000

          k =-0.0589-0.2357 0.2946 (   387 PWs)   bands (ev):

    -5.5055   6.0492   8.4288  11.3567  21.0875  22.0756  23.3774  26.8481

     occupation numbers 
     1.0000   1.0000   1.0000   1.0000   0.0000   0.0000   0.0000   0.0000

          k = 0.0589 0.2357 0.2946 (   387 PWs)   bands (ev):

    -5.5055   6.0544   8.4466  11.3241  21.1156  22.0731  23.3481  26.8514

     occupation numbers 
     1.0000   1.0000   1.0000   1.0000   0.0000   0.0000   0.0000   0.0000

          k = 0.2946-0.0589-0.2357 (   387 PWs)   bands (ev):

    -5.5056   6.0705   8.4266  11.3291  21.1042  22.0708  23.3541  26.8438

     occupation numbers 
     1.0000   1.0000   1.0000   1.0000   0.0000   0.0000   0.0000   0.0000

          k =-0.0295-0.2062 0.2652 (   384 PWs)   bands (ev):

    -6.0785   7.3326   8.7151  11.7496  20.5890  22.0482  22.8669  26.7231

     occupation numbers 
     1.0000   1.0000   1.0000   1.0000   0.0000   0.0000   0.0000   0.0000

          k = 0.0295 0.2062 0.2652 (   384 PWs)   bands (ev):

    -6.0785   7.3434   8.7272  11.7162  20.6176  22.0455  22.8387  26.7221

     occupation numbers 
     1.0000   1.0000   1.0000   1.0000   0.0000   0.0000   0.0000   0.0000

          k = 0.2652-0.0295-0.2062 (   384 PWs)   bands (ev):

    -6.0785   7.3584   8.7099  11.7189  20.6120  22.0440  22.8421  26.7187

     occupation numbers 
     1.0000   1.0000   1.0000   1.0000   0.0000   0.0000   0.0000   0.0000

          k =-0.0000 0.1768 0.2357 (   383 PWs)   bands (ev):

    -6.5631   8.4411   9.2460  12.0607  20.1406  21.8835  22.2323  26.7552

     occupation numbers 
     1.0000   1.0000   1.0000   1.0000   0.0000   0.0000   0.0000   0.0000

          k = 0.2946 0.0589-0.0000 (   389 PWs)   bands (ev):

    -6.4986   9.1809   9.7027  10.5777  18.2190  23.3957  23.5363  24.9841

     occupation numbers 
     1.0000   1.0000   1.0000   1.0000   0.0000   0.0000   0.0000   0.0000

          k = 0.3241 0.0884-0.0295 (   387 PWs)   bands (ev):

    -6.0757   8.1570   9.2569  10.3192  18.4766  23.7994  24.1244  24.6022

     occupation numbers 
     1.0000   1.0000   1.0000   1.0000   0.0000   0.0000   0.0000   0.0000

          k =-0.3241-0.0884-0.0295 (   387 PWs)   bands (ev):

    -6.0757   8.1517   9.2577  10.3252  18.4731  23.7986  24.1240  24.6093

     occupation numbers 
     1.0000   1.0000   1.0000   1.0000   0.0000   0.0000   0.0000   0.0000

          k =-0.0295 0.3241 0.0884 (   387 PWs)   bands (ev):

    -6.0758   8.1842   9.2511  10.2929  18.4813  23.7976  24.1200  24.5987

     occupation numbers 
     1.0000   1.0000   1.0000   1.0000   0.0000   0.0000   0.0000   0.0000

          k = 0.3536 0.1179-0.0589 (   389 PWs)   bands (ev):

    -5.5628   6.9596   8.9408   9.9780  18.8828  24.0708  24.3903  24.6382

     occupation numbers 
     1.0000   1.0000   1.0000   1.0000   0.0000   0.0000   0.0000   0.0000

          k =-0.3536-0.1179-0.0589 (   389 PWs)   bands (ev):

    -5.5628   6.9536   8.9452   9.9816  18.8753  24.0732  24.3751  24.6647

     occupation numbers 
     1.0000   1.0000   1.0000   1.0000   0.0000   0.0000   0.0000   0.0000

          k =-0.0589 0.3536 0.1179 (   389 PWs)   bands (ev):

    -5.5629   6.9819   8.9388   9.9532  18.8849  24.0634  24.3922  24.6338

     occupation numbers 
     1.0000   1.0000   1.0000   1.0000   0.0000   0.0000   0.0000   0.0000

          k = 0.3830 0.1473-0.0884 (   391 PWs)   bands (ev):

    -4.9633   5.7128   8.6841   9.6076  19.3187  24.1968  24.4912  25.0064

     occupation numbers 
     1.0000   1.0000   1.0000   1.0000   0.0000   0.0000   0.0000   0.0000

          k =-0.3830-0.1473-0.0884 (   391 PWs)   bands (ev):

    -4.9632   5.7074   8.6949   9.6040  19.3067  24.2105  24.4756  25.0314

     occupation numbers 
     1.0000   1.0000   1.0000   1.0000   0.0000   0.0000   0.0000   0.0000

          k =-0.0884 0.3830 0.1473 (   391 PWs)   bands (ev):

    -4.9635   5.7318   8.6864   9.5823  19.3167  24.1831  24.5030  25.0002

     occupation numbers 
     1.0000   1.0000   1.0000   1.0000   0.0000   0.0000   0.0000   0.0000

          k = 0.4125 0.1768-0.1179 (   392 PWs)   bands (ev):

    -4.2828   4.4659   8.4493   9.2816  19.6925  24.2262  24.8391  25.3019

     occupation numbers 
     1.0000   1.0000   1.0000   1.0000   0.0000   0.0000   0.0000   0.0000

          k =-0.4125-0.1768-0.1179 (   392 PWs)   bands (ev):

    -4.2827   4.4615   8.4697   9.2667  19.6761  24.2468  24.8157  25.3371

     occupation numbers 
     1.0000   1.0000   1.0000   1.0000   0.0000   0.0000   0.0000   0.0000

          k =-0.1179 0.4125 0.1768 (   392 PWs)   bands (ev):

    -4.2833   4.4830   8.4561   9.2545  19.6859  24.2185  24.8490  25.2941

     occupation numbers 
     1.0000   1.0000   1.0000   1.0000   0.0000   0.0000   0.0000   0.0000

          k = 0.4419 0.2062-0.1473 (   392 PWs)   bands (ev):

    -3.5326   3.2556   8.1924   9.0743  19.9771  24.1814  25.1990  25.7471

     occupation numbers 
     1.0000   1.0000   1.0000   1.0000   0.0000   0.0000   0.0000   0.0000

          k =-0.4419-0.2062-0.1473 (   392 PWs)   bands (ev):

    -3.5325   3.2522   8.2210   9.0493  19.9572  24.2073  25.1736  25.7868

     occupation numbers 
     1.0000   1.0000   1.0000   1.0000   0.0000   0.0000   0.0000   0.0000

          k =-0.1473 0.4419 0.2062 (   392 PWs)   bands (ev):

    -3.5339   3.2720   8.2011   9.0471  19.9662  24.1801  25.2014  25.7421

     occupation numbers 
     1.0000   1.0000   1.0000   1.0000   0.0000   0.0000   0.0000   0.0000

          k =-0.2357-0.4714 0.5303 (   389 PWs)   bands (ev):

    -2.7396   2.1255   7.9046   9.0149  20.2015  24.0675  25.3238  26.5351

     occupation numbers 
     1.0000   1.0000   1.0000   1.0000   0.0000   0.0000   0.0000   0.0000

          k = 0.2357 0.4714 0.5303 (   389 PWs)   bands (ev):

    -2.7393   2.1229   7.9347   8.9864  20.1793  24.0988  25.3089  26.5645

     occupation numbers 
     1.0000   1.0000   1.0000   1.0000   0.0000   0.0000   0.0000   0.0000

          k = 0.5303-0.2357-0.4714 (   389 PWs)   bands (ev):

    -2.7425   2.1426   7.9120   8.9900  20.1872  24.0713  25.3208  26.5301

     occupation numbers 
     1.0000   1.0000   1.0000   1.0000   0.0000   0.0000   0.0000   0.0000

          k =-0.2062-0.4419 0.5009 (   390 PWs)   bands (ev):

    -1.9900   1.1727   7.6214   9.0806  20.4095  23.8963  25.3440  27.4268

     occupation numbers 
     1.0000   1.0000   1.0000   1.0000   0.0000   0.0000   0.0000   0.0000

          k = 0.2062 0.4419 0.5009 (   390 PWs)   bands (ev):

    -1.9898   1.1709   7.6496   9.0520  20.3860  23.9327  25.3315  27.4517

     occupation numbers 
     1.0000   1.0000   1.0000   1.0000   0.0000   0.0000   0.0000   0.0000

          k = 0.5009-0.2062-0.4419 (   390 PWs)   bands (ev):

    -1.9965   1.1929   7.6269   9.0580  20.3928  23.9043  25.3388  27.4160

     occupation numbers 
     1.0000   1.0000   1.0000   1.0000   0.0000   0.0000   0.0000   0.0000

          k =-0.1768-0.4125 0.4714 (   393 PWs)   bands (ev):

    -1.6109   0.7301   7.3766   9.2446  20.6325  23.6761  25.3122  28.1875

     occupation numbers 
     1.0000   1.0000   1.0000   1.0000   0.0000   0.0000   0.0000   0.0000

          k = 0.1768 0.4125 0.4714 (   393 PWs)   bands (ev):

    -1.6111   0.7295   7.4023   9.2164  20.6082  23.7170  25.2985  28.2081

     occupation numbers 
     1.0000   1.0000   1.0000   1.0000   0.0000   0.0000   0.0000   0.0000

          k = 0.4714-0.1768-0.4125 (   393 PWs)   bands (ev):

    -1.6213   0.7543   7.3806   9.2231  20.6139  23.6881  25.3052  28.1667

     occupation numbers 
     1.0000   1.0000   1.0000   1.0000   0.0000   0.0000   0.0000   0.0000

          k =-0.1473-0.3830 0.4419 (   390 PWs)   bands (ev):

    -2.0015   1.1995   7.1901   9.4893  20.8846  23.4074  25.2425  28.4997

     occupation numbers 
     1.0000   1.0000   1.0000   1.0000   0.0000   0.0000   0.0000   0.0000

          k = 0.1473 0.3830 0.4419 (   390 PWs)   bands (ev):

    -2.0021   1.2001   7.2135   9.4614  20.8600  23.4516  25.2259  28.5129

     occupation numbers 
     1.0000   1.0000   1.0000   1.0000   0.0000   0.0000   0.0000   0.0000

          k = 0.4419-0.1473-0.3830 (   390 PWs)   bands (ev):

    -2.0081   1.2202   7.1928   9.4682  20.8646  23.4234  25.2334  28.4718

     occupation numbers 
     1.0000   1.0000   1.0000   1.0000   0.0000   0.0000   0.0000   0.0000

          k =-0.1179-0.3536 0.4125 (   392 PWs)   bands (ev):

    -2.7513   2.1681   7.0739   9.8016  21.1643  23.0817  25.1342  28.2120

     occupation numbers 
     1.0000   1.0000   1.0000   1.0000   0.0000   0.0000   0.0000   0.0000

          k = 0.1179 0.3536 0.4125 (   392 PWs)   bands (ev):

    -2.7518   2.1695   7.0952   9.7737  21.1397  23.1277  25.1135  28.2195

     occupation numbers 
     1.0000   1.0000   1.0000   1.0000   0.0000   0.0000   0.0000   0.0000

          k = 0.4125-0.1179-0.3536 (   392 PWs)   bands (ev):

    -2.7543   2.1860   7.0755   9.7800  21.1434  23.1017  25.1221  28.1896

     occupation numbers 
     1.0000   1.0000   1.0000   1.0000   0.0000   0.0000   0.0000   0.0000

          k =-0.0884-0.3241 0.3830 (   392 PWs)   bands (ev):

    -3.5420   3.3104   7.0372  10.1680  21.4569  22.6852  24.9688  27.6174

     occupation numbers 
     1.0000   1.0000   1.0000   1.0000   0.0000   0.0000   0.0000   0.0000

          k = 0.0884 0.3241 0.3830 (   392 PWs)   bands (ev):

    -3.5425   3.3131   7.0563  10.1397  21.4326  22.7315  24.9429  27.6245

     occupation numbers 
     1.0000   1.0000   1.0000   1.0000   0.0000   0.0000   0.0000   0.0000

          k = 0.3830-0.0884-0.3241 (   392 PWs)   bands (ev):

    -3.5434   3.3283   7.0375  10.1452  21.4356  22.7095  24.9519  27.6050

     occupation numbers 
     1.0000   1.0000   1.0000   1.0000   0.0000   0.0000   0.0000   0.0000

          k =-0.0589-0.2946 0.3536 (   393 PWs)   bands (ev):

    -4.2900   4.5260   7.0919  10.5720  21.7334  22.2106  24.6930  27.0385

     occupation numbers 
     1.0000   1.0000   1.0000   1.0000   0.0000   0.0000   0.0000   0.0000

          k = 0.0589 0.2946 0.3536 (   393 PWs)   bands (ev):

    -4.2902   4.5308   7.1081  10.5433  21.7076  22.2577  24.6627  27.0466

     occupation numbers 
     1.0000   1.0000   1.0000   1.0000   0.0000   0.0000   0.0000   0.0000

          k = 0.3536-0.0589-0.2946 (   393 PWs)   bands (ev):

    -4.2906   4.5455   7.0904  10.5474  21.7105  22.2410  24.6703  27.0347

     occupation numbers 
     1.0000   1.0000   1.0000   1.0000   0.0000   0.0000   0.0000   0.0000

          k =-0.0295-0.2652 0.3241 (   392 PWs)   bands (ev):

    -4.9686   5.7428   7.2714  10.9920  21.6660  21.9576  24.2334  26.6807

     occupation numbers 
     1.0000   1.0000   1.0000   1.0000   0.0000   0.0000   0.0000   0.0000

          k = 0.0295 0.2652 0.3241 (   392 PWs)   bands (ev):

    -4.9687   5.7526   7.2820  10.9626  21.6892  21.9550  24.2024  26.6863

     occupation numbers 
     1.0000   1.0000   1.0000   1.0000   0.0000   0.0000   0.0000   0.0000

          k = 0.3241-0.0295-0.2652 (   392 PWs)   bands (ev):

    -4.9688   5.7655   7.2674  10.9649  21.6849  21.9521  24.2064  26.6811

     occupation numbers 
     1.0000   1.0000   1.0000   1.0000   0.0000   0.0000   0.0000   0.0000

          k = 0.0000 0.2357 0.2946 (   389 PWs)   bands (ev):

    -5.5668   6.7894   7.7350  11.3677  21.1325  22.0651  23.5652  26.6008

     occupation numbers 
     1.0000   1.0000   1.0000   1.0000   0.0000   0.0000   0.0000   0.0000

          k = 0.3536 0.0589 0.0000 (   391 PWs)   bands (ev):

    -5.8095   8.2419   8.9733   9.5952  17.9921  23.6860  24.6231  24.8238

     occupation numbers 
     1.0000   1.0000   1.0000   1.0000   0.0000   0.0000   0.0000   0.0000

          k = 0.3830 0.0884-0.0295 (   392 PWs)   bands (ev):

    -5.3285   7.2784   8.5417   9.3189  18.2714  23.3191  24.9654  25.4018

     occupation numbers 
     1.0000   1.0000   1.0000   1.0000   0.0000   0.0000   0.0000   0.0000

          k =-0.3830-0.0884-0.0295 (   392 PWs)   bands (ev):

    -5.3285   7.2714   8.5494   9.3193  18.2678  23.3208  24.9665  25.4056

     occupation numbers 
     1.0000   1.0000   1.0000   1.0000   0.0000   0.0000   0.0000   0.0000

          k =-0.0295 0.3830 0.0884 (   392 PWs)   bands (ev):

    -5.3286   7.3024   8.5393   9.2935  18.2748  23.3170  24.9629  25.3975

     occupation numbers 
     1.0000   1.0000   1.0000   1.0000   0.0000   0.0000   0.0000   0.0000

          k = 0.4125 0.1179-0.0589 (   394 PWs)   bands (ev):

    -4.7603   6.1700   8.2072   8.9860  18.6878  23.2208  25.1729  25.8497

     occupation numbers 
     1.0000   1.0000   1.0000   1.0000   0.0000   0.0000   0.0000   0.0000

          k =-0.4125-0.1179-0.0589 (   394 PWs)   bands (ev):

    -4.7603   6.1619   8.2248   8.9778  18.6799  23.2263  25.1765  25.8562

     occupation numbers 
     1.0000   1.0000   1.0000   1.0000   0.0000   0.0000   0.0000   0.0000

          k =-0.0589 0.4125 0.1179 (   394 PWs)   bands (ev):

    -4.7605   6.1905   8.2095   8.9598  18.6882  23.2195  25.1718  25.8446

     occupation numbers 
     1.0000   1.0000   1.0000   1.0000   0.0000   0.0000   0.0000   0.0000

          k = 0.4419 0.1473-0.0884 (   395 PWs)   bands (ev):

    -4.1098   5.0143   7.8720   8.7011  19.1058  23.4544  25.2626  26.1604

     occupation numbers 
     1.0000   1.0000   1.0000   1.0000   0.0000   0.0000   0.0000   0.0000

          k =-0.4419-0.1473-0.0884 (   395 PWs)   bands (ev):

    -4.1097   5.0071   7.8995   8.6818  19.0930  23.4648  25.2693  26.1686

     occupation numbers 
     1.0000   1.0000   1.0000   1.0000   0.0000   0.0000   0.0000   0.0000

          k =-0.0884 0.4419 0.1473 (   395 PWs)   bands (ev):

    -4.1102   5.0324   7.8775   8.6744  19.1018  23.4549  25.2639  26.1543

     occupation numbers 
     1.0000   1.0000   1.0000   1.0000   0.0000   0.0000   0.0000   0.0000

          k = 0.4714 0.1768-0.1179 (   393 PWs)   bands (ev):

    -3.3860   3.8599   7.4947   8.5434  19.4392  24.0307  25.2585  26.3487

     occupation numbers 
     1.0000   1.0000   1.0000   1.0000   0.0000   0.0000   0.0000   0.0000

          k =-0.4714-0.1768-0.1179 (   393 PWs)   bands (ev):

    -3.3858   3.8540   7.5255   8.5186  19.4226  24.0467  25.2674  26.3583

     occupation numbers 
     1.0000   1.0000   1.0000   1.0000   0.0000   0.0000   0.0000   0.0000

          k =-0.1179 0.4714 0.1768 (   393 PWs)   bands (ev):

    -3.3870   3.8769   7.5001   8.5188  19.4308  24.0325  25.2634  26.3414

     occupation numbers 
     1.0000   1.0000   1.0000   1.0000   0.0000   0.0000   0.0000   0.0000

          k =-0.2062-0.5009 0.5598 (   395 PWs)   bands (ev):

    -2.6090   2.7511   7.1003   8.5169  19.6913  24.8029  25.2507  26.4485

     occupation numbers 
     1.0000   1.0000   1.0000   1.0000   0.0000   0.0000   0.0000   0.0000

          k = 0.2062 0.5009 0.5598 (   395 PWs)   bands (ev):

    -2.6088   2.7465   7.1295   8.4915  19.6723  24.8377  25.2442  26.4616

     occupation numbers 
     1.0000   1.0000   1.0000   1.0000   0.0000   0.0000   0.0000   0.0000

          k = 0.5598-0.2062-0.5009 (   395 PWs)   bands (ev):

    -2.6114   2.7682   7.1044   8.4949  19.6794  24.8023  25.2625  26.4392

     occupation numbers 
     1.0000   1.0000   1.0000   1.0000   0.0000   0.0000   0.0000   0.0000

          k =-0.1768-0.4714 0.5303 (   394 PWs)   bands (ev):

    -1.8364   1.7617   6.7302   8.5988  19.9118  24.9063  25.9295  26.5576

     occupation numbers 
     1.0000   1.0000   1.0000   1.0000   0.0000   0.0000   0.0000   0.0000

          k = 0.1768 0.4714 0.5303 (   394 PWs)   bands (ev):

    -1.8361   1.7584   6.7565   8.5738  19.8916  24.9450  25.9042  26.5899

     occupation numbers 
     1.0000   1.0000   1.0000   1.0000   0.0000   0.0000   0.0000   0.0000

          k = 0.5303-0.1768-0.4714 (   394 PWs)   bands (ev):

    -1.8416   1.7812   6.7331   8.5784  19.8974  24.9132  25.9389  26.5432

     occupation numbers 
     1.0000   1.0000   1.0000   1.0000   0.0000   0.0000   0.0000   0.0000

          k =-0.1473-0.4419 0.5009 (   396 PWs)   bands (ev):

    -1.2850   1.1190   6.4115   8.7718  20.1441  24.6851  26.2753  27.2349

     occupation numbers 
     1.0000   1.0000   1.0000   1.0000   0.0000   0.0000   0.0000   0.0000

          k = 0.1473 0.4419 0.5009 (   396 PWs)   bands (ev):

    -1.2852   1.1173   6.4350   8.7473  20.1235  24.7241  26.2475  27.2709

     occupation numbers 
     1.0000   1.0000   1.0000   1.0000   0.0000   0.0000   0.0000   0.0000

          k = 0.5009-0.1473-0.4419 (   396 PWs)   bands (ev):

    -1.2952   1.1432   6.4134   8.7522  20.1281  24.6972  26.2745  27.2213

     occupation numbers 
     1.0000   1.0000   1.0000   1.0000   0.0000   0.0000   0.0000   0.0000

          k =-0.1179-0.4125 0.4714 (   394 PWs)   bands (ev):

    -1.4361   1.3086   6.1608   9.0242  20.4107  24.3800  26.2400  28.0428

     occupation numbers 
     1.0000   1.0000   1.0000   1.0000   0.0000   0.0000   0.0000   0.0000

          k = 0.1179 0.4125 0.4714 (   394 PWs)   bands (ev):

    -1.4371   1.3090   6.1818   8.9998  20.3900  24.4210  26.2169  28.0676

     occupation numbers 
     1.0000   1.0000   1.0000   1.0000   0.0000   0.0000   0.0000   0.0000

          k = 0.4714-0.1179-0.4125 (   394 PWs)   bands (ev):

    -1.4446   1.3316   6.1619   9.0045  20.3936  24.3964  26.2340  28.0195

     occupation numbers 
     1.0000   1.0000   1.0000   1.0000   0.0000   0.0000   0.0000   0.0000

          k =-0.0884-0.3830 0.4419 (   393 PWs)   bands (ev):

    -2.1130   2.1522   5.9903   9.3450  20.7164  23.9930  26.1417  28.1669

     occupation numbers 
     1.0000   1.0000   1.0000   1.0000   0.0000   0.0000   0.0000   0.0000

          k = 0.0884 0.3830 0.4419 (   393 PWs)   bands (ev):

    -2.1141   2.1542   6.0088   9.3205  20.6962  24.0344  26.1166  28.1794

     occupation numbers 
     1.0000   1.0000   1.0000   1.0000   0.0000   0.0000   0.0000   0.0000

          k = 0.4419-0.0884-0.3830 (   393 PWs)   bands (ev):

    -2.1171   2.1717   5.9904   9.3247  20.6988  24.0134  26.1315  28.1401

     occupation numbers 
     1.0000   1.0000   1.0000   1.0000   0.0000   0.0000   0.0000   0.0000

          k =-0.0589-0.3536 0.4125 (   395 PWs)   bands (ev):

    -2.8944   3.2163   5.9149   9.7217  21.0527  23.5144  25.9876  27.6148

     occupation numbers 
     1.0000   1.0000   1.0000   1.0000   0.0000   0.0000   0.0000   0.0000

          k = 0.0589 0.3536 0.4125 (   395 PWs)   bands (ev):

    -2.8952   3.2203   5.9304   9.6969  21.0334  23.5538  25.9576  27.6236

     occupation numbers 
     1.0000   1.0000   1.0000   1.0000   0.0000   0.0000   0.0000   0.0000

          k = 0.4125-0.0589-0.3536 (   395 PWs)   bands (ev):

    -2.8963   3.2353   5.9137   9.7001  21.0351  23.5384  25.9710  27.6000

     occupation numbers 
     1.0000   1.0000   1.0000   1.0000   0.0000   0.0000   0.0000   0.0000

          k =-0.0295-0.3241 0.3830 (   395 PWs)   bands (ev):

    -3.6519   4.3298   5.9733  10.1381  21.3975  22.9447  25.6802  26.9897

     occupation numbers 
     1.0000   1.0000   1.0000   1.0000   0.0000   0.0000   0.0000   0.0000

          k = 0.0295 0.3241 0.3830 (   395 PWs)   bands (ev):

    -3.6525   4.3384   5.9835  10.1128  21.3802  22.9797  25.6456  27.0001

     occupation numbers 
     1.0000   1.0000   1.0000   1.0000   0.0000   0.0000   0.0000   0.0000

          k = 0.3830-0.0295-0.3241 (   395 PWs)   bands (ev):

    -3.6528   4.3505   5.9702  10.1146  21.3811  22.9716  25.6536  26.9890

     occupation numbers 
     1.0000   1.0000   1.0000   1.0000   0.0000   0.0000   0.0000   0.0000

          k = 0.0000 0.2946 0.3536 (   395 PWs)   bands (ev):

    -4.3486   5.2878   6.3400  10.5457  21.7007  22.3396  25.0274  26.6910

     occupation numbers 
     1.0000   1.0000   1.0000   1.0000   0.0000   0.0000   0.0000   0.0000

          k = 0.4125 0.0589-0.0000 (   395 PWs)   bands (ev):

    -5.0024   7.1885   8.3349   8.7141  17.8137  22.3982  25.8343  26.0849

     occupation numbers 
     1.0000   1.0000   1.0000   1.0000   0.0000   0.0000   0.0000   0.0000

          k = 0.4419 0.0884-0.0295 (   395 PWs)   bands (ev):

    -4.4660   6.3160   7.8856   8.4410  18.1220  22.1130  26.1182  26.6327

     occupation numbers 
     1.0000   1.0000   1.0000   1.0000   0.0000   0.0000   0.0000   0.0000

          k =-0.4419-0.0884-0.0295 (   395 PWs)   bands (ev):

    -4.4660   6.3088   7.9031   8.4314  18.1182  22.1160  26.1205  26.6349

     occupation numbers 
     1.0000   1.0000   1.0000   1.0000   0.0000   0.0000   0.0000   0.0000

          k =-0.0295 0.4419 0.0884 (   395 PWs)   bands (ev):

    -4.4662   6.3348   7.8877   8.4173  18.1244  22.1115  26.1164  26.6282

     occupation numbers 
     1.0000   1.0000   1.0000   1.0000   0.0000   0.0000   0.0000   0.0000

          k = 0.4714 0.1179-0.0589 (   395 PWs)   bands (ev):

    -3.8464   5.3423   7.4188   8.2006  18.5458  22.1512  26.2644  27.0274

     occupation numbers 
     1.0000   1.0000   1.0000   1.0000   0.0000   0.0000   0.0000   0.0000

          k =-0.4714-0.1179-0.0589 (   395 PWs)   bands (ev):

    -3.8464   5.3330   7.4485   8.1810  18.5371  22.1588  26.2705  27.0309

     occupation numbers 
     1.0000   1.0000   1.0000   1.0000   0.0000   0.0000   0.0000   0.0000

          k =-0.0589 0.4714 0.1179 (   395 PWs)   bands (ev):

    -3.8468   5.3600   7.4225   8.1767  18.5447  22.1520  26.2643  27.0220

     occupation numbers 
     1.0000   1.0000   1.0000   1.0000   0.0000   0.0000   0.0000   0.0000

          k = 0.5009 0.1473-0.0884 (   394 PWs)   bands (ev):

    -3.1511   4.3223   6.9036   8.0743  18.9329  22.5809  26.2918  27.2723

     occupation numbers 
     1.0000   1.0000   1.0000   1.0000   0.0000   0.0000   0.0000   0.0000

          k =-0.5009-0.1473-0.0884 (   394 PWs)   bands (ev):

    -3.1510   4.3133   6.9352   8.0519  18.9193  22.5935  26.3029  27.2760

     occupation numbers 
     1.0000   1.0000   1.0000   1.0000   0.0000   0.0000   0.0000   0.0000

          k =-0.0884 0.5009 0.1473 (   394 PWs)   bands (ev):

    -3.1520   4.3391   6.9065   8.0527  18.9270  22.5850  26.2944  27.2659

     occupation numbers 
     1.0000   1.0000   1.0000   1.0000   0.0000   0.0000   0.0000   0.0000

          k =-0.1768-0.5303 0.5893 (   394 PWs)   bands (ev):

    -2.3956   3.3003   6.3880   8.0608  19.2213  23.3875  26.2180  27.3903

     occupation numbers 
     1.0000   1.0000   1.0000   1.0000   0.0000   0.0000   0.0000   0.0000

          k = 0.1768 0.5303 0.5893 (   394 PWs)   bands (ev):

    -2.3954   3.2927   6.4173   8.0385  19.2048  23.4032  26.2346  27.3934

     occupation numbers 
     1.0000   1.0000   1.0000   1.0000   0.0000   0.0000   0.0000   0.0000

          k = 0.5893-0.1768-0.5303 (   394 PWs)   bands (ev):

    -2.3975   3.3172   6.3899   8.0411  19.2114  23.3938  26.2240  27.3830

     occupation numbers 
     1.0000   1.0000   1.0000   1.0000   0.0000   0.0000   0.0000   0.0000

          k =-0.1473-0.5009 0.5598 (   394 PWs)   bands (ev):

    -1.6200   2.3386   5.9153   8.1452  19.4529  24.4561  26.0572  27.4154

     occupation numbers 
     1.0000   1.0000   1.0000   1.0000   0.0000   0.0000   0.0000   0.0000

          k = 0.1473 0.5009 0.5598 (   394 PWs)   bands (ev):

    -1.6197   2.3328   5.9412   8.1234  19.4351  24.4734  26.0781  27.4179

     occupation numbers 
     1.0000   1.0000   1.0000   1.0000   0.0000   0.0000   0.0000   0.0000

          k = 0.5598-0.1473-0.5009 (   394 PWs)   bands (ev):

    -1.6242   2.3574   5.9164   8.1267  19.4403  24.4630  26.0673  27.4066

     occupation numbers 
     1.0000   1.0000   1.0000   1.0000   0.0000   0.0000   0.0000   0.0000

          k =-0.1179-0.4714 0.5303 (   393 PWs)   bands (ev):

    -0.9651   1.5946   5.5105   8.3174  19.6861  25.5538  25.9031  27.3899

     occupation numbers 
     1.0000   1.0000   1.0000   1.0000   0.0000   0.0000   0.0000   0.0000

          k = 0.1179 0.4714 0.5303 (   393 PWs)   bands (ev):

    -0.9652   1.5910   5.5333   8.2960  19.6680  25.5928  25.9017  27.3959

     occupation numbers 
     1.0000   1.0000   1.0000   1.0000   0.0000   0.0000   0.0000   0.0000

          k = 0.5303-0.1179-0.4714 (   393 PWs)   bands (ev):

    -0.9742   1.6180   5.5111   8.2993  19.6717  25.5628  25.9144  27.3786

     occupation numbers 
     1.0000   1.0000   1.0000   1.0000   0.0000   0.0000   0.0000   0.0000

          k =-0.0884-0.4419 0.5009 (   395 PWs)   bands (ev):

    -0.8679   1.5134   5.1899   8.5689  19.9545  25.4074  26.7697  27.4382

     occupation numbers 
     1.0000   1.0000   1.0000   1.0000   0.0000   0.0000   0.0000   0.0000

          k = 0.0884 0.4419 0.5009 (   395 PWs)   bands (ev):

    -0.8696   1.5134   5.2096   8.5476  19.9363  25.4480  26.7400  27.4696

     occupation numbers 
     1.0000   1.0000   1.0000   1.0000   0.0000   0.0000   0.0000   0.0000

          k = 0.5009-0.0884-0.4419 (   395 PWs)   bands (ev):

    -0.8783   1.5385   5.1898   8.5506  19.9390  25.4264  26.7743  27.4193

     occupation numbers 
     1.0000   1.0000   1.0000   1.0000   0.0000   0.0000   0.0000   0.0000

          k =-0.0589-0.4125 0.4714 (   394 PWs)   bands (ev):

    -1.4308   2.1935   4.9707   8.8906  20.2694  24.9533  27.0299  27.8838

     occupation numbers 
     1.0000   1.0000   1.0000   1.0000   0.0000   0.0000   0.0000   0.0000

          k = 0.0589 0.4125 0.4714 (   394 PWs)   bands (ev):

    -1.4329   2.1966   4.9869   8.8691  20.2516  24.9918  26.9928  27.9121

     occupation numbers 
     1.0000   1.0000   1.0000   1.0000   0.0000   0.0000   0.0000   0.0000

          k = 0.4714-0.0589-0.4125 (   394 PWs)   bands (ev):

    -1.4363   2.2148   4.9697   8.8715  20.2533  24.9766  27.0260  27.8567

     occupation numbers 
     1.0000   1.0000   1.0000   1.0000   0.0000   0.0000   0.0000   0.0000

          k =-0.0295-0.3830 0.4419 (   394 PWs)   bands (ev):

    -2.1862   3.1300   4.8949   9.2708  20.6274  24.3756  26.9536  27.6396

     occupation numbers 
     1.0000   1.0000   1.0000   1.0000   0.0000   0.0000   0.0000   0.0000

          k = 0.0295 0.3830 0.4419 (   394 PWs)   bands (ev):

    -2.1879   3.1376   4.9057   9.2490  20.6103  24.4104  26.9175  27.6507

     occupation numbers 
     1.0000   1.0000   1.0000   1.0000   0.0000   0.0000   0.0000   0.0000

          k = 0.4419-0.0295-0.3830 (   394 PWs)   bands (ev):

    -2.1888   3.1501   4.8928   9.2504  20.6111  24.4023  26.9408  27.6186

     occupation numbers 
     1.0000   1.0000   1.0000   1.0000   0.0000   0.0000   0.0000   0.0000

          k = 0.0000 0.3536 0.4125 (   395 PWs)   bands (ev):

    -2.9453   3.9694   5.1406   9.6715  20.9967  23.7215  26.5600  27.0862

     occupation numbers 
     1.0000   1.0000   1.0000   1.0000   0.0000   0.0000   0.0000   0.0000

          k = 0.4714 0.0589-0.0000 (   391 PWs)   bands (ev):

    -4.0819   5.9799   7.8011   8.0201  17.7050  21.2334  26.9977  27.2766

     occupation numbers 
     1.0000   1.0000   1.0000   1.0000   0.0000   0.0000   0.0000   0.0000

          k = 0.5009 0.0884-0.0295 (   395 PWs)   bands (ev):

    -3.4939   5.1991   7.3044   7.7978  18.0468  21.0589  27.2201  27.7666

     occupation numbers 
     1.0000   1.0000   1.0000   1.0000   0.0000   0.0000   0.0000   0.0000

          k =-0.5009-0.0884-0.0295 (   395 PWs)   bands (ev):

    -3.4939   5.1939   7.3267   7.7812  18.0425  21.0627  27.2237  27.7674

     occupation numbers 
     1.0000   1.0000   1.0000   1.0000   0.0000   0.0000   0.0000   0.0000

          k =-0.0295 0.5009 0.0884 (   395 PWs)   bands (ev):

    -3.4943   5.2114   7.3105   7.7776  18.0483  21.0580  27.2196  27.7617

     occupation numbers 
     1.0000   1.0000   1.0000   1.0000   0.0000   0.0000   0.0000   0.0000

          k = 0.5303 0.1179-0.0589 (   393 PWs)   bands (ev):

    -2.8286   4.3794   6.6744   7.6796  18.4680  21.2591  27.3048  28.0815

     occupation numbers 
     1.0000   1.0000   1.0000   1.0000   0.0000   0.0000   0.0000   0.0000

          k =-0.5303-0.1179-0.0589 (   393 PWs)   bands (ev):

    -2.8284   4.3712   6.7025   7.6599  18.4581  21.2685  27.3137  28.0821

     occupation numbers 
     1.0000   1.0000   1.0000   1.0000   0.0000   0.0000   0.0000   0.0000

          k =-0.0589 0.5303 0.1179 (   393 PWs)   bands (ev):

    -2.8293   4.3924   6.6791   7.6604  18.4650  21.2619  27.3071  28.0753

     occupation numbers 
     1.0000   1.0000   1.0000   1.0000   0.0000   0.0000   0.0000   0.0000

          k =-0.1473-0.5598 0.6187 (   395 PWs)   bands (ev):

    -2.0982   3.5394   6.0026   7.6643  18.8070  21.9035  27.2684  28.2346

     occupation numbers 
     1.0000   1.0000   1.0000   1.0000   0.0000   0.0000   0.0000   0.0000

          k = 0.1473 0.5598 0.6187 (   395 PWs)   bands (ev):

    -2.0979   3.5302   6.0309   7.6447  18.7927  21.9174  27.2840  28.2336

     occupation numbers 
     1.0000   1.0000   1.0000   1.0000   0.0000   0.0000   0.0000   0.0000

          k = 0.6187-0.1473-0.5598 (   395 PWs)   bands (ev):

    -2.0998   3.5535   6.0057   7.6465  18.7989  21.9104  27.2748  28.2272

     occupation numbers 
     1.0000   1.0000   1.0000   1.0000   0.0000   0.0000   0.0000   0.0000

          k =-0.1179-0.5303 0.5893 (   395 PWs)   bands (ev):

    -1.3319   2.7088   5.3714   7.7421  19.0538  22.9212  27.1188  28.2573

     occupation numbers 
     1.0000   1.0000   1.0000   1.0000   0.0000   0.0000   0.0000   0.0000

          k = 0.1179 0.5303 0.5893 (   395 PWs)   bands (ev):

    -1.3316   2.7004   5.3976   7.7229  19.0377  22.9365  27.1418  28.2538

     occupation numbers 
     1.0000   1.0000   1.0000   1.0000   0.0000   0.0000   0.0000   0.0000

          k = 0.5893-0.1179-0.5303 (   395 PWs)   bands (ev):

    -1.3354   2.7250   5.3733   7.7250  19.0424  22.9302  27.1302  28.2487

     occupation numbers 
     1.0000   1.0000   1.0000   1.0000   0.0000   0.0000   0.0000   0.0000

          k =-0.0884-0.5009 0.5598 (   392 PWs)   bands (ev):

    -0.6233   1.9851   4.8311   7.9064  19.2826  24.1654  26.8518  28.1893

     occupation numbers 
     1.0000   1.0000   1.0000   1.0000   0.0000   0.0000   0.0000   0.0000

          k = 0.0884 0.5009 0.5598 (   392 PWs)   bands (ev):

    -0.6235   1.9793   4.8542   7.8874  19.2661  24.1802  26.8809  28.1841

     occupation numbers 
     1.0000   1.0000   1.0000   1.0000   0.0000   0.0000   0.0000   0.0000

          k = 0.5598-0.0884-0.5009 (   392 PWs)   bands (ev):

    -0.6311   2.0060   4.8322   7.8895  19.2692  24.1747  26.8686  28.1798

     occupation numbers 
     1.0000   1.0000   1.0000   1.0000   0.0000   0.0000   0.0000   0.0000

          k =-0.0589-0.4714 0.5303 (   394 PWs)   bands (ev):

    -0.3191   1.7169   4.4129   8.1507  19.5435  25.4960  26.4590  28.0693

     occupation numbers 
     1.0000   1.0000   1.0000   1.0000   0.0000   0.0000   0.0000   0.0000

          k = 0.0589 0.4714 0.5303 (   394 PWs)   bands (ev):

    -0.3217   1.7167   4.4320   8.1318  19.5271  25.5091  26.4884  28.0660

     occupation numbers 
     1.0000   1.0000   1.0000   1.0000   0.0000   0.0000   0.0000   0.0000

          k = 0.5303-0.0589-0.4714 (   394 PWs)   bands (ev):

    -0.3309   1.7423   4.4135   8.1335  19.5289  25.5042  26.4798  28.0594

     occupation numbers 
     1.0000   1.0000   1.0000   1.0000   0.0000   0.0000   0.0000   0.0000

          k =-0.0295-0.4419 0.5009 (   395 PWs)   bands (ev):

    -0.7353   2.1941   4.1618   8.4671  19.8559  25.8744  26.7861  27.9187

     occupation numbers 
     1.0000   1.0000   1.0000   1.0000   0.0000   0.0000   0.0000   0.0000

          k = 0.0295 0.4419 0.5009 (   395 PWs)   bands (ev):

    -0.7392   2.2004   4.1749   8.4482  19.8397  25.9110  26.7767  27.9246

     occupation numbers 
     1.0000   1.0000   1.0000   1.0000   0.0000   0.0000   0.0000   0.0000

          k = 0.5009-0.0295-0.4419 (   395 PWs)   bands (ev):

    -0.7423   2.2152   4.1620   8.4492  19.8405  25.9019  26.7847  27.9098

     occupation numbers 
     1.0000   1.0000   1.0000   1.0000   0.0000   0.0000   0.0000   0.0000

          k = 0.0000 0.4125 0.4714 (   395 PWs)   bands (ev):

    -1.4466   2.8530   4.2390   8.8260  20.2047  25.2168  27.4814  27.6728

     occupation numbers 
     1.0000   1.0000   1.0000   1.0000   0.0000   0.0000   0.0000   0.0000

          k = 0.5303 0.0589 0.0000 (   397 PWs)   bands (ev):

    -3.0543   4.6601   7.3806   7.5079  17.6836  20.2380  28.0637  28.3409

     occupation numbers 
     1.0000   1.0000   1.0000   1.0000   0.0000   0.0000   0.0000   0.0000

          k = 0.5598 0.0884-0.0295 (   395 PWs)   bands (ev):

    -2.4199   3.9448   6.8531   7.3657  18.0599  20.1842  28.2176  28.7296

     occupation numbers 
     1.0000   1.0000   1.0000   1.0000   0.0000   0.0000   0.0000   0.0000

          k =-0.5598-0.0884-0.0295 (   395 PWs)   bands (ev):

    -2.4198   3.9417   6.8734   7.3485  18.0547  20.1892  28.2230  28.7284

     occupation numbers 
     1.0000   1.0000   1.0000   1.0000   0.0000   0.0000   0.0000   0.0000

          k =-0.0295 0.5598 0.0884 (   395 PWs)   bands (ev):

    -2.4204   3.9521   6.8621   7.3484  18.0601  20.1844  28.2197  28.7237

     occupation numbers 
     1.0000   1.0000   1.0000   1.0000   0.0000   0.0000   0.0000   0.0000

          k =-0.1179-0.5893 0.6482 (   396 PWs)   bands (ev):

    -1.7171   3.2433   6.1462   7.3391  18.4550  20.5714  28.2308  28.9191

     occupation numbers 
     1.0000   1.0000   1.0000   1.0000   0.0000   0.0000   0.0000   0.0000

          k = 0.1179 0.5893 0.6482 (   396 PWs)   bands (ev):

    -1.7169   3.2380   6.1686   7.3216  18.4435  20.5827  28.2438  28.9152

     occupation numbers 
     1.0000   1.0000   1.0000   1.0000   0.0000   0.0000   0.0000   0.0000

          k = 0.6482-0.1179-0.5893 (   396 PWs)   bands (ev):

    -1.7184   3.2515   6.1540   7.3226  18.4492  20.5770  28.2379  28.9110

     occupation numbers 
     1.0000   1.0000   1.0000   1.0000   0.0000   0.0000   0.0000   0.0000

          k =-0.0884-0.5598 0.6187 (   396 PWs)   bands (ev):

    -0.9678   2.5695   5.3872   7.4041  18.7282  21.4421  28.1071  28.9349

     occupation numbers 
     1.0000   1.0000   1.0000   1.0000   0.0000   0.0000   0.0000   0.0000

          k = 0.0884 0.5598 0.6187 (   396 PWs)   bands (ev):

    -0.9675   2.5633   5.4097   7.3870  18.7136  21.4565  28.1290  28.9270

     occupation numbers 
     1.0000   1.0000   1.0000   1.0000   0.0000   0.0000   0.0000   0.0000

          k = 0.6187-0.0884-0.5598 (   396 PWs)   bands (ev):

    -0.9707   2.5797   5.3941   7.3882  18.7177  21.4518  28.1207  28.9246

     occupation numbers 
     1.0000   1.0000   1.0000   1.0000   0.0000   0.0000   0.0000   0.0000

          k =-0.0589-0.5303 0.5893 (   394 PWs)   bands (ev):

    -0.2375   1.9625   4.6782   7.5554  18.9483  22.6428  27.8295  28.8218

     occupation numbers 
     1.0000   1.0000   1.0000   1.0000   0.0000   0.0000   0.0000   0.0000

          k = 0.0589 0.5303 0.5893 (   394 PWs)   bands (ev):

    -0.2379   1.9576   4.6991   7.5385  18.9330  22.6573  27.8588  28.8111

     occupation numbers 
     1.0000   1.0000   1.0000   1.0000   0.0000   0.0000   0.0000   0.0000

          k = 0.5893-0.0589-0.5303 (   394 PWs)   bands (ev):

    -0.2443   1.9769   4.6845   7.5396  18.9354  22.6540  27.8500  28.8106

     occupation numbers 
     1.0000   1.0000   1.0000   1.0000   0.0000   0.0000   0.0000   0.0000

          k =-0.0295-0.5009 0.5598 (   392 PWs)   bands (ev):

     0.1968   1.6480   4.1190   7.7878  19.1939  24.0189  27.3703  28.6222

     occupation numbers 
     1.0000   1.0000   1.0000   1.0000   0.0000   0.0000   0.0000   0.0000

          k = 0.0295 0.5009 0.5598 (   392 PWs)   bands (ev):

     0.1919   1.6508   4.1358   7.7710  19.1787  24.0317  27.4016  28.6135

     occupation numbers 
     1.0000   1.0000   1.0000   1.0000   0.0000   0.0000   0.0000   0.0000

          k = 0.5598-0.0295-0.5009 (   392 PWs)   bands (ev):

     0.1840   1.6681   4.1253   7.7717  19.1798  24.0299  27.3958  28.6131

     occupation numbers 
     1.0000   1.0000   1.0000   1.0000   0.0000   0.0000   0.0000   0.0000

          k = 0.0000 0.4714 0.5303 (   391 PWs)   bands (ev):

    -0.1074   1.9499   3.8700   8.0777  19.4797  25.4571  26.7501  28.3346

     occupation numbers 
     1.0000   1.0000   1.0000   1.0000   0.0000   0.0000   0.0000   0.0000

          k = 0.5893 0.0589-0.0000 (   394 PWs)   bands (ev):

    -1.9276   3.2907   7.0795   7.1517  17.7656  19.4224  28.9636  29.1967

     occupation numbers 
     1.0000   1.0000   1.0000   1.0000   0.0000   0.0000   0.0000   0.0000

          k =-0.0884-0.6187 0.6776 (   398 PWs)   bands (ev):

    -1.2541   2.6222   6.5560   7.0926  18.1679  19.4983  29.0314  29.4212

     occupation numbers 
     1.0000   1.0000   1.0000   1.0000   0.0000   0.0000   0.0000   0.0000

          k = 0.0884 0.6187 0.6776 (   398 PWs)   bands (ev):

    -1.2540   2.6205   6.5733   7.0768  18.1607  19.5054  29.0402  29.4163

     occupation numbers 
     1.0000   1.0000   1.0000   1.0000   0.0000   0.0000   0.0000   0.0000

          k = 0.6776-0.0884-0.6187 (   398 PWs)   bands (ev):

    -1.2551   2.6264   6.5671   7.0772  18.1656  19.5008  29.0381  29.4129

     occupation numbers 
     1.0000   1.0000   1.0000   1.0000   0.0000   0.0000   0.0000   0.0000

          k =-0.0589-0.5893 0.6482 (   397 PWs)   bands (ev):

    -0.5269   1.9993   5.8505   7.1408  18.4865  20.1179  28.9391  29.4267

     occupation numbers 
     1.0000   1.0000   1.0000   1.0000   0.0000   0.0000   0.0000   0.0000

          k = 0.0589 0.5893 0.6482 (   397 PWs)   bands (ev):

    -0.5267   1.9968   5.8681   7.1252  18.4731  20.1312  28.9593  29.4150

     occupation numbers 
     1.0000   1.0000   1.0000   1.0000   0.0000   0.0000   0.0000   0.0000

          k = 0.6482-0.0589-0.5893 (   397 PWs)   bands (ev):

    -0.5293   2.0047   5.8614   7.1258  18.4768  20.1275  28.9551  29.4135

     occupation numbers 
     1.0000   1.0000   1.0000   1.0000   0.0000   0.0000   0.0000   0.0000

          k =-0.0295-0.5598 0.6187 (   394 PWs)   bands (ev):

     0.2046   1.4493   5.0996   7.2757  18.6917  21.2077  28.6510  29.2684

     occupation numbers 
     1.0000   1.0000   1.0000   1.0000   0.0000   0.0000   0.0000   0.0000

          k = 0.0295 0.5598 0.6187 (   394 PWs)   bands (ev):

     0.2034   1.4484   5.1160   7.2603  18.6774  21.2218  28.6797  29.2529

     occupation numbers 
     1.0000   1.0000   1.0000   1.0000   0.0000   0.0000   0.0000   0.0000

          k = 0.6187-0.0295-0.5598 (   394 PWs)   bands (ev):

     0.1981   1.4579   5.1110   7.2608  18.6789  21.2201  28.6755  29.2532

     occupation numbers 
     1.0000   1.0000   1.0000   1.0000   0.0000   0.0000   0.0000   0.0000

          k = 0.0000 0.5303 0.5893 (   392 PWs)   bands (ev):

     0.5750   1.2675   4.4571   7.4778  18.8982  22.5636  28.1530  28.9909

     occupation numbers 
     1.0000   1.0000   1.0000   1.0000   0.0000   0.0000   0.0000   0.0000

          k =-0.0589-0.6482 0.7071 (   393 PWs)   bands (ev):

    -0.7128   1.9178   6.9018   6.9371  17.9655  18.7808  29.6031  29.7422

     occupation numbers 
     1.0000   1.0000   1.0000   1.0000   0.0000   0.0000   0.0000   0.0000

          k =-0.0295-0.6187 0.6776 (   395 PWs)   bands (ev):

    -0.0108   1.2903   6.4097   6.9584  18.3392  19.0377  29.5454  29.7414

     occupation numbers 
     1.0000   1.0000   1.0000   1.0000   0.0000   0.0000   0.0000   0.0000

          k = 0.0295 0.6187 0.6776 (   395 PWs)   bands (ev):

    -0.0108   1.2898   6.4245   6.9440  18.3274  19.0495  29.5637  29.7265

     occupation numbers 
     1.0000   1.0000   1.0000   1.0000   0.0000   0.0000   0.0000   0.0000

          k = 0.6776-0.0295-0.6187 (   395 PWs)   bands (ev):

    -0.0128   1.2932   6.4225   6.9441  18.3303  19.0466  29.5633  29.7249

     occupation numbers 
     1.0000   1.0000   1.0000   1.0000   0.0000   0.0000   0.0000   0.0000

          k = 0.0000 0.5893 0.6482 (   395 PWs)   bands (ev):

     0.6376   0.8103   5.7701   7.0606  18.4968  19.9667  29.2694  29.5430

     occupation numbers 
     1.0000   1.0000   1.0000   1.0000   0.0000   0.0000   0.0000   0.0000

          k = 0.2357 0.1179-0.0000 (   381 PWs)   bands (ev):

    -6.8773   9.2634   9.9626  11.9477  19.1844  22.0277  22.2297  26.3827

     occupation numbers 
     1.0000   1.0000   1.0000   1.0000   0.0000   0.0000   0.0000   0.0000

          k = 0.2652 0.1473-0.0295 (   383 PWs)   bands (ev):

    -6.4529   8.1818   9.4318  11.6508  19.5798  22.3409  22.8184  26.2461

     occupation numbers 
     1.0000   1.0000   1.0000   1.0000   0.0000   0.0000   0.0000   0.0000

          k =-0.2652-0.1473-0.0295 (   383 PWs)   bands (ev):

    -6.4529   8.1797   9.4326  11.6530  19.5763  22.3412  22.8206  26.2491

     occupation numbers 
     1.0000   1.0000   1.0000   1.0000   0.0000   0.0000   0.0000   0.0000

          k =-0.0295 0.2652 0.1473 (   383 PWs)   bands (ev):

    -6.4529   8.2093   9.4260  11.6202  19.5925  22.3387  22.8052  26.2414

     occupation numbers 
     1.0000   1.0000   1.0000   1.0000   0.0000   0.0000   0.0000   0.0000

          k = 0.2946 0.1768-0.0589 (   385 PWs)   bands (ev):

    -5.9380   6.8996   9.1026  11.2866  20.0471  22.5218  23.3270  26.2383

     occupation numbers 
     1.0000   1.0000   1.0000   1.0000   0.0000   0.0000   0.0000   0.0000

          k =-0.2946-0.1768-0.0589 (   385 PWs)   bands (ev):

    -5.9379   6.8972   9.1046  11.2884  20.0395  22.5255  23.3287  26.2459

     occupation numbers 
     1.0000   1.0000   1.0000   1.0000   0.0000   0.0000   0.0000   0.0000

          k =-0.0589 0.2946 0.1768 (   385 PWs)   bands (ev):

    -5.9380   6.9220   9.1001  11.2590  20.0559  22.5178  23.3137  26.2351

     occupation numbers 
     1.0000   1.0000   1.0000   1.0000   0.0000   0.0000   0.0000   0.0000

          k = 0.3241 0.2062-0.0884 (   388 PWs)   bands (ev):

    -5.3357   5.5783   8.8671  10.8967  20.4991  22.5809  23.7149  26.4346

     occupation numbers 
     1.0000   1.0000   1.0000   1.0000   0.0000   0.0000   0.0000   0.0000

          k =-0.3241-0.2062-0.0884 (   388 PWs)   bands (ev):

    -5.3357   5.5761   8.8706  10.8965  20.4858  22.5912  23.7146  26.4476

     occupation numbers 
     1.0000   1.0000   1.0000   1.0000   0.0000   0.0000   0.0000   0.0000

          k =-0.0884 0.3241 0.2062 (   388 PWs)   bands (ev):

    -5.3359   5.5973   8.8672  10.8711  20.5021  22.5769  23.7024  26.4320

     occupation numbers 
     1.0000   1.0000   1.0000   1.0000   0.0000   0.0000   0.0000   0.0000

          k = 0.3536 0.2357-0.1179 (   390 PWs)   bands (ev):

    -4.6517   4.2719   8.7059  10.5157  20.8755  22.5437  23.9817  26.8469

     occupation numbers 
     1.0000   1.0000   1.0000   1.0000   0.0000   0.0000   0.0000   0.0000

          k =-0.3536-0.2357-0.1179 (   390 PWs)   bands (ev):

    -4.6517   4.2701   8.7116  10.5123  20.8540  22.5643  23.9793  26.8639

     occupation numbers 
     1.0000   1.0000   1.0000   1.0000   0.0000   0.0000   0.0000   0.0000

          k =-0.1179 0.3536 0.2357 (   390 PWs)   bands (ev):

    -4.6523   4.2890   8.7084  10.4911  20.8708  22.5429  23.9710  26.8424

     occupation numbers 
     1.0000   1.0000   1.0000   1.0000   0.0000   0.0000   0.0000   0.0000

          k = 0.3830 0.2652-0.1473 (   391 PWs)   bands (ev):

    -3.8969   3.0154   8.6100  10.1718  21.1551  22.4487  24.1562  27.4104

     occupation numbers 
     1.0000   1.0000   1.0000   1.0000   0.0000   0.0000   0.0000   0.0000

          k =-0.3830-0.2652-0.1473 (   391 PWs)   bands (ev):

    -3.8969   3.0139   8.6193  10.1638  21.1227  22.4828  24.1524  27.4290

     occupation numbers 
     1.0000   1.0000   1.0000   1.0000   0.0000   0.0000   0.0000   0.0000

          k =-0.1473 0.3830 0.2652 (   391 PWs)   bands (ev):

    -3.8981   3.0316   8.6150  10.1470  21.1403  22.4549  24.1473  27.4013

     occupation numbers 
     1.0000   1.0000   1.0000   1.0000   0.0000   0.0000   0.0000   0.0000

          k =-0.2946-0.4125 0.5303 (   391 PWs)   bands (ev):

    -3.0974   1.8491   8.5679   9.8906  21.3462  22.3361  24.2655  28.0108

     occupation numbers 
     1.0000   1.0000   1.0000   1.0000   0.0000   0.0000   0.0000   0.0000

          k = 0.2946 0.4125 0.5303 (   391 PWs)   bands (ev):

    -3.0974   1.8480   8.5825   9.8763  21.3013  22.3854  24.2610  28.0286

     occupation numbers 
     1.0000   1.0000   1.0000   1.0000   0.0000   0.0000   0.0000   0.0000

          k = 0.5303-0.2946-0.4125 (   391 PWs)   bands (ev):

    -3.1002   1.8659   8.5758   9.8647  21.3193  22.3528  24.2578  27.9950

     occupation numbers 
     1.0000   1.0000   1.0000   1.0000   0.0000   0.0000   0.0000   0.0000

          k =-0.2652-0.3830 0.5009 (   391 PWs)   bands (ev):

    -2.3381   0.8665   8.5606   9.7006  21.4627  22.2433  24.3254  28.4952

     occupation numbers 
     1.0000   1.0000   1.0000   1.0000   0.0000   0.0000   0.0000   0.0000

          k = 0.2652 0.3830 0.5009 (   391 PWs)   bands (ev):

    -2.3380   0.8658   8.5821   9.6782  21.4075  22.3053  24.3204  28.5099

     occupation numbers 
     1.0000   1.0000   1.0000   1.0000   0.0000   0.0000   0.0000   0.0000

          k = 0.5009-0.2652-0.3830 (   391 PWs)   bands (ev):

    -2.3444   0.8862   8.5711   9.6729  21.4236  22.2714  24.3184  28.4720

     occupation numbers 
     1.0000   1.0000   1.0000   1.0000   0.0000   0.0000   0.0000   0.0000

          k =-0.2357-0.3536 0.4714 (   390 PWs)   bands (ev):

    -1.9462   0.3997   8.5626   9.6322  21.5037  22.2063  24.3445  28.6874

     occupation numbers 
     1.0000   1.0000   1.0000   1.0000   0.0000   0.0000   0.0000   0.0000

          k = 0.4714-0.2357-0.3536 (   390 PWs)   bands (ev):

    -1.9563   0.4230   8.5744   9.6036  21.4587  22.2399  24.3377  28.6606

     occupation numbers 
     1.0000   1.0000   1.0000   1.0000   0.0000   0.0000   0.0000   0.0000

          k = 0.2946 0.1179 0.0000 (   383 PWs)   bands (ev):

    -6.3111   8.3885   9.1824  11.0642  18.9608  23.0167  23.5100  25.4199

     occupation numbers 
     1.0000   1.0000   1.0000   1.0000   0.0000   0.0000   0.0000   0.0000

          k = 0.3241 0.1473-0.0295 (   386 PWs)   bands (ev):

    -5.8277   7.3501   8.6789  10.7397  19.3767  23.2331  24.1048  25.2095

     occupation numbers 
     1.0000   1.0000   1.0000   1.0000   0.0000   0.0000   0.0000   0.0000

          k =-0.3241-0.1473-0.0295 (   386 PWs)   bands (ev):

    -5.8277   7.3467   8.6822  10.7406  19.3728  23.2349  24.1034  25.2162

     occupation numbers 
     1.0000   1.0000   1.0000   1.0000   0.0000   0.0000   0.0000   0.0000

          k =-0.0295 0.3241 0.1473 (   386 PWs)   bands (ev):

    -5.8278   7.3756   8.6746  10.7114  19.3851  23.2273  24.0947  25.2090

     occupation numbers 
     1.0000   1.0000   1.0000   1.0000   0.0000   0.0000   0.0000   0.0000

          k = 0.3536 0.1768-0.0589 (   388 PWs)   bands (ev):

    -5.2563   6.1217   8.3829  10.3601  19.8512  23.3094  24.5600  25.2690

     occupation numbers 
     1.0000   1.0000   1.0000   1.0000   0.0000   0.0000   0.0000   0.0000

          k =-0.3536-0.1768-0.0589 (   388 PWs)   bands (ev):

    -5.2562   6.1179   8.3888  10.3589  19.8424  23.3166  24.5485  25.2900

     occupation numbers 
     1.0000   1.0000   1.0000   1.0000   0.0000   0.0000   0.0000   0.0000

          k =-0.0589 0.3536 0.1768 (   388 PWs)   bands (ev):

    -5.2564   6.1427   8.3822  10.3336  19.8554  23.3012  24.5510  25.2714

     occupation numbers 
     1.0000   1.0000   1.0000   1.0000   0.0000   0.0000   0.0000   0.0000

          k = 0.3830 0.2062-0.0884 (   394 PWs)   bands (ev):

    -4.6016   4.8589   8.1808   9.9720  20.2851  23.2744  24.8521  25.6485

     occupation numbers 
     1.0000   1.0000   1.0000   1.0000   0.0000   0.0000   0.0000   0.0000

          k =-0.3830-0.2062-0.0884 (   394 PWs)   bands (ev):

    -4.6015   4.8556   8.1900   9.9667  20.2701  23.2902  24.8334  25.6793

     occupation numbers 
     1.0000   1.0000   1.0000   1.0000   0.0000   0.0000   0.0000   0.0000

          k =-0.0884 0.3830 0.2062 (   394 PWs)   bands (ev):

    -4.6020   4.8772   8.1833   9.9462  20.2834  23.2678  24.8469  25.6485

     occupation numbers 
     1.0000   1.0000   1.0000   1.0000   0.0000   0.0000   0.0000   0.0000

          k = 0.4125 0.2357-0.1179 (   394 PWs)   bands (ev):

    -3.8722   3.6187   8.0410   9.6185  20.6240  23.1745  25.0726  26.2369

     occupation numbers 
     1.0000   1.0000   1.0000   1.0000   0.0000   0.0000   0.0000   0.0000

          k =-0.4125-0.2357-0.1179 (   394 PWs)   bands (ev):

    -3.8722   3.6160   8.0548   9.6073  20.6019  23.1999  25.0555  26.2682

     occupation numbers 
     1.0000   1.0000   1.0000   1.0000   0.0000   0.0000   0.0000   0.0000

          k =-0.1179 0.4125 0.2357 (   394 PWs)   bands (ev):

    -3.8732   3.6355   8.0466   9.5923  20.6152  23.1729  25.0692  26.2339

     occupation numbers 
     1.0000   1.0000   1.0000   1.0000   0.0000   0.0000   0.0000   0.0000

          k =-0.2652-0.4419 0.5598 (   390 PWs)   bands (ev):

    -3.0877   2.4433   7.9395   9.3406  20.8722  23.0406  25.2324  26.9603

     occupation numbers 
     1.0000   1.0000   1.0000   1.0000   0.0000   0.0000   0.0000   0.0000

          k = 0.2652 0.4419 0.5598 (   390 PWs)   bands (ev):

    -3.0876   2.4412   7.9593   9.3220  20.8431  23.0753  25.2194  26.9888

     occupation numbers 
     1.0000   1.0000   1.0000   1.0000   0.0000   0.0000   0.0000   0.0000

          k = 0.5598-0.2652-0.4419 (   390 PWs)   bands (ev):

    -3.0900   2.4601   7.9480   9.3133  20.8561  23.0457  25.2292  26.9533

     occupation numbers 
     1.0000   1.0000   1.0000   1.0000   0.0000   0.0000   0.0000   0.0000

          k =-0.2357-0.4125 0.5303 (   388 PWs)   bands (ev):

    -2.3039   1.4017   7.8489   9.1783  21.0672  22.8869  25.3214  27.7150

     occupation numbers 
     1.0000   1.0000   1.0000   1.0000   0.0000   0.0000   0.0000   0.0000

          k = 0.2357 0.4125 0.5303 (   388 PWs)   bands (ev):

    -2.3038   1.4002   7.8746   9.1524  21.0319  22.9300  25.3115  27.7396

     occupation numbers 
     1.0000   1.0000   1.0000   1.0000   0.0000   0.0000   0.0000   0.0000

          k = 0.5303-0.2357-0.4125 (   388 PWs)   bands (ev):

    -2.3089   1.4205   7.8592   9.1503  21.0442  22.8990  25.3179  27.7014

     occupation numbers 
     1.0000   1.0000   1.0000   1.0000   0.0000   0.0000   0.0000   0.0000

          k =-0.2062-0.3830 0.5009 (   389 PWs)   bands (ev):

    -1.7343   0.7149   7.7514   9.1573  21.2453  22.7202  25.3455  28.2962

     occupation numbers 
     1.0000   1.0000   1.0000   1.0000   0.0000   0.0000   0.0000   0.0000

          k = 0.2062 0.3830 0.5009 (   389 PWs)   bands (ev):

    -1.7343   0.7141   7.7801   9.1267  21.2042  22.7709  25.3369  28.3153

     occupation numbers 
     1.0000   1.0000   1.0000   1.0000   0.0000   0.0000   0.0000   0.0000

          k = 0.5009-0.2062-0.3830 (   389 PWs)   bands (ev):

    -1.7440   0.7382   7.7614   9.1299  21.2158  22.7392  25.3416  28.2745

     occupation numbers 
     1.0000   1.0000   1.0000   1.0000   0.0000   0.0000   0.0000   0.0000

          k =-0.1768-0.3536 0.4714 (   391 PWs)   bands (ev):

    -1.8747   0.8819   7.6555   9.2724  21.4237  22.5439  25.3127  28.4167

     occupation numbers 
     1.0000   1.0000   1.0000   1.0000   0.0000   0.0000   0.0000   0.0000

          k = 0.1768 0.3536 0.4714 (   391 PWs)   bands (ev):

    -1.8751   0.8820   7.6839   9.2405  21.3773  22.6017  25.3038  28.4281

     occupation numbers 
     1.0000   1.0000   1.0000   1.0000   0.0000   0.0000   0.0000   0.0000

          k = 0.4714-0.1768-0.3536 (   391 PWs)   bands (ev):

    -1.8829   0.9037   7.6636   9.2465  21.3878  22.5702  25.3082  28.3926

     occupation numbers 
     1.0000   1.0000   1.0000   1.0000   0.0000   0.0000   0.0000   0.0000

          k =-0.1473-0.3241 0.4419 (   390 PWs)   bands (ev):

    -2.5620   1.7391   7.5864   9.4979  21.5874  22.3692  25.2267  28.0173

     occupation numbers 
     1.0000   1.0000   1.0000   1.0000   0.0000   0.0000   0.0000   0.0000

          k = 0.1473 0.3241 0.4419 (   390 PWs)   bands (ev):

    -2.5625   1.7399   7.6128   9.4664  21.5376  22.4315  25.2157  28.0238

     occupation numbers 
     1.0000   1.0000   1.0000   1.0000   0.0000   0.0000   0.0000   0.0000

          k = 0.4419-0.1473-0.3241 (   390 PWs)   bands (ev):

    -2.5659   1.7572   7.5922   9.4733  21.5458  22.4024  25.2210  27.9998

     occupation numbers 
     1.0000   1.0000   1.0000   1.0000   0.0000   0.0000   0.0000   0.0000

          k =-0.1179-0.2946 0.4125 (   392 PWs)   bands (ev):

    -3.3567   2.8422   7.5671   9.8067  21.6362  22.2679  25.0866  27.3658

     occupation numbers 
     1.0000   1.0000   1.0000   1.0000   0.0000   0.0000   0.0000   0.0000

          k = 0.1179 0.2946 0.4125 (   392 PWs)   bands (ev):

    -3.3570   2.8437   7.5911   9.7758  21.6009  22.3159  25.0719  27.3724

     occupation numbers 
     1.0000   1.0000   1.0000   1.0000   0.0000   0.0000   0.0000   0.0000

          k = 0.4125-0.1179-0.2946 (   392 PWs)   bands (ev):

    -3.3584   2.8592   7.5708   9.7825  21.6017  22.2958  25.0789  27.3562

     occupation numbers 
     1.0000   1.0000   1.0000   1.0000   0.0000   0.0000   0.0000   0.0000

          k =-0.0884-0.2652 0.3830 (   393 PWs)   bands (ev):

    -4.1254   4.0480   7.6143  10.1743  21.4201  22.3448  24.8830  26.7049

     occupation numbers 
     1.0000   1.0000   1.0000   1.0000   0.0000   0.0000   0.0000   0.0000

          k = 0.0884 0.2652 0.3830 (   393 PWs)   bands (ev):

    -4.1257   4.0506   7.6356  10.1438  21.4191  22.3580  24.8637  26.7139

     occupation numbers 
     1.0000   1.0000   1.0000   1.0000   0.0000   0.0000   0.0000   0.0000

          k = 0.3830-0.0884-0.2652 (   393 PWs)   bands (ev):

    -4.1262   4.0658   7.6159  10.1496  21.4110  22.3500  24.8719  26.7016

     occupation numbers 
     1.0000   1.0000   1.0000   1.0000   0.0000   0.0000   0.0000   0.0000

          k =-0.0589-0.2357 0.3536 (   391 PWs)   bands (ev):

    -4.8306   5.2992   7.7432  10.5760  21.0078  22.4862  24.5778  26.1997

     occupation numbers 
     1.0000   1.0000   1.0000   1.0000   0.0000   0.0000   0.0000   0.0000

          k = 0.0589 0.2357 0.3536 (   391 PWs)   bands (ev):

    -4.8307   5.3039   7.7612  10.5456  21.0223  22.4832  24.5556  26.2092

     occupation numbers 
     1.0000   1.0000   1.0000   1.0000   0.0000   0.0000   0.0000   0.0000

          k = 0.3536-0.0589-0.2357 (   391 PWs)   bands (ev):

    -4.8309   5.3192   7.7424  10.5500  21.0141  22.4800  24.5627  26.2006

     occupation numbers 
     1.0000   1.0000   1.0000   1.0000   0.0000   0.0000   0.0000   0.0000

          k =-0.0295-0.2062 0.3241 (   387 PWs)   bands (ev):

    -5.4577   6.5337   7.9865  10.9823  20.5024  22.5693  24.1114  25.9719

     occupation numbers 
     1.0000   1.0000   1.0000   1.0000   0.0000   0.0000   0.0000   0.0000

          k = 0.0295 0.2062 0.3241 (   387 PWs)   bands (ev):

    -5.4578   6.5439   7.9983  10.9517  20.5204  22.5628  24.0910  25.9764

     occupation numbers 
     1.0000   1.0000   1.0000   1.0000   0.0000   0.0000   0.0000   0.0000

          k = 0.3241-0.0295-0.2062 (   387 PWs)   bands (ev):

    -5.4579   6.5576   7.9826  10.9541  20.5161  22.5614  24.0943  25.9726

     occupation numbers 
     1.0000   1.0000   1.0000   1.0000   0.0000   0.0000   0.0000   0.0000

          k = 0.0000 0.1768 0.2946 (   387 PWs)   bands (ev):

    -5.9999   7.5975   8.4850  11.3246  20.0103  22.5251  23.4818  26.0189

     occupation numbers 
     1.0000   1.0000   1.0000   1.0000   0.0000   0.0000   0.0000   0.0000

          k = 0.3536 0.1179 0.0000 (   387 PWs)   bands (ev):

    -5.6243   7.5222   8.4693  10.0601  18.7495  24.0616  24.2153  24.8170

     occupation numbers 
     1.0000   1.0000   1.0000   1.0000   0.0000   0.0000   0.0000   0.0000

          k = 0.3830 0.1473-0.0295 (   394 PWs)   bands (ev):

    -5.0844   6.5483   7.9871   9.7134  19.1894  23.9293  24.3036  25.4110

     occupation numbers 
     1.0000   1.0000   1.0000   1.0000   0.0000   0.0000   0.0000   0.0000

          k =-0.3830-0.1473-0.0295 (   394 PWs)   bands (ev):

    -5.0843   6.5435   7.9941   9.7118  19.1851  23.9350  24.3001  25.4172

     occupation numbers 
     1.0000   1.0000   1.0000   1.0000   0.0000   0.0000   0.0000   0.0000

          k =-0.0295 0.3830 0.1473 (   394 PWs)   bands (ev):

    -5.0845   6.5719   7.9848   9.6867  19.1952  23.9047  24.3220  25.4029

     occupation numbers 
     1.0000   1.0000   1.0000   1.0000   0.0000   0.0000   0.0000   0.0000

          k = 0.4125 0.1768-0.0589 (   398 PWs)   bands (ev):

    -4.4600   5.3999   7.6978   9.3339  19.6655  23.8937  24.4603  25.8864

     occupation numbers 
     1.0000   1.0000   1.0000   1.0000   0.0000   0.0000   0.0000   0.0000

          k =-0.4125-0.1768-0.0589 (   398 PWs)   bands (ev):

    -4.4600   5.3945   7.7103   9.3272  19.6557  23.9106  24.4509  25.8980

     occupation numbers 
     1.0000   1.0000   1.0000   1.0000   0.0000   0.0000   0.0000   0.0000

          k =-0.0589 0.4125 0.1768 (   398 PWs)   bands (ev):

    -4.4604   5.4198   7.6995   9.3075  19.6667  23.8725  24.4788  25.8779

     occupation numbers 
     1.0000   1.0000   1.0000   1.0000   0.0000   0.0000   0.0000   0.0000

          k = 0.4419 0.2062-0.0884 (   398 PWs)   bands (ev):

    -3.7585   4.2176   7.4842   8.9852  20.0699  23.9360  24.7665  26.2396

     occupation numbers 
     1.0000   1.0000   1.0000   1.0000   0.0000   0.0000   0.0000   0.0000

          k =-0.4419-0.2062-0.0884 (   398 PWs)   bands (ev):

    -3.7584   4.2129   7.5026   8.9715  20.0538  23.9652  24.7502  26.2577

     occupation numbers 
     1.0000   1.0000   1.0000   1.0000   0.0000   0.0000   0.0000   0.0000

          k =-0.0884 0.4419 0.2062 (   398 PWs)   bands (ev):

    -3.7593   4.2354   7.4897   8.9583  20.0650  23.9230  24.7822  26.2306

     occupation numbers 
     1.0000   1.0000   1.0000   1.0000   0.0000   0.0000   0.0000   0.0000

          k =-0.2357-0.4714 0.5893 (   400 PWs)   bands (ev):

    -2.9947   3.0646   7.2940   8.7277  20.3689  23.8964  25.3473  26.5076

     occupation numbers 
     1.0000   1.0000   1.0000   1.0000   0.0000   0.0000   0.0000   0.0000

          k = 0.2357 0.4714 0.5893 (   400 PWs)   bands (ev):

    -2.9945   3.0608   7.3182   8.7065  20.3474  23.9303  25.3264  26.5357

     occupation numbers 
     1.0000   1.0000   1.0000   1.0000   0.0000   0.0000   0.0000   0.0000

          k = 0.5893-0.2357-0.4714 (   400 PWs)   bands (ev):

    -2.9965   3.0818   7.3020   8.7003  20.3579  23.8940  25.3582  26.4971

     occupation numbers 
     1.0000   1.0000   1.0000   1.0000   0.0000   0.0000   0.0000   0.0000

          k =-0.2062-0.4419 0.5598 (   394 PWs)   bands (ev):

    -2.2071   2.0025   7.0967   8.6062  20.5993  23.7714  25.9795  26.8443

     occupation numbers 
     1.0000   1.0000   1.0000   1.0000   0.0000   0.0000   0.0000   0.0000

          k = 0.2062 0.4419 0.5598 (   394 PWs)   bands (ev):

    -2.2069   1.9996   7.1244   8.5797  20.5738  23.8083  25.9499  26.8855

     occupation numbers 
     1.0000   1.0000   1.0000   1.0000   0.0000   0.0000   0.0000   0.0000

          k = 0.5598-0.2062-0.4419 (   394 PWs)   bands (ev):

    -2.2110   2.0209   7.1052   8.5794  20.5833  23.7765  25.9872  26.8314

     occupation numbers 
     1.0000   1.0000   1.0000   1.0000   0.0000   0.0000   0.0000   0.0000

          k =-0.1768-0.4125 0.5303 (   391 PWs)   bands (ev):

    -1.5313   1.1793   6.8925   8.6303  20.8126  23.5910  26.2491  27.4937

     occupation numbers 
     1.0000   1.0000   1.0000   1.0000   0.0000   0.0000   0.0000   0.0000

          k = 0.1768 0.4125 0.5303 (   391 PWs)   bands (ev):

    -1.5313   1.1775   6.9202   8.6019  20.7841  23.6313  26.2270  27.5276

     occupation numbers 
     1.0000   1.0000   1.0000   1.0000   0.0000   0.0000   0.0000   0.0000

          k = 0.5303-0.1768-0.4125 (   391 PWs)   bands (ev):

    -1.5398   1.2018   6.8999   8.6051  20.7925  23.6017  26.2513  27.4786

     occupation numbers 
     1.0000   1.0000   1.0000   1.0000   0.0000   0.0000   0.0000   0.0000

          k =-0.1473-0.3830 0.5009 (   390 PWs)   bands (ev):

    -1.4042   1.0381   6.7060   8.7809  21.0426  23.3650  26.2534  28.0698

     occupation numbers 
     1.0000   1.0000   1.0000   1.0000   0.0000   0.0000   0.0000   0.0000

          k = 0.1473 0.3830 0.5009 (   390 PWs)   bands (ev):

    -1.4047   1.0378   6.7318   8.7525  21.0116  23.4087  26.2376  28.0910

     occupation numbers 
     1.0000   1.0000   1.0000   1.0000   0.0000   0.0000   0.0000   0.0000

          k = 0.5009-0.1473-0.3830 (   390 PWs)   bands (ev):

    -1.4142   1.0621   6.7116   8.7572  21.0191  23.3806  26.2526  28.0478

     occupation numbers 
     1.0000   1.0000   1.0000   1.0000   0.0000   0.0000   0.0000   0.0000

          k =-0.1179-0.3536 0.4714 (   391 PWs)   bands (ev):

    -1.9696   1.7236   6.5639   9.0325  21.3035  23.0859  26.1447  28.0301

     occupation numbers 
     1.0000   1.0000   1.0000   1.0000   0.0000   0.0000   0.0000   0.0000

          k = 0.1179 0.3536 0.4714 (   391 PWs)   bands (ev):

    -1.9705   1.7246   6.5872   9.0047  21.2703  23.1324  26.1293  28.0400

     occupation numbers 
     1.0000   1.0000   1.0000   1.0000   0.0000   0.0000   0.0000   0.0000

          k = 0.4714-0.1179-0.3536 (   391 PWs)   bands (ev):

    -1.9748   1.7434   6.5677   9.0096  21.2770  23.1062  26.1422  28.0082

     occupation numbers 
     1.0000   1.0000   1.0000   1.0000   0.0000   0.0000   0.0000   0.0000

          k =-0.0884-0.3241 0.4419 (   391 PWs)   bands (ev):

    -2.7435   2.7465   6.4873   9.3624  21.5928  22.7334  25.9685  27.4559

     occupation numbers 
     1.0000   1.0000   1.0000   1.0000   0.0000   0.0000   0.0000   0.0000

          k = 0.0884 0.3241 0.4419 (   391 PWs)   bands (ev):

    -2.7442   2.7486   6.5077   9.3351  21.5564  22.7826  25.9501  27.4631

     occupation numbers 
     1.0000   1.0000   1.0000   1.0000   0.0000   0.0000   0.0000   0.0000

          k = 0.4419-0.0884-0.3241 (   391 PWs)   bands (ev):

    -2.7459   2.7646   6.4892   9.3396  21.5629  22.7591  25.9639  27.4415

     occupation numbers 
     1.0000   1.0000   1.0000   1.0000   0.0000   0.0000   0.0000   0.0000

          k =-0.0589-0.2946 0.4125 (   393 PWs)   bands (ev):

    -3.5191   3.8843   6.4960   9.7496  21.8764  22.3026  25.7520  26.7346

     occupation numbers 
     1.0000   1.0000   1.0000   1.0000   0.0000   0.0000   0.0000   0.0000

          k = 0.0589 0.2946 0.4125 (   393 PWs)   bands (ev):

    -3.5196   3.8885   6.5130   9.7225  21.8323  22.3574  25.7282  26.7453

     occupation numbers 
     1.0000   1.0000   1.0000   1.0000   0.0000   0.0000   0.0000   0.0000

          k = 0.4125-0.0589-0.2946 (   393 PWs)   bands (ev):

    -3.5202   3.9032   6.4959   9.7260  21.8402  22.3372  25.7432  26.7278

     occupation numbers 
     1.0000   1.0000   1.0000   1.0000   0.0000   0.0000   0.0000   0.0000

          k =-0.0295-0.2652 0.3830 (   394 PWs)   bands (ev):

    -4.2413   5.0359   6.6311  10.1702  21.6732  22.2446  25.4540  26.1153

     occupation numbers 
     1.0000   1.0000   1.0000   1.0000   0.0000   0.0000   0.0000   0.0000

          k = 0.0295 0.2652 0.3830 (   394 PWs)   bands (ev):

    -4.2416   5.0451   6.6420  10.1431  21.6831  22.2425  25.4252  26.1299

     occupation numbers 
     1.0000   1.0000   1.0000   1.0000   0.0000   0.0000   0.0000   0.0000

          k = 0.3830-0.0295-0.2652 (   394 PWs)   bands (ev):

    -4.2418   5.0573   6.6282  10.1451  21.6810  22.2382  25.4360  26.1184

     occupation numbers 
     1.0000   1.0000   1.0000   1.0000   0.0000   0.0000   0.0000   0.0000

          k = 0.0000 0.2357 0.3536 (   396 PWs)   bands (ev):

    -4.8908   6.0236   7.0549  10.5668  21.0980  22.4478  24.8484  25.8916

     occupation numbers 
     1.0000   1.0000   1.0000   1.0000   0.0000   0.0000   0.0000   0.0000

          k = 0.4125 0.1179-0.0000 (   393 PWs)   bands (ev):

    -4.8205   6.6304   7.8463   9.0403  18.5799  22.9658  25.1729  26.0973

     occupation numbers 
     1.0000   1.0000   1.0000   1.0000   0.0000   0.0000   0.0000   0.0000

          k = 0.4419 0.1473-0.0295 (   398 PWs)   bands (ev):

    -4.2274   5.7412   7.3658   8.6892  19.0466  22.8715  25.2587  26.6593

     occupation numbers 
     1.0000   1.0000   1.0000   1.0000   0.0000   0.0000   0.0000   0.0000

          k =-0.4419-0.1473-0.0295 (   398 PWs)   bands (ev):

    -4.2274   5.7353   7.3781   8.6830  19.0417  22.8759  25.2605  26.6627

     occupation numbers 
     1.0000   1.0000   1.0000   1.0000   0.0000   0.0000   0.0000   0.0000

          k =-0.0295 0.4419 0.1473 (   398 PWs)   bands (ev):

    -4.2277   5.7623   7.3661   8.6638  19.0506  22.8657  25.2594  26.6519

     occupation numbers 
     1.0000   1.0000   1.0000   1.0000   0.0000   0.0000   0.0000   0.0000

          k = 0.4714 0.1768-0.0589 (   399 PWs)   bands (ev):

    -3.5553   4.7077   7.0160   8.3586  19.5148  23.1097  25.2530  27.0679

     occupation numbers 
     1.0000   1.0000   1.0000   1.0000   0.0000   0.0000   0.0000   0.0000

          k =-0.4714-0.1768-0.0589 (   399 PWs)   bands (ev):

    -3.5552   4.7006   7.0378   8.3439  19.5037  23.1212  25.2561  27.0746

     occupation numbers 
     1.0000   1.0000   1.0000   1.0000   0.0000   0.0000   0.0000   0.0000

          k =-0.0589 0.4714 0.1768 (   399 PWs)   bands (ev):

    -3.5560   4.7265   7.0202   8.3324  19.5134  23.1063  25.2566  27.0603

     occupation numbers 
     1.0000   1.0000   1.0000   1.0000   0.0000   0.0000   0.0000   0.0000

          k =-0.2062-0.5009 0.6187 (   400 PWs)   bands (ev):

    -2.8161   3.6378   6.6935   8.1331  19.8774  23.6939  25.1977  27.3218

     occupation numbers 
     1.0000   1.0000   1.0000   1.0000   0.0000   0.0000   0.0000   0.0000

          k = 0.2062 0.5009 0.6187 (   400 PWs)   bands (ev):

    -2.8159   3.6315   6.7211   8.1112  19.8608  23.7153  25.1987  27.3315

     occupation numbers 
     1.0000   1.0000   1.0000   1.0000   0.0000   0.0000   0.0000   0.0000

          k = 0.6187-0.2062-0.5009 (   400 PWs)   bands (ev):

    -2.8176   3.6555   6.6998   8.1071  19.8700  23.6929  25.2050  27.3141

     occupation numbers 
     1.0000   1.0000   1.0000   1.0000   0.0000   0.0000   0.0000   0.0000

          k =-0.1768-0.4714 0.5893 (   397 PWs)   bands (ev):

    -2.0374   2.6059   6.3654   8.0526  20.1411  24.4075  25.2481  27.4380

     occupation numbers 
     1.0000   1.0000   1.0000   1.0000   0.0000   0.0000   0.0000   0.0000

          k = 0.1768 0.4714 0.5893 (   397 PWs)   bands (ev):

    -2.0372   2.6009   6.3940   8.0276  20.1209  24.4495  25.2333  27.4508

     occupation numbers 
     1.0000   1.0000   1.0000   1.0000   0.0000   0.0000   0.0000   0.0000

          k = 0.5893-0.1768-0.4714 (   397 PWs)   bands (ev):

    -2.0407   2.6241   6.3715   8.0281  20.1288  24.4073  25.2596  27.4299

     occupation numbers 
     1.0000   1.0000   1.0000   1.0000   0.0000   0.0000   0.0000   0.0000

          k =-0.1473-0.4419 0.5598 (   395 PWs)   bands (ev):

    -1.3072   1.7236   6.0483   8.1102  20.3695  24.5709  25.9359  27.4494

     occupation numbers 
     1.0000   1.0000   1.0000   1.0000   0.0000   0.0000   0.0000   0.0000

          k = 0.1473 0.4419 0.5598 (   395 PWs)   bands (ev):

    -1.3071   1.7201   6.0750   8.0848  20.3472  24.6138  25.9184  27.4681

     occupation numbers 
     1.0000   1.0000   1.0000   1.0000   0.0000   0.0000   0.0000   0.0000

          k = 0.5598-0.1473-0.4419 (   395 PWs)   bands (ev):

    -1.3143   1.7452   6.0531   8.0875  20.3537  24.5779  25.9439  27.4396

     occupation numbers 
     1.0000   1.0000   1.0000   1.0000   0.0000   0.0000   0.0000   0.0000

          k =-0.1179-0.4125 0.5303 (   395 PWs)   bands (ev):

    -0.9500   1.3278   5.7715   8.2829  20.6119  24.3748  26.7720  27.4819

     occupation numbers 
     1.0000   1.0000   1.0000   1.0000   0.0000   0.0000   0.0000   0.0000

          k = 0.1179 0.4125 0.5303 (   395 PWs)   bands (ev):

    -0.9508   1.3266   5.7953   8.2581  20.5885  24.4142  26.7407  27.5166

     occupation numbers 
     1.0000   1.0000   1.0000   1.0000   0.0000   0.0000   0.0000   0.0000

          k = 0.5303-0.1179-0.4125 (   395 PWs)   bands (ev):

    -0.9611   1.3533   5.7748   8.2615  20.5937  24.3873  26.7796  27.4648

     occupation numbers 
     1.0000   1.0000   1.0000   1.0000   0.0000   0.0000   0.0000   0.0000

          k =-0.0884-0.3830 0.5009 (   394 PWs)   bands (ev):

    -1.3378   1.7935   5.5598   8.5497  20.8912  24.0605  26.8870  27.8104

     occupation numbers 
     1.0000   1.0000   1.0000   1.0000   0.0000   0.0000   0.0000   0.0000

          k = 0.0884 0.3830 0.5009 (   394 PWs)   bands (ev):

    -1.3393   1.7947   5.5804   8.5255  20.8673  24.0993  26.8619  27.8295

     occupation numbers 
     1.0000   1.0000   1.0000   1.0000   0.0000   0.0000   0.0000   0.0000

          k = 0.5009-0.0884-0.3830 (   394 PWs)   bands (ev):

    -1.3448   1.8154   5.5616   8.5288  20.8714  24.0772  26.8901  27.7874

     occupation numbers 
     1.0000   1.0000   1.0000   1.0000   0.0000   0.0000   0.0000   0.0000

          k =-0.0589-0.3536 0.4714 (   394 PWs)   bands (ev):

    -2.0685   2.7091   5.4367   8.8925  21.2115  23.6307  26.6518  27.6620

     occupation numbers 
     1.0000   1.0000   1.0000   1.0000   0.0000   0.0000   0.0000   0.0000

          k = 0.0589 0.3536 0.4714 (   394 PWs)   bands (ev):

    -2.0698   2.7126   5.4536   8.8688  21.1875  23.6674  26.6330  27.6648

     occupation numbers 
     1.0000   1.0000   1.0000   1.0000   0.0000   0.0000   0.0000   0.0000

          k = 0.4714-0.0589-0.3536 (   394 PWs)   bands (ev):

    -2.0717   2.7287   5.4369   8.8714  21.1907  23.6508  26.6526  27.6393

     occupation numbers 
     1.0000   1.0000   1.0000   1.0000   0.0000   0.0000   0.0000   0.0000

          k =-0.0295-0.3241 0.4419 (   394 PWs)   bands (ev):

    -2.8410   3.7311   5.4484   9.2929  21.5626  23.0674  26.3837  27.0548

     occupation numbers 
     1.0000   1.0000   1.0000   1.0000   0.0000   0.0000   0.0000   0.0000

          k = 0.0295 0.3241 0.4419 (   394 PWs)   bands (ev):

    -2.8420   3.7392   5.4593   9.2694  21.5400  23.0987  26.3695  27.0513

     occupation numbers 
     1.0000   1.0000   1.0000   1.0000   0.0000   0.0000   0.0000   0.0000

          k = 0.4419-0.0295-0.3241 (   394 PWs)   bands (ev):

    -2.8425   3.7511   5.4465   9.2709  21.5421  23.0894  26.3846  27.0349

     occupation numbers 
     1.0000   1.0000   1.0000   1.0000   0.0000   0.0000   0.0000   0.0000

          k = 0.0000 0.2946 0.4125 (   398 PWs)   bands (ev):

    -3.5749   4.6171   5.7682   9.7048  21.8995  22.4157  26.1711  26.2893

     occupation numbers 
     1.0000   1.0000   1.0000   1.0000   0.0000   0.0000   0.0000   0.0000

          k = 0.4714 0.1179 0.0000 (   399 PWs)   bands (ev):

    -3.9048   5.6482   7.3281   8.1256  18.4747  21.8501  26.2612  27.2975

     occupation numbers 
     1.0000   1.0000   1.0000   1.0000   0.0000   0.0000   0.0000   0.0000

          k = 0.5009 0.1473-0.0295 (   395 PWs)   bands (ev):

    -3.2634   4.8564   6.8162   7.8096  18.9677  21.8899  26.2864  27.7888

     occupation numbers 
     1.0000   1.0000   1.0000   1.0000   0.0000   0.0000   0.0000   0.0000

          k =-0.5009-0.1473-0.0295 (   395 PWs)   bands (ev):

    -3.2633   4.8508   6.8345   7.7970  18.9619  21.8955  26.2895  27.7910

     occupation numbers 
     1.0000   1.0000   1.0000   1.0000   0.0000   0.0000   0.0000   0.0000

          k =-0.0295 0.5009 0.1473 (   395 PWs)   bands (ev):

    -3.2639   4.8736   6.8198   7.7862  18.9700  21.8870  26.2861  27.7816

     occupation numbers 
     1.0000   1.0000   1.0000   1.0000   0.0000   0.0000   0.0000   0.0000

          k =-0.1768-0.5303 0.6482 (   398 PWs)   bands (ev):

    -2.5514   3.9768   6.3045   7.6099  19.4111  22.3326  26.2214  28.0879

     occupation numbers 
     1.0000   1.0000   1.0000   1.0000   0.0000   0.0000   0.0000   0.0000

          k = 0.1768 0.5303 0.6482 (   398 PWs)   bands (ev):

    -2.5513   3.9689   6.3325   7.5894  19.3987  22.3451  26.2278  28.0918

     occupation numbers 
     1.0000   1.0000   1.0000   1.0000   0.0000   0.0000   0.0000   0.0000

          k = 0.6482-0.1768-0.5303 (   398 PWs)   bands (ev):

    -2.5527   3.9935   6.3097   7.5862  19.4071  22.3344  26.2238  28.0807

     occupation numbers 
     1.0000   1.0000   1.0000   1.0000   0.0000   0.0000   0.0000   0.0000

          k =-0.1473-0.5009 0.6187 (   397 PWs)   bands (ev):

    -1.7898   3.0687   5.7980   7.5580  19.7223  23.1783  26.0878  28.1948

     occupation numbers 
     1.0000   1.0000   1.0000   1.0000   0.0000   0.0000   0.0000   0.0000

          k = 0.1473 0.5009 0.6187 (   397 PWs)   bands (ev):

    -1.7896   3.0611   5.8270   7.5355  19.7056  23.1962  26.0971  28.1994

     occupation numbers 
     1.0000   1.0000   1.0000   1.0000   0.0000   0.0000   0.0000   0.0000

          k = 0.6187-0.1473-0.5009 (   397 PWs)   bands (ev):

    -1.7925   3.0860   5.8024   7.5361  19.7127  23.1839  26.0934  28.1880

     occupation numbers 
     1.0000   1.0000   1.0000   1.0000   0.0000   0.0000   0.0000   0.0000

          k =-0.1179-0.4714 0.5893 (   397 PWs)   bands (ev):

    -1.0376   2.2214   5.3361   7.6342  19.9625  24.2779  25.9094  28.1210

     occupation numbers 
     1.0000   1.0000   1.0000   1.0000   0.0000   0.0000   0.0000   0.0000

          k = 0.1179 0.4714 0.5893 (   397 PWs)   bands (ev):

    -1.0375   2.2155   5.3626   7.6120  19.9439  24.3018  25.9178  28.1250

     occupation numbers 
     1.0000   1.0000   1.0000   1.0000   0.0000   0.0000   0.0000   0.0000

          k = 0.5893-0.1179-0.4714 (   397 PWs)   bands (ev):

    -1.0435   2.2415   5.3393   7.6139  19.9492  24.2852  25.9184  28.1146

     occupation numbers 
     1.0000   1.0000   1.0000   1.0000   0.0000   0.0000   0.0000   0.0000

          k =-0.0884-0.4419 0.5598 (   393 PWs)   bands (ev):

    -0.5172   1.6772   4.9503   7.8168  20.2048  25.2475  25.9062  27.8859

     occupation numbers 
     1.0000   1.0000   1.0000   1.0000   0.0000   0.0000   0.0000   0.0000

          k = 0.0884 0.4419 0.5598 (   393 PWs)   bands (ev):

    -0.5182   1.6746   4.9731   7.7952  20.1854  25.2967  25.8902  27.8893

     occupation numbers 
     1.0000   1.0000   1.0000   1.0000   0.0000   0.0000   0.0000   0.0000

          k = 0.5598-0.0884-0.4419 (   393 PWs)   bands (ev):

    -0.5284   1.7026   4.9523   7.7974  20.1892  25.2594  25.9136  27.8796

     occupation numbers 
     1.0000   1.0000   1.0000   1.0000   0.0000   0.0000   0.0000   0.0000

          k =-0.0589-0.4125 0.5303 (   393 PWs)   bands (ev):

    -0.6918   1.9033   4.6662   8.0894  20.4842  25.1019  26.8447  27.5375

     occupation numbers 
     1.0000   1.0000   1.0000   1.0000   0.0000   0.0000   0.0000   0.0000

          k = 0.0589 0.4125 0.5303 (   393 PWs)   bands (ev):

    -0.6945   1.9053   4.6847   8.0684  20.4647  25.1401  26.8261  27.5487

     occupation numbers 
     1.0000   1.0000   1.0000   1.0000   0.0000   0.0000   0.0000   0.0000

          k = 0.5303-0.0589-0.4125 (   393 PWs)   bands (ev):

    -0.7007   1.9270   4.6670   8.0703  20.4673  25.1203  26.8470  27.5286

     occupation numbers 
     1.0000   1.0000   1.0000   1.0000   0.0000   0.0000   0.0000   0.0000

          k =-0.0295-0.3830 0.5009 (   394 PWs)   bands (ev):

    -1.3515   2.6575   4.5312   8.4375  20.8103  24.5882  27.0925  27.6324

     occupation numbers 
     1.0000   1.0000   1.0000   1.0000   0.0000   0.0000   0.0000   0.0000

          k = 0.0295 0.3830 0.5009 (   394 PWs)   bands (ev):

    -1.3542   2.6646   4.5435   8.4170  20.7913  24.6194  27.0767  27.6326

     occupation numbers 
     1.0000   1.0000   1.0000   1.0000   0.0000   0.0000   0.0000   0.0000

          k = 0.5009-0.0295-0.3830 (   394 PWs)   bands (ev):

    -1.3559   2.6776   4.5309   8.4181  20.7927  24.6098  27.0961  27.6115

     occupation numbers 
     1.0000   1.0000   1.0000   1.0000   0.0000   0.0000   0.0000   0.0000

          k =-0.0000 0.3536 0.4714 (   394 PWs)   bands (ev):

    -2.1086   3.4035   4.7138   8.8248  21.1583  23.9094  26.7404  27.5407

     occupation numbers 
     1.0000   1.0000   1.0000   1.0000   0.0000   0.0000   0.0000   0.0000

          k = 0.5303 0.1179 0.0000 (   395 PWs)   bands (ev):

    -2.8840   4.5268   6.9248   7.4116  18.4524  20.8958  27.3073  28.3444

     occupation numbers 
     1.0000   1.0000   1.0000   1.0000   0.0000   0.0000   0.0000   0.0000

          k =-0.1473-0.5598 0.6776 (   396 PWs)   bands (ev):

    -2.2014   3.8240   6.3550   7.1862  18.9648  21.0792  27.2837  28.6958

     occupation numbers 
     1.0000   1.0000   1.0000   1.0000   0.0000   0.0000   0.0000   0.0000

          k = 0.1473 0.5598 0.6776 (   396 PWs)   bands (ev):

    -2.2013   3.8200   6.3759   7.1692  18.9576  21.0864  27.2880  28.6965

     occupation numbers 
     1.0000   1.0000   1.0000   1.0000   0.0000   0.0000   0.0000   0.0000

          k = 0.6776-0.1473-0.5598 (   396 PWs)   bands (ev):

    -2.2025   3.8362   6.3622   7.1658  18.9651  21.0787  27.2845  28.6886

     occupation numbers 
     1.0000   1.0000   1.0000   1.0000   0.0000   0.0000   0.0000   0.0000

          k =-0.1179-0.5303 0.6482 (   399 PWs)   bands (ev):

    -1.4621   3.1053   5.6726   7.1425  19.3558  21.7419  27.1726  28.8012

     occupation numbers 
     1.0000   1.0000   1.0000   1.0000   0.0000   0.0000   0.0000   0.0000

          k = 0.1179 0.5303 0.6482 (   399 PWs)   bands (ev):

    -1.4619   3.0989   5.6981   7.1226  19.3421  21.7556  27.1821  28.8015

     occupation numbers 
     1.0000   1.0000   1.0000   1.0000   0.0000   0.0000   0.0000   0.0000

          k = 0.6482-0.1179-0.5303 (   399 PWs)   bands (ev):

    -1.4644   3.1183   5.6792   7.1229  19.3487  21.7477  27.1772  28.7941

     occupation numbers 
     1.0000   1.0000   1.0000   1.0000   0.0000   0.0000   0.0000   0.0000

          k =-0.0884-0.5009 0.6187 (   393 PWs)   bands (ev):

    -0.7076   2.4040   5.0142   7.2239  19.6141  22.8107  26.9805  28.6656

     occupation numbers 
     1.0000   1.0000   1.0000   1.0000   0.0000   0.0000   0.0000   0.0000

          k = 0.0884 0.5009 0.6187 (   393 PWs)   bands (ev):

    -0.7075   2.3974   5.0391   7.2044  19.5979  22.8270  26.9957  28.6638

     occupation numbers 
     1.0000   1.0000   1.0000   1.0000   0.0000   0.0000   0.0000   0.0000

          k = 0.6187-0.0884-0.5009 (   393 PWs)   bands (ev):

    -0.7126   2.4197   5.0195   7.2055  19.6023  22.8200  26.9897  28.6589

     occupation numbers 
     1.0000   1.0000   1.0000   1.0000   0.0000   0.0000   0.0000   0.0000

          k =-0.0589-0.4714 0.5893 (   390 PWs)   bands (ev):

    -0.0897   1.8574   4.4637   7.4068  19.8490  24.0973  26.6907  28.3270

     occupation numbers 
     1.0000   1.0000   1.0000   1.0000   0.0000   0.0000   0.0000   0.0000

          k = 0.0589 0.4714 0.5893 (   390 PWs)   bands (ev):

    -0.0912   1.8543   4.4853   7.3880  19.8322  24.1144  26.7100  28.3221

     occupation numbers 
     1.0000   1.0000   1.0000   1.0000   0.0000   0.0000   0.0000   0.0000

          k = 0.5893-0.0589-0.4714 (   390 PWs)   bands (ev):

    -0.1003   1.8790   4.4679   7.3891  19.8349  24.1079  26.7048  28.3208

     occupation numbers 
     1.0000   1.0000   1.0000   1.0000   0.0000   0.0000   0.0000   0.0000

          k =-0.0295-0.4419 0.5598 (   391 PWs)   bands (ev):

    -0.0690   1.8940   4.0907   7.6779  20.1188  25.4133  26.2858  27.8820

     occupation numbers 
     1.0000   1.0000   1.0000   1.0000   0.0000   0.0000   0.0000   0.0000

          k = 0.0295 0.4419 0.5598 (   391 PWs)   bands (ev):

    -0.0743   1.8994   4.1064   7.6597  20.1019  25.4363  26.2977  27.8774

     occupation numbers 
     1.0000   1.0000   1.0000   1.0000   0.0000   0.0000   0.0000   0.0000

          k = 0.5598-0.0295-0.4419 (   391 PWs)   bands (ev):

    -0.0799   1.9159   4.0945   7.6605  20.1032  25.4275  26.2992  27.8774

     occupation numbers 
     1.0000   1.0000   1.0000   1.0000   0.0000   0.0000   0.0000   0.0000

          k = 0.0000 0.4125 0.5303 (   394 PWs)   bands (ev):

    -0.6423   2.3973   4.0423   8.0078  20.4232  25.4792  26.8321  27.4613

     occupation numbers 
     1.0000   1.0000   1.0000   1.0000   0.0000   0.0000   0.0000   0.0000

          k =-0.1179-0.5893 0.7071 (   396 PWs)   bands (ev):

    -1.7678   3.2869   6.6441   6.9179  18.5286  20.1141  28.2552  29.1333

     occupation numbers 
     1.0000   1.0000   1.0000   1.0000   0.0000   0.0000   0.0000   0.0000

          k =-0.0884-0.5598 0.6776 (   398 PWs)   bands (ev):

    -1.0545   2.6521   6.0267   6.8159  19.0379  20.4593  28.1855  29.2435

     occupation numbers 
     1.0000   1.0000   1.0000   1.0000   0.0000   0.0000   0.0000   0.0000

          k = 0.0884 0.5598 0.6776 (   398 PWs)   bands (ev):

    -1.0544   2.6499   6.0458   6.7988  19.0282  20.4690  28.1920  29.2417

     occupation numbers 
     1.0000   1.0000   1.0000   1.0000   0.0000   0.0000   0.0000   0.0000

          k = 0.6776-0.0884-0.5598 (   398 PWs)   bands (ev):

    -1.0564   2.6599   6.0369   6.7984  19.0346  20.4624  28.1896  29.2359

     occupation numbers 
     1.0000   1.0000   1.0000   1.0000   0.0000   0.0000   0.0000   0.0000

          k =-0.0589-0.5303 0.6482 (   395 PWs)   bands (ev):

    -0.3099   2.0566   5.2778   6.8915  19.3380  21.3687  28.0160  29.0590

     occupation numbers 
     1.0000   1.0000   1.0000   1.0000   0.0000   0.0000   0.0000   0.0000

          k = 0.0589 0.5303 0.6482 (   395 PWs)   bands (ev):

    -0.3100   2.0535   5.2974   6.8743  19.3234  21.3831  28.0307  29.0533

     occupation numbers 
     1.0000   1.0000   1.0000   1.0000   0.0000   0.0000   0.0000   0.0000

          k = 0.6482-0.0589-0.5303 (   395 PWs)   bands (ev):

    -0.3141   2.0660   5.2878   6.8749  19.3272  21.3787  28.0268  29.0504

     occupation numbers 
     1.0000   1.0000   1.0000   1.0000   0.0000   0.0000   0.0000   0.0000

          k =-0.0295-0.5009 0.6187 (   391 PWs)   bands (ev):

     0.3536   1.5717   4.5835   7.0680  19.5587  22.6242  27.6979  28.6600

     occupation numbers 
     1.0000   1.0000   1.0000   1.0000   0.0000   0.0000   0.0000   0.0000

          k = 0.0295 0.5009 0.6187 (   391 PWs)   bands (ev):

     0.3506   1.5724   4.6010   7.0515  19.5434  22.6389  27.7206  28.6499

     occupation numbers 
     1.0000   1.0000   1.0000   1.0000   0.0000   0.0000   0.0000   0.0000

          k = 0.6187-0.0295-0.5009 (   391 PWs)   bands (ev):

     0.3431   1.5864   4.5937   7.0520  19.5449  22.6366  27.7166  28.6502

     occupation numbers 
     1.0000   1.0000   1.0000   1.0000   0.0000   0.0000   0.0000   0.0000

          k = 0.0000 0.4714 0.5893 (   390 PWs)   bands (ev):

     0.4229   1.6077   4.1140   7.3168  19.7948  24.0454  27.1311  28.2269

     occupation numbers 
     1.0000   1.0000   1.0000   1.0000   0.0000   0.0000   0.0000   0.0000

          k =-0.0589-0.5893 0.7071 (   397 PWs)   bands (ev):

    -0.5691   1.9900   6.4929   6.6172  18.7181  19.4997  29.0206  29.5408

     occupation numbers 
     1.0000   1.0000   1.0000   1.0000   0.0000   0.0000   0.0000   0.0000

          k =-0.0295-0.5598 0.6776 (   394 PWs)   bands (ev):

     0.1579   1.4097   5.8604   6.6445  19.1444  20.0787  28.8842  29.3289

     occupation numbers 
     1.0000   1.0000   1.0000   1.0000   0.0000   0.0000   0.0000   0.0000

          k = 0.0295 0.5598 0.6776 (   394 PWs)   bands (ev):

     0.1576   1.4093   5.8761   6.6292  19.1311  20.0919  28.8970  29.3204

     occupation numbers 
     1.0000   1.0000   1.0000   1.0000   0.0000   0.0000   0.0000   0.0000

          k = 0.6776-0.0295-0.5598 (   394 PWs)   bands (ev):

     0.1541   1.4151   5.8731   6.6293  19.1342  20.0887  28.8968  29.3177

     occupation numbers 
     1.0000   1.0000   1.0000   1.0000   0.0000   0.0000   0.0000   0.0000

          k = 0.0000 0.5303 0.6482 (   389 PWs)   bands (ev):

     0.7319   1.0402   5.1641   6.7960  19.3224  21.2532  28.5192  28.9414

     occupation numbers 
     1.0000   1.0000   1.0000   1.0000   0.0000   0.0000   0.0000   0.0000

          k = 0.3536 0.1768 0.0000 (   393 PWs)   bands (ev):

    -5.3172   6.7630   7.7913  10.4062  19.8311  23.2968  24.8183  24.9903

     occupation numbers 
     1.0000   1.0000   1.0000   1.0000   0.0000   0.0000   0.0000   0.0000

          k = 0.3830 0.2062-0.0295 (   393 PWs)   bands (ev):

    -4.7207   5.7859   7.3212  10.0100  20.3698  23.2054  25.0020  25.4668

     occupation numbers 
     1.0000   1.0000   1.0000   1.0000   0.0000   0.0000   0.0000   0.0000

          k =-0.3830-0.2062-0.0295 (   393 PWs)   bands (ev):

    -4.7207   5.7826   7.3263  10.0082  20.3638  23.2126  24.9853  25.4871

     occupation numbers 
     1.0000   1.0000   1.0000   1.0000   0.0000   0.0000   0.0000   0.0000

          k =-0.0295 0.3830 0.2062 (   393 PWs)   bands (ev):

    -4.7210   5.8083   7.3187   9.9837  20.3785  23.1904  25.0080  25.4562

     occupation numbers 
     1.0000   1.0000   1.0000   1.0000   0.0000   0.0000   0.0000   0.0000

          k = 0.4125 0.2357-0.0589 (   396 PWs)   bands (ev):

    -4.0443   4.6227   7.1061   9.6003  20.8695  23.0404  25.2413  26.0361

     occupation numbers 
     1.0000   1.0000   1.0000   1.0000   0.0000   0.0000   0.0000   0.0000

          k =-0.4125-0.2357-0.0589 (   396 PWs)   bands (ev):

    -4.0442   4.6192   7.1146   9.5953  20.8536  23.0603  25.2191  26.0647

     occupation numbers 
     1.0000   1.0000   1.0000   1.0000   0.0000   0.0000   0.0000   0.0000

          k =-0.0589 0.4125 0.2357 (   396 PWs)   bands (ev):

    -4.0449   4.6420   7.1070   9.5751  20.8703  23.0308  25.2481  26.0251

     occupation numbers 
     1.0000   1.0000   1.0000   1.0000   0.0000   0.0000   0.0000   0.0000

          k =-0.2652-0.4419 0.6187 (   395 PWs)   bands (ev):

    -3.2992   3.4472   7.0017   9.2201  21.2422  22.8780  25.6242  26.5728

     occupation numbers 
     1.0000   1.0000   1.0000   1.0000   0.0000   0.0000   0.0000   0.0000

          k = 0.2652 0.4419 0.6187 (   395 PWs)   bands (ev):

    -3.2992   3.4442   7.0136   9.2106  21.2121  22.9146  25.5961  26.6101

     occupation numbers 
     1.0000   1.0000   1.0000   1.0000   0.0000   0.0000   0.0000   0.0000

          k = 0.6187-0.2652-0.4419 (   395 PWs)   bands (ev):

    -3.3006   3.4648   7.0056   9.1950  21.2308  22.8800  25.6297  26.5612

     occupation numbers 
     1.0000   1.0000   1.0000   1.0000   0.0000   0.0000   0.0000   0.0000

          k =-0.2357-0.4125 0.5893 (   394 PWs)   bands (ev):

    -2.5125   2.3349   6.9621   8.9067  21.4671  22.7542  25.9880  27.1685

     occupation numbers 
     1.0000   1.0000   1.0000   1.0000   0.0000   0.0000   0.0000   0.0000

          k = 0.2357 0.4125 0.5893 (   394 PWs)   bands (ev):

    -2.5124   2.3326   6.9783   8.8916  21.4223  22.8069  25.9611  27.2067

     occupation numbers 
     1.0000   1.0000   1.0000   1.0000   0.0000   0.0000   0.0000   0.0000

          k = 0.5893-0.2357-0.4125 (   394 PWs)   bands (ev):

    -2.5156   2.3529   6.9686   8.8809  21.4412  22.7704  25.9912  27.1552

     occupation numbers 
     1.0000   1.0000   1.0000   1.0000   0.0000   0.0000   0.0000   0.0000

          k =-0.2062-0.3830 0.5598 (   390 PWs)   bands (ev):

    -1.7692   1.3904   6.9573   8.6963  21.5762  22.6795  26.2066  27.7828

     occupation numbers 
     1.0000   1.0000   1.0000   1.0000   0.0000   0.0000   0.0000   0.0000

          k = 0.2062 0.3830 0.5598 (   390 PWs)   bands (ev):

    -1.7691   1.3888   6.9785   8.6748  21.5226  22.7419  26.1871  27.8129

     occupation numbers 
     1.0000   1.0000   1.0000   1.0000   0.0000   0.0000   0.0000   0.0000

          k = 0.5598-0.2062-0.3830 (   390 PWs)   bands (ev):

    -1.7759   1.4113   6.9659   8.6694  21.5387  22.7071  26.2081  27.7650

     occupation numbers 
     1.0000   1.0000   1.0000   1.0000   0.0000   0.0000   0.0000   0.0000

          k =-0.1768-0.3536 0.5303 (   394 PWs)   bands (ev):

    -1.3886   0.9419   6.9599   8.6212  21.6076  22.6546  26.2751  28.0828

     occupation numbers 
     1.0000   1.0000   1.0000   1.0000   0.0000   0.0000   0.0000   0.0000

          k = 0.5303-0.1768-0.3536 (   394 PWs)   bands (ev):

    -1.3992   0.9664   6.9694   8.5938  21.5656  22.6866  26.2760  28.0610

     occupation numbers 
     1.0000   1.0000   1.0000   1.0000   0.0000   0.0000   0.0000   0.0000

          k = 0.4125 0.1768 0.0000 (   393 PWs)   bands (ev):

    -4.5193   5.9722   7.1853   9.3469  19.6906  23.6525  24.4114  26.1250

     occupation numbers 
     1.0000   1.0000   1.0000   1.0000   0.0000   0.0000   0.0000   0.0000

          k = 0.4419 0.2062-0.0295 (   399 PWs)   bands (ev):

    -3.8730   5.0766   6.7341   8.9399  20.2551  23.5340  24.5302  26.7093

     occupation numbers 
     1.0000   1.0000   1.0000   1.0000   0.0000   0.0000   0.0000   0.0000

          k =-0.4419-0.2062-0.0295 (   399 PWs)   bands (ev):

    -3.8730   5.0722   6.7427   8.9357  20.2482  23.5460  24.5250  26.7150

     occupation numbers 
     1.0000   1.0000   1.0000   1.0000   0.0000   0.0000   0.0000   0.0000

          k =-0.0295 0.4419 0.2062 (   399 PWs)   bands (ev):

    -3.8736   5.0976   6.7334   8.9151  20.2607  23.5098  24.5486  26.6982

     occupation numbers 
     1.0000   1.0000   1.0000   1.0000   0.0000   0.0000   0.0000   0.0000

          k =-0.2357-0.4714 0.6482 (   399 PWs)   bands (ev):

    -3.1547   4.0125   6.5112   8.5539  20.7352  23.5354  24.7982  27.1416

     occupation numbers 
     1.0000   1.0000   1.0000   1.0000   0.0000   0.0000   0.0000   0.0000

          k = 0.2357 0.4714 0.6482 (   399 PWs)   bands (ev):

    -3.1546   4.0076   6.5257   8.5438  20.7184  23.5644  24.7855  27.1534

     occupation numbers 
     1.0000   1.0000   1.0000   1.0000   0.0000   0.0000   0.0000   0.0000

          k = 0.6482-0.2357-0.4714 (   399 PWs)   bands (ev):

    -3.1558   4.0312   6.5144   8.5287  20.7323  23.5215  24.8139  27.1307

     occupation numbers 
     1.0000   1.0000   1.0000   1.0000   0.0000   0.0000   0.0000   0.0000

          k =-0.2062-0.4419 0.6187 (   395 PWs)   bands (ev):

    -2.3843   2.9399   6.3768   8.2452  21.0657  23.5211  25.3593  27.4168

     occupation numbers 
     1.0000   1.0000   1.0000   1.0000   0.0000   0.0000   0.0000   0.0000

          k = 0.2062 0.4419 0.6187 (   395 PWs)   bands (ev):

    -2.3841   2.9357   6.3966   8.2284  21.0391  23.5622  25.3425  27.4352

     occupation numbers 
     1.0000   1.0000   1.0000   1.0000   0.0000   0.0000   0.0000   0.0000

          k = 0.6187-0.2062-0.4419 (   395 PWs)   bands (ev):

    -2.3868   2.9581   6.3831   8.2191  21.0530  23.5212  25.3701  27.4058

     occupation numbers 
     1.0000   1.0000   1.0000   1.0000   0.0000   0.0000   0.0000   0.0000

          k =-0.1768-0.4125 0.5893 (   395 PWs)   bands (ev):

    -1.6184   1.9659   6.2685   8.0623  21.2910  23.4307  26.1336  27.5492

     occupation numbers 
     1.0000   1.0000   1.0000   1.0000   0.0000   0.0000   0.0000   0.0000

          k = 0.1768 0.4125 0.5893 (   395 PWs)   bands (ev):

    -1.6183   1.9627   6.2927   8.0395  21.2569  23.4779  26.1124  27.5754

     occupation numbers 
     1.0000   1.0000   1.0000   1.0000   0.0000   0.0000   0.0000   0.0000

          k = 0.5893-0.1768-0.4125 (   395 PWs)   bands (ev):

    -1.6239   1.9860   6.2765   8.0357  21.2698  23.4416  26.1417  27.5368

     occupation numbers 
     1.0000   1.0000   1.0000   1.0000   0.0000   0.0000   0.0000   0.0000

          k =-0.1473-0.3830 0.5598 (   391 PWs)   bands (ev):

    -1.0677   1.3210   6.1585   8.0344  21.4817  23.2808  26.7933  27.6058

     occupation numbers 
     1.0000   1.0000   1.0000   1.0000   0.0000   0.0000   0.0000   0.0000

          k = 0.1473 0.3830 0.5598 (   391 PWs)   bands (ev):

    -1.0680   1.3193   6.1845   8.0080  21.4418  23.3324  26.7637  27.6373

     occupation numbers 
     1.0000   1.0000   1.0000   1.0000   0.0000   0.0000   0.0000   0.0000

          k = 0.5598-0.1473-0.3830 (   391 PWs)   bands (ev):

    -1.0781   1.3457   6.1664   8.0084  21.4535  23.2997  26.8020  27.5880

     occupation numbers 
     1.0000   1.0000   1.0000   1.0000   0.0000   0.0000   0.0000   0.0000

          k =-0.1179-0.3536 0.5303 (   391 PWs)   bands (ev):

    -1.2075   1.4876   6.0520   8.1587  21.6782  23.0810  26.8279  27.7211

     occupation numbers 
     1.0000   1.0000   1.0000   1.0000   0.0000   0.0000   0.0000   0.0000

          k = 0.1179 0.3536 0.5303 (   391 PWs)   bands (ev):

    -1.2085   1.4878   6.0770   8.1313  21.6334  23.1368  26.8108  27.7304

     occupation numbers 
     1.0000   1.0000   1.0000   1.0000   0.0000   0.0000   0.0000   0.0000

          k = 0.5303-0.1179-0.3536 (   391 PWs)   bands (ev):

    -1.2162   1.5108   6.0584   8.1339  21.6441  23.1067  26.8354  27.7011

     occupation numbers 
     1.0000   1.0000   1.0000   1.0000   0.0000   0.0000   0.0000   0.0000

          k =-0.0884-0.3241 0.5009 (   394 PWs)   bands (ev):

    -1.8766   2.3025   5.9762   8.4085  21.8820  22.8272  26.3741  27.6270

     occupation numbers 
     1.0000   1.0000   1.0000   1.0000   0.0000   0.0000   0.0000   0.0000

          k = 0.0884 0.3241 0.5009 (   394 PWs)   bands (ev):

    -1.8777   2.3043   5.9985   8.3817  21.8330  22.8855  26.3658  27.6224

     occupation numbers 
     1.0000   1.0000   1.0000   1.0000   0.0000   0.0000   0.0000   0.0000

          k = 0.5009-0.0884-0.3241 (   394 PWs)   bands (ev):

    -1.8808   2.3220   5.9804   8.3849  21.8428  22.8586  26.3805  27.6096

     occupation numbers 
     1.0000   1.0000   1.0000   1.0000   0.0000   0.0000   0.0000   0.0000

          k =-0.0589-0.2946 0.4714 (   393 PWs)   bands (ev):

    -2.6536   3.3296   5.9658   8.7522  21.9766  22.5977  25.8075  27.2969

     occupation numbers 
     1.0000   1.0000   1.0000   1.0000   0.0000   0.0000   0.0000   0.0000

          k = 0.0589 0.2946 0.4714 (   393 PWs)   bands (ev):

    -2.6544   3.3335   5.9840   8.7262  21.9406  22.6388  25.8039  27.2888

     occupation numbers 
     1.0000   1.0000   1.0000   1.0000   0.0000   0.0000   0.0000   0.0000

          k = 0.4714-0.0589-0.2946 (   393 PWs)   bands (ev):

    -2.6555   3.3484   5.9674   8.7290  21.9460  22.6207  25.8149  27.2810

     occupation numbers 
     1.0000   1.0000   1.0000   1.0000   0.0000   0.0000   0.0000   0.0000

          k =-0.0295-0.2652 0.4419 (   398 PWs)   bands (ev):

    -3.4080   4.3909   6.0755   9.1578  21.6235  22.6988  25.3487  26.8074

     occupation numbers 
     1.0000   1.0000   1.0000   1.0000   0.0000   0.0000   0.0000   0.0000

          k = 0.0295 0.2652 0.4419 (   398 PWs)   bands (ev):

    -3.4087   4.3998   6.0869   9.1327  21.6296  22.6914  25.3519  26.7964

     occupation numbers 
     1.0000   1.0000   1.0000   1.0000   0.0000   0.0000   0.0000   0.0000

          k = 0.4419-0.0295-0.2652 (   398 PWs)   bands (ev):

    -3.4090   4.4113   6.0742   9.1343  21.6272  22.6874  25.3580  26.7919

     occupation numbers 
     1.0000   1.0000   1.0000   1.0000   0.0000   0.0000   0.0000   0.0000

          k = 0.0000 0.2357 0.4125 (   395 PWs)   bands (ev):

    -4.1025   5.3016   6.4659   9.5662  21.0202  22.9469  25.0912  26.1680

     occupation numbers 
     1.0000   1.0000   1.0000   1.0000   0.0000   0.0000   0.0000   0.0000

          k = 0.4714 0.1768-0.0000 (   399 PWs)   bands (ev):

    -3.6123   5.1617   6.6855   8.2906  19.6020  22.7422  25.2504  27.3343

     occupation numbers 
     1.0000   1.0000   1.0000   1.0000   0.0000   0.0000   0.0000   0.0000

          k =-0.2062-0.5009 0.6776 (   399 PWs)   bands (ev):

    -2.9227   4.3643   6.2304   7.8994  20.1866  22.9089  25.1824  27.8191

     occupation numbers 
     1.0000   1.0000   1.0000   1.0000   0.0000   0.0000   0.0000   0.0000

          k = 0.2062 0.5009 0.6776 (   399 PWs)   bands (ev):

    -2.9227   4.3593   6.2435   7.8911  20.1784  22.9186  25.1828  27.8228

     occupation numbers 
     1.0000   1.0000   1.0000   1.0000   0.0000   0.0000   0.0000   0.0000

          k = 0.6776-0.2062-0.5009 (   399 PWs)   bands (ev):

    -2.9238   4.3835   6.2323   7.8757  20.1896  22.8991  25.1882  27.8090

     occupation numbers 
     1.0000   1.0000   1.0000   1.0000   0.0000   0.0000   0.0000   0.0000

          k =-0.1768-0.4714 0.6482 (   395 PWs)   bands (ev):

    -2.1743   3.4366   5.9231   7.5988  20.6280  23.4301  25.1140  28.0785

     occupation numbers 
     1.0000   1.0000   1.0000   1.0000   0.0000   0.0000   0.0000   0.0000

          k = 0.1768 0.4714 0.6482 (   395 PWs)   bands (ev):

    -2.1742   3.4304   5.9452   7.5821  20.6106  23.4551  25.1103  28.0854

     occupation numbers 
     1.0000   1.0000   1.0000   1.0000   0.0000   0.0000   0.0000   0.0000

          k = 0.6482-0.1768-0.4714 (   395 PWs)   bands (ev):

    -2.1764   3.4550   5.9285   7.5737  20.6220  23.4257  25.1235  28.0693

     occupation numbers 
     1.0000   1.0000   1.0000   1.0000   0.0000   0.0000   0.0000   0.0000

          k =-0.1473-0.4419 0.6187 (   393 PWs)   bands (ev):

    -1.4062   2.5128   5.6603   7.4495  20.9157  24.0565  25.2454  28.0833

     occupation numbers 
     1.0000   1.0000   1.0000   1.0000   0.0000   0.0000   0.0000   0.0000

          k = 0.1473 0.4419 0.6187 (   393 PWs)   bands (ev):

    -1.4061   2.5075   5.6866   7.4271  20.8923  24.1026  25.2277  28.0918

     occupation numbers 
     1.0000   1.0000   1.0000   1.0000   0.0000   0.0000   0.0000   0.0000

          k = 0.6187-0.1473-0.4419 (   393 PWs)   bands (ev):

    -1.4107   2.5323   5.6670   7.4245  20.9021  24.0581  25.2565  28.0757

     occupation numbers 
     1.0000   1.0000   1.0000   1.0000   0.0000   0.0000   0.0000   0.0000

          k =-0.1179-0.4125 0.5893 (   394 PWs)   bands (ev):

    -0.7540   1.7759   5.4117   7.4667  21.1454  24.2133  25.9724  27.8105

     occupation numbers 
     1.0000   1.0000   1.0000   1.0000   0.0000   0.0000   0.0000   0.0000

          k = 0.1179 0.4125 0.5893 (   394 PWs)   bands (ev):

    -0.7543   1.7725   5.4378   7.4424  21.1185  24.2608  25.9552  27.8190

     occupation numbers 
     1.0000   1.0000   1.0000   1.0000   0.0000   0.0000   0.0000   0.0000

          k = 0.5893-0.1179-0.4125 (   394 PWs)   bands (ev):

    -0.7633   1.7997   5.4178   7.4429  21.1266  24.2236  25.9795  27.8048

     occupation numbers 
     1.0000   1.0000   1.0000   1.0000   0.0000   0.0000   0.0000   0.0000

          k =-0.0884-0.3830 0.5598 (   394 PWs)   bands (ev):

    -0.6444   1.6710   5.1964   7.6294  21.3851  24.0277  26.9223  27.3058

     occupation numbers 
     1.0000   1.0000   1.0000   1.0000   0.0000   0.0000   0.0000   0.0000

          k = 0.0884 0.3830 0.5598 (   394 PWs)   bands (ev):

    -0.6461   1.6710   5.2196   7.6053  21.3561  24.0713  26.8936  27.3252

     occupation numbers 
     1.0000   1.0000   1.0000   1.0000   0.0000   0.0000   0.0000   0.0000

          k = 0.5598-0.0884-0.3830 (   394 PWs)   bands (ev):

    -0.6551   1.6964   5.2007   7.6072  21.3627  24.0437  26.9319  27.2946

     occupation numbers 
     1.0000   1.0000   1.0000   1.0000   0.0000   0.0000   0.0000   0.0000

          k =-0.0589-0.3536 0.5303 (   394 PWs)   bands (ev):

    -1.1974   2.3153   5.0505   7.9077  21.6630  23.6728  26.5867  27.7012

     occupation numbers 
     1.0000   1.0000   1.0000   1.0000   0.0000   0.0000   0.0000   0.0000

          k = 0.0589 0.3536 0.5303 (   394 PWs)   bands (ev):

    -1.1995   2.3184   5.0693   7.8845  21.6325  23.7135  26.5792  27.6936

     occupation numbers 
     1.0000   1.0000   1.0000   1.0000   0.0000   0.0000   0.0000   0.0000

          k = 0.5303-0.0589-0.3536 (   394 PWs)   bands (ev):

    -1.2031   2.3364   5.0527   7.8864  21.6380  23.6927  26.5919  27.6883

     occupation numbers 
     1.0000   1.0000   1.0000   1.0000   0.0000   0.0000   0.0000   0.0000

          k =-0.0295-0.3241 0.5009 (   395 PWs)   bands (ev):

    -1.9480   3.2029   5.0335   8.2736  21.9847  23.1330  25.9858  27.8418

     occupation numbers 
     1.0000   1.0000   1.0000   1.0000   0.0000   0.0000   0.0000   0.0000

          k = 0.0295 0.3241 0.5009 (   395 PWs)   bands (ev):

    -1.9497   3.2109   5.0455   8.2515  21.9538  23.1673  25.9859  27.8261

     occupation numbers 
     1.0000   1.0000   1.0000   1.0000   0.0000   0.0000   0.0000   0.0000

          k = 0.5009-0.0295-0.3241 (   395 PWs)   bands (ev):

    -1.9507   3.2226   5.0334   8.2527  21.9582  23.1549  25.9922  27.8238

     occupation numbers 
     1.0000   1.0000   1.0000   1.0000   0.0000   0.0000   0.0000   0.0000

          k = 0.0000 0.2946 0.4714 (   394 PWs)   bands (ev):

    -2.7039   3.9978   5.3111   8.6789  22.3115  22.4392  25.5793  27.4520

     occupation numbers 
     1.0000   1.0000   1.0000   1.0000   0.0000   0.0000   0.0000   0.0000

          k =-0.1768-0.5303 0.7071 (   397 PWs)   bands (ev):

    -2.6043   4.2659   6.3039   7.3626  19.5865  21.8711  26.2212  28.3402

     occupation numbers 
     1.0000   1.0000   1.0000   1.0000   0.0000   0.0000   0.0000   0.0000

          k =-0.1473-0.5009 0.6776 (   397 PWs)   bands (ev):

    -1.8819   3.5730   5.8104   7.0387  20.1776  22.2265  26.0917  28.6091

     occupation numbers 
     1.0000   1.0000   1.0000   1.0000   0.0000   0.0000   0.0000   0.0000

          k = 0.1473 0.5009 0.6776 (   397 PWs)   bands (ev):

    -1.8818   3.5684   5.8284   7.0249  20.1678  22.2369  26.0945  28.6110

     occupation numbers 
     1.0000   1.0000   1.0000   1.0000   0.0000   0.0000   0.0000   0.0000

          k = 0.6776-0.1473-0.5009 (   397 PWs)   bands (ev):

    -1.8836   3.5890   5.8158   7.0164  20.1778  22.2232  26.0942  28.5999

     occupation numbers 
     1.0000   1.0000   1.0000   1.0000   0.0000   0.0000   0.0000   0.0000

          k =-0.1179-0.4714 0.6482 (   395 PWs)   bands (ev):

    -1.1242   2.8196   5.3233   6.9109  20.5557  23.0514  25.9237  28.5460

     occupation numbers 
     1.0000   1.0000   1.0000   1.0000   0.0000   0.0000   0.0000   0.0000

          k = 0.1179 0.4714 0.6482 (   395 PWs)   bands (ev):

    -1.1241   2.8134   5.3492   6.8904  20.5383  23.0715  25.9277  28.5482

     occupation numbers 
     1.0000   1.0000   1.0000   1.0000   0.0000   0.0000   0.0000   0.0000

          k = 0.6482-0.1179-0.4714 (   395 PWs)   bands (ev):

    -1.1279   2.8368   5.3301   6.8881  20.5466  23.0557  25.9294  28.5390

     occupation numbers 
     1.0000   1.0000   1.0000   1.0000   0.0000   0.0000   0.0000   0.0000

          k =-0.0884-0.4419 0.6187 (   393 PWs)   bands (ev):

    -0.4199   2.1236   4.8796   6.9614  20.8075  24.1468  25.7552  28.1454

     occupation numbers 
     1.0000   1.0000   1.0000   1.0000   0.0000   0.0000   0.0000   0.0000

          k = 0.0884 0.4419 0.6187 (   393 PWs)   bands (ev):

    -0.4202   2.1187   4.9051   6.9398  20.7871  24.1776  25.7542  28.1457

     occupation numbers 
     1.0000   1.0000   1.0000   1.0000   0.0000   0.0000   0.0000   0.0000

          k = 0.6187-0.0884-0.4419 (   393 PWs)   bands (ev):

    -0.4280   2.1448   4.8852   6.9402  20.7930  24.1554  25.7633  28.1414

     occupation numbers 
     1.0000   1.0000   1.0000   1.0000   0.0000   0.0000   0.0000   0.0000

          k =-0.0589-0.4125 0.5893 (   394 PWs)   bands (ev):

    -0.1018   1.8353   4.5294   7.1497  21.0502  24.9350  25.9337  27.4974

     occupation numbers 
     1.0000   1.0000   1.0000   1.0000   0.0000   0.0000   0.0000   0.0000

          k = 0.0589 0.4125 0.5893 (   394 PWs)   bands (ev):

    -0.1046   1.8356   4.5507   7.1289  21.0288  24.9850  25.9139  27.4961

     occupation numbers 
     1.0000   1.0000   1.0000   1.0000   0.0000   0.0000   0.0000   0.0000

          k = 0.5893-0.0589-0.4125 (   394 PWs)   bands (ev):

    -0.1141   1.8608   4.5333   7.1299  21.0327  24.9509  25.9381  27.4955

     occupation numbers 
     1.0000   1.0000   1.0000   1.0000   0.0000   0.0000   0.0000   0.0000

          k =-0.0295-0.3830 0.5598 (   392 PWs)   bands (ev):

    -0.5054   2.2702   4.3327   7.4459  21.3278  24.6870  26.7985  26.9360

     occupation numbers 
     1.0000   1.0000   1.0000   1.0000   0.0000   0.0000   0.0000   0.0000

          k = 0.0295 0.3830 0.5598 (   392 PWs)   bands (ev):

    -0.5095   2.2771   4.3470   7.4262  21.3066  24.7209  26.7737  26.9502

     occupation numbers 
     1.0000   1.0000   1.0000   1.0000   0.0000   0.0000   0.0000   0.0000

          k = 0.5598-0.0295-0.3830 (   392 PWs)   bands (ev):

    -0.5127   2.2911   4.3352   7.4270  21.3087  24.7066  26.8052  26.9280

     occupation numbers 
     1.0000   1.0000   1.0000   1.0000   0.0000   0.0000   0.0000   0.0000

          k =-0.0000 0.3536 0.5303 (   396 PWs)   bands (ev):

    -1.2119   2.8939   4.4391   7.8085  21.6262  24.0271  26.2907  27.7406

     occupation numbers 
     1.0000   1.0000   1.0000   1.0000   0.0000   0.0000   0.0000   0.0000

          k =-0.1179-0.5303 0.7071 (   398 PWs)   bands (ev):

    -1.5077   3.2332   6.0512   6.6631  19.6611  21.1474  27.1861  28.9876

     occupation numbers 
     1.0000   1.0000   1.0000   1.0000   0.0000   0.0000   0.0000   0.0000

          k =-0.0884-0.5009 0.6776 (   396 PWs)   bands (ev):

    -0.7687   2.6315   5.4899   6.4760  20.2258  21.6960  27.0259  28.8847

     occupation numbers 
     1.0000   1.0000   1.0000   1.0000   0.0000   0.0000   0.0000   0.0000

          k = 0.0884 0.5009 0.6776 (   396 PWs)   bands (ev):

    -0.7687   2.6286   5.5096   6.4588  20.2136  21.7084  27.0307  28.8843

     occupation numbers 
     1.0000   1.0000   1.0000   1.0000   0.0000   0.0000   0.0000   0.0000

          k = 0.6776-0.0884-0.5009 (   396 PWs)   bands (ev):

    -0.7718   2.6433   5.4993   6.4562  20.2216  21.6986  27.0291  28.8773

     occupation numbers 
     1.0000   1.0000   1.0000   1.0000   0.0000   0.0000   0.0000   0.0000

          k =-0.0589-0.4714 0.6482 (   390 PWs)   bands (ev):

    -0.0440   2.0575   4.8465   6.5410  20.5169  22.7780  26.8073  28.4060

     occupation numbers 
     1.0000   1.0000   1.0000   1.0000   0.0000   0.0000   0.0000   0.0000

          k = 0.0589 0.4714 0.6482 (   390 PWs)   bands (ev):

    -0.0446   2.0544   4.8680   6.5222  20.5001  22.7955  26.8168  28.4029

     occupation numbers 
     1.0000   1.0000   1.0000   1.0000   0.0000   0.0000   0.0000   0.0000

          k = 0.6482-0.0589-0.4714 (   390 PWs)   bands (ev):

    -0.0511   2.0725   4.8556   6.5222  20.5046  22.7880  26.8149  28.4007

     occupation numbers 
     1.0000   1.0000   1.0000   1.0000   0.0000   0.0000   0.0000   0.0000

          k =-0.0295-0.4419 0.6187 (   393 PWs)   bands (ev):

     0.4094   1.7238   4.3231   6.7435  20.7507  24.0837  26.4828  27.7152

     occupation numbers 
     1.0000   1.0000   1.0000   1.0000   0.0000   0.0000   0.0000   0.0000

          k = 0.0295 0.4419 0.6187 (   393 PWs)   bands (ev):

     0.4044   1.7276   4.3407   6.7257  20.7331  24.1033  26.4943  27.7095

     occupation numbers 
     1.0000   1.0000   1.0000   1.0000   0.0000   0.0000   0.0000   0.0000

          k = 0.6187-0.0295-0.4419 (   393 PWs)   bands (ev):

     0.3961   1.7444   4.3314   6.7261  20.7351  24.0973  26.4940  27.7107

     occupation numbers 
     1.0000   1.0000   1.0000   1.0000   0.0000   0.0000   0.0000   0.0000

          k = 0.0000 0.4125 0.5893 (   394 PWs)   bands (ev):

     0.1186   2.0015   4.0906   7.0336  20.9989  25.2513  26.0819  27.1310

     occupation numbers 
     1.0000   1.0000   1.0000   1.0000   0.0000   0.0000   0.0000   0.0000

          k =-0.0589-0.5303 0.7071 (   399 PWs)   bands (ev):

    -0.3400   2.0795   5.9389   6.2156  19.8403  20.5752  28.0722  29.1307

     occupation numbers 
     1.0000   1.0000   1.0000   1.0000   0.0000   0.0000   0.0000   0.0000

          k =-0.0295-0.5009 0.6776 (   393 PWs)   bands (ev):

     0.3854   1.5511   5.3131   6.2161  20.2931  21.3842  27.8800  28.6133

     occupation numbers 
     1.0000   1.0000   1.0000   1.0000   0.0000   0.0000   0.0000   0.0000

          k = 0.0295 0.5009 0.6776 (   393 PWs)   bands (ev):

     0.3845   1.5511   5.3298   6.1999  20.2784  21.3987  27.8892  28.6081

     occupation numbers 
     1.0000   1.0000   1.0000   1.0000   0.0000   0.0000   0.0000   0.0000

          k = 0.6776-0.0295-0.5009 (   393 PWs)   bands (ev):

     0.3792   1.5602   5.3259   6.1996  20.2819  21.3947  27.8885  28.6057

     occupation numbers 
     1.0000   1.0000   1.0000   1.0000   0.0000   0.0000   0.0000   0.0000

          k = 0.0000 0.4714 0.6482 (   393 PWs)   bands (ev):

     0.7972   1.3274   4.6852   6.4110  20.4901  22.6963  27.4422  27.9977

     occupation numbers 
     1.0000   1.0000   1.0000   1.0000   0.0000   0.0000   0.0000   0.0000

          k =-0.2357-0.4714 0.7071 (   397 PWs)   bands (ev):

    -3.2089   4.5861   5.9869   8.4949  20.9548  23.2832  24.6376  27.3909

     occupation numbers 
     1.0000   1.0000   1.0000   1.0000   0.0000   0.0000   0.0000   0.0000

          k =-0.2062-0.4419 0.6776 (   399 PWs)   bands (ev):

    -2.4798   3.7898   5.6166   8.0697  21.5863  23.1558  24.8947  27.8492

     occupation numbers 
     1.0000   1.0000   1.0000   1.0000   0.0000   0.0000   0.0000   0.0000

          k = 0.2062 0.4419 0.6776 (   399 PWs)   bands (ev):

    -2.4797   3.7860   5.6254   8.0644  21.5688  23.1811  24.8869  27.8550

     occupation numbers 
     1.0000   1.0000   1.0000   1.0000   0.0000   0.0000   0.0000   0.0000

          k = 0.6776-0.2062-0.4419 (   399 PWs)   bands (ev):

    -2.4814   3.8094   5.6173   8.0472  21.5872  23.1397  24.9097  27.8354

     occupation numbers 
     1.0000   1.0000   1.0000   1.0000   0.0000   0.0000   0.0000   0.0000

          k =-0.1768-0.4125 0.6482 (   398 PWs)   bands (ev):

    -1.7129   2.8536   5.4918   7.7134  21.9524  23.1664  25.4265  28.0033

     occupation numbers 
     1.0000   1.0000   1.0000   1.0000   0.0000   0.0000   0.0000   0.0000

          k = 0.1768 0.4125 0.6482 (   398 PWs)   bands (ev):

    -1.7128   2.8494   5.5066   7.7019  21.9111  23.2207  25.4128  28.0133

     occupation numbers 
     1.0000   1.0000   1.0000   1.0000   0.0000   0.0000   0.0000   0.0000

          k = 0.6482-0.1768-0.4125 (   398 PWs)   bands (ev):

    -1.7163   2.8730   5.4958   7.6897  21.9318  23.1758  25.4365  27.9916

     occupation numbers 
     1.0000   1.0000   1.0000   1.0000   0.0000   0.0000   0.0000   0.0000

          k =-0.1473-0.3830 0.6187 (   393 PWs)   bands (ev):

    -0.9915   2.0000   5.4620   7.4724  22.0750  23.2214  26.2219  27.7572

     occupation numbers 
     1.0000   1.0000   1.0000   1.0000   0.0000   0.0000   0.0000   0.0000

          k = 0.1473 0.3830 0.6187 (   393 PWs)   bands (ev):

    -0.9915   1.9968   5.4817   7.4546  22.0231  23.2864  26.2050  27.7682

     occupation numbers 
     1.0000   1.0000   1.0000   1.0000   0.0000   0.0000   0.0000   0.0000

          k = 0.6187-0.1473-0.3830 (   393 PWs)   bands (ev):

    -0.9988   2.0222   5.4686   7.4476  22.0392  23.2480  26.2289  27.7491

     occupation numbers 
     1.0000   1.0000   1.0000   1.0000   0.0000   0.0000   0.0000   0.0000

          k =-0.1179-0.3536 0.5893 (   394 PWs)   bands (ev):

    -0.6234   1.5841   5.4594   7.3864  22.0980  23.2434  26.9741  27.2123

     occupation numbers 
     1.0000   1.0000   1.0000   1.0000   0.0000   0.0000   0.0000   0.0000

          k = 0.5893-0.1179-0.3536 (   394 PWs)   bands (ev):

    -0.6350   1.6102   5.4670   7.3610  22.0579  23.2747  26.9931  27.1934

     occupation numbers 
     1.0000   1.0000   1.0000   1.0000   0.0000   0.0000   0.0000   0.0000

          k =-0.1768-0.4714 0.7071 (   397 PWs)   bands (ev):

    -2.2220   3.8730   5.6306   7.4272  20.9596  22.9163  25.0886  28.3042

     occupation numbers 
     1.0000   1.0000   1.0000   1.0000   0.0000   0.0000   0.0000   0.0000

          k =-0.1473-0.4419 0.6776 (   395 PWs)   bands (ev):

    -1.4738   3.1862   5.2611   7.0425  21.5848  23.2442  25.0442  28.3926

     occupation numbers 
     1.0000   1.0000   1.0000   1.0000   0.0000   0.0000   0.0000   0.0000

          k = 0.1473 0.4419 0.6776 (   395 PWs)   bands (ev):

    -1.4737   3.1820   5.2741   7.0333  21.5673  23.2686  25.0391  28.3952

     occupation numbers 
     1.0000   1.0000   1.0000   1.0000   0.0000   0.0000   0.0000   0.0000

          k = 0.6776-0.1473-0.4419 (   395 PWs)   bands (ev):

    -1.4767   3.2045   5.2650   7.0205  21.5824  23.2338  25.0562  28.3821

     occupation numbers 
     1.0000   1.0000   1.0000   1.0000   0.0000   0.0000   0.0000   0.0000

          k =-0.1179-0.4125 0.6482 (   395 PWs)   bands (ev):

    -0.7330   2.4255   5.0430   6.8091  21.9112  23.7615  25.2663  28.0096

     occupation numbers 
     1.0000   1.0000   1.0000   1.0000   0.0000   0.0000   0.0000   0.0000

          k = 0.1179 0.4125 0.6482 (   395 PWs)   bands (ev):

    -0.7331   2.4209   5.0642   6.7916  21.8803  23.8127  25.2488  28.0121

     occupation numbers 
     1.0000   1.0000   1.0000   1.0000   0.0000   0.0000   0.0000   0.0000

          k = 0.6482-0.1179-0.4125 (   395 PWs)   bands (ev):

    -0.7391   2.4460   5.0498   6.7852  21.8937  23.7676  25.2769  28.0044

     occupation numbers 
     1.0000   1.0000   1.0000   1.0000   0.0000   0.0000   0.0000   0.0000

          k =-0.0884-0.3830 0.6187 (   394 PWs)   bands (ev):

    -0.2042   1.8809   4.8804   6.7672  22.1111  23.9153  26.0401  27.2465

     occupation numbers 
     1.0000   1.0000   1.0000   1.0000   0.0000   0.0000   0.0000   0.0000

          k = 0.0884 0.3830 0.6187 (   394 PWs)   bands (ev):

    -0.2053   1.8789   4.9039   6.7453  22.0743  23.9711  26.0218  27.2485

     occupation numbers 
     1.0000   1.0000   1.0000   1.0000   0.0000   0.0000   0.0000   0.0000

          k = 0.6187-0.0884-0.3830 (   394 PWs)   bands (ev):

    -0.2158   1.9064   4.8875   6.7435  22.0848  23.9337  26.0472  27.2449

     occupation numbers 
     1.0000   1.0000   1.0000   1.0000   0.0000   0.0000   0.0000   0.0000

          k =-0.0589-0.3536 0.5893 (   395 PWs)   bands (ev):

    -0.3518   2.0477   4.7620   6.9104  22.3101  23.7214  26.3295  27.0670

     occupation numbers 
     1.0000   1.0000   1.0000   1.0000   0.0000   0.0000   0.0000   0.0000

          k = 0.0589 0.3536 0.5893 (   395 PWs)   bands (ev):

    -0.3547   2.0504   4.7826   6.8879  22.2695  23.7739  26.3198  27.0627

     occupation numbers 
     1.0000   1.0000   1.0000   1.0000   0.0000   0.0000   0.0000   0.0000

          k = 0.5893-0.0589-0.3536 (   395 PWs)   bands (ev):

    -0.3613   2.0714   4.7673   6.8882  22.2781  23.7464  26.3368  27.0638

     occupation numbers 
     1.0000   1.0000   1.0000   1.0000   0.0000   0.0000   0.0000   0.0000

          k =-0.0295-0.3241 0.5598 (   396 PWs)   bands (ev):

    -1.0004   2.7247   4.7489   7.2019  22.5456  23.2482  25.5673  27.8840

     occupation numbers 
     1.0000   1.0000   1.0000   1.0000   0.0000   0.0000   0.0000   0.0000

          k = 0.0295 0.3241 0.5598 (   396 PWs)   bands (ev):

    -1.0032   2.7328   4.7623   7.1807  22.5010  23.2943  25.5684  27.8725

     occupation numbers 
     1.0000   1.0000   1.0000   1.0000   0.0000   0.0000   0.0000   0.0000

          k = 0.5598-0.0295-0.3241 (   396 PWs)   bands (ev):

    -1.0050   2.7443   4.7516   7.1813  22.5089  23.2764  25.5758  27.8754

     occupation numbers 
     1.0000   1.0000   1.0000   1.0000   0.0000   0.0000   0.0000   0.0000

          k = 0.0000 0.2946 0.5303 (   395 PWs)   bands (ev):

    -1.7518   3.4078   4.9885   7.5811  22.4816  22.8203  25.1212  28.1523

     occupation numbers 
     1.0000   1.0000   1.0000   1.0000   0.0000   0.0000   0.0000   0.0000

          k =-0.1179-0.4714 0.7071 (   395 PWs)   bands (ev):

    -1.1584   3.0733   5.4138   6.5180  21.0395  22.3594  25.9279  28.6761

     occupation numbers 
     1.0000   1.0000   1.0000   1.0000   0.0000   0.0000   0.0000   0.0000

          k =-0.0884-0.4419 0.6776 (   395 PWs)   bands (ev):

    -0.4189   2.4989   5.0136   6.2388  21.6185  23.0095  25.7516  28.2248

     occupation numbers 
     1.0000   1.0000   1.0000   1.0000   0.0000   0.0000   0.0000   0.0000

          k = 0.0884 0.4419 0.6776 (   395 PWs)   bands (ev):

    -0.4190   2.4959   5.0308   6.2242  21.6005  23.0303  25.7519  28.2247

     occupation numbers 
     1.0000   1.0000   1.0000   1.0000   0.0000   0.0000   0.0000   0.0000

          k = 0.6776-0.0884-0.4419 (   395 PWs)   bands (ev):

    -0.4240   2.5150   5.0221   6.2175  21.6116  23.0104  25.7577  28.2191

     occupation numbers 
     1.0000   1.0000   1.0000   1.0000   0.0000   0.0000   0.0000   0.0000

          k =-0.0589-0.4125 0.6482 (   393 PWs)   bands (ev):

     0.2056   1.9796   4.6275   6.2306  21.8823  24.0579  25.6253  27.4018

     occupation numbers 
     1.0000   1.0000   1.0000   1.0000   0.0000   0.0000   0.0000   0.0000

          k = 0.0589 0.4125 0.6482 (   393 PWs)   bands (ev):

     0.2041   1.9783   4.6491   6.2109  21.8586  24.0951  25.6169  27.4004

     occupation numbers 
     1.0000   1.0000   1.0000   1.0000   0.0000   0.0000   0.0000   0.0000

          k = 0.6482-0.0589-0.4125 (   393 PWs)   bands (ev):

     0.1947   2.0009   4.6365   6.2093  21.8652  24.0698  25.6325  27.3996

     occupation numbers 
     1.0000   1.0000   1.0000   1.0000   0.0000   0.0000   0.0000   0.0000

          k =-0.0295-0.3830 0.6187 (   393 PWs)   bands (ev):

     0.2650   1.9559   4.3586   6.4236  22.1037  24.6091  25.9960  26.5012

     occupation numbers 
     1.0000   1.0000   1.0000   1.0000   0.0000   0.0000   0.0000   0.0000

          k = 0.0295 0.3830 0.6187 (   393 PWs)   bands (ev):

     0.2595   1.9626   4.3751   6.4044  22.0793  24.6548  25.9714  26.5071

     occupation numbers 
     1.0000   1.0000   1.0000   1.0000   0.0000   0.0000   0.0000   0.0000

          k = 0.6187-0.0295-0.3830 (   393 PWs)   bands (ev):

     0.2533   1.9777   4.3658   6.4045  22.0827  24.6307  26.0001  26.4981

     occupation numbers 
     1.0000   1.0000   1.0000   1.0000   0.0000   0.0000   0.0000   0.0000

          k = 0.0000 0.3536 0.5893 (   394 PWs)   bands (ev):

    -0.2971   2.4161   4.3553   6.7410  22.3240  24.1285  25.8642  27.0402

     occupation numbers 
     1.0000   1.0000   1.0000   1.0000   0.0000   0.0000   0.0000   0.0000

          k =-0.0589-0.4714 0.7071 (   393 PWs)   bands (ev):

    -0.0446   2.1335   5.3565   5.8682  21.2091  21.8718  26.8478  28.4156

     occupation numbers 
     1.0000   1.0000   1.0000   1.0000   0.0000   0.0000   0.0000   0.0000

          k =-0.0295-0.4419 0.6776 (   392 PWs)   bands (ev):

     0.6282   1.6659   4.8833   5.8042  21.6595  22.8165  26.6259  27.5645

     occupation numbers 
     1.0000   1.0000   1.0000   1.0000   0.0000   0.0000   0.0000   0.0000

          k = 0.0295 0.4419 0.6776 (   392 PWs)   bands (ev):

     0.6262   1.6672   4.9004   5.7873  21.6418  22.8349  26.6306  27.5616

     occupation numbers 
     1.0000   1.0000   1.0000   1.0000   0.0000   0.0000   0.0000   0.0000

          k = 0.6776-0.0295-0.4419 (   392 PWs)   bands (ev):

     0.6182   1.6803   4.8964   5.7858  21.6462  22.8281  26.6318  27.5603

     occupation numbers 
     1.0000   1.0000   1.0000   1.0000   0.0000   0.0000   0.0000   0.0000

          k = 0.0000 0.4125 0.6482 (   394 PWs)   bands (ev):

     0.7569   1.6386   4.4502   6.0259  21.8532  24.1193  26.1858  26.7788

     occupation numbers 
     1.0000   1.0000   1.0000   1.0000   0.0000   0.0000   0.0000   0.0000

          k =-0.1179-0.4125 0.7071 (   395 PWs)   bands (ev):

    -0.7407   2.7836   4.8211   6.5555  22.5576  23.1924  25.0527  28.0583

     occupation numbers 
     1.0000   1.0000   1.0000   1.0000   0.0000   0.0000   0.0000   0.0000

          k =-0.0884-0.3830 0.6776 (   394 PWs)   bands (ev):

    -0.0478   2.2476   4.6207   6.2237  22.9409  23.5988  25.3368  27.1973

     occupation numbers 
     1.0000   1.0000   1.0000   1.0000   0.0000   0.0000   0.0000   0.0000

          k = 0.0884 0.3830 0.6776 (   394 PWs)   bands (ev):

    -0.0482   2.2457   4.6325   6.2137  22.8918  23.6623  25.3230  27.1976

     occupation numbers 
     1.0000   1.0000   1.0000   1.0000   0.0000   0.0000   0.0000   0.0000

          k = 0.6776-0.0884-0.3830 (   394 PWs)   bands (ev):

    -0.0558   2.2672   4.6281   6.2029  22.9062  23.6238  25.3471  27.1944

     occupation numbers 
     1.0000   1.0000   1.0000   1.0000   0.0000   0.0000   0.0000   0.0000

          k =-0.0589-0.3536 0.6482 (   396 PWs)   bands (ev):

     0.3176   1.9212   4.5747   6.1028  22.9458  23.8764  26.0255  26.2684

     occupation numbers 
     1.0000   1.0000   1.0000   1.0000   0.0000   0.0000   0.0000   0.0000

          k = 0.6482-0.0589-0.3536 (   396 PWs)   bands (ev):

     0.3044   1.9457   4.5841   6.0802  22.9057  23.9103  26.0492  26.2508

     occupation numbers 
     1.0000   1.0000   1.0000   1.0000   0.0000   0.0000   0.0000   0.0000

          k =-0.0589-0.4125 0.7071 (   391 PWs)   bands (ev):

     0.2817   2.0858   4.8476   5.6987  22.7085  23.1450  25.5946  27.3571

     occupation numbers 
     1.0000   1.0000   1.0000   1.0000   0.0000   0.0000   0.0000   0.0000

          k =-0.0295-0.3830 0.6776 (   393 PWs)   bands (ev):

     0.8021   1.7162   4.6561   5.5427  23.0531  23.9989  25.5390  26.3031

     occupation numbers 
     1.0000   1.0000   1.0000   1.0000   0.0000   0.0000   0.0000   0.0000

          k = 0.0295 0.3830 0.6776 (   393 PWs)   bands (ev):

     0.7981   1.7204   4.6712   5.5269  23.0230  24.0404  25.5266  26.3049

     occupation numbers 
     1.0000   1.0000   1.0000   1.0000   0.0000   0.0000   0.0000   0.0000

          k = 0.6776-0.0295-0.3830 (   393 PWs)   bands (ev):

     0.7881   1.7359   4.6696   5.5225  23.0291  24.0201  25.5462  26.2989

     occupation numbers 
     1.0000   1.0000   1.0000   1.0000   0.0000   0.0000   0.0000   0.0000

          k =-0.0000 0.3536 0.6482 (   393 PWs)   bands (ev):

     0.5696   1.9186   4.5192   5.7526  23.1463  24.1698  25.5544  26.1202

     occupation numbers 
     1.0000   1.0000   1.0000   1.0000   0.0000   0.0000   0.0000   0.0000

     highest occupied, lowest unoccupied level (ev):    13.31233577   17.40873360

     Writing all to output data dir ../tmp/diamond.save/ :
     XML data file, pseudopotentials, collected wavefunctions
 
     init_run     :      0.03s CPU      0.06s WALL (       1 calls)
     electrons    :      5.40s CPU      6.31s WALL (       1 calls)

     Called by init_run:
     wfcinit      :      0.00s CPU      0.00s WALL (       1 calls)
     wfcinit:wfcr :      0.21s CPU      0.25s WALL (     438 calls)
     potinit      :      0.01s CPU      0.01s WALL (       1 calls)
     hinit0       :      0.01s CPU      0.01s WALL (       1 calls)

     Called by electrons:
     c_bands      :      5.38s CPU      6.25s WALL (       1 calls)
     v_of_rho     :      0.00s CPU      0.00s WALL (       1 calls)
     v_h          :      0.00s CPU      0.00s WALL (       1 calls)
     v_xc         :      0.00s CPU      0.00s WALL (       1 calls)
     newd         :      0.00s CPU      0.00s WALL (       1 calls)
     PAW_pot      :      0.01s CPU      0.01s WALL (       1 calls)

     Called by c_bands:
     init_us_2    :      0.00s CPU      0.00s WALL (     438 calls)
     cegterg      :      4.44s CPU      5.13s WALL (     665 calls)

     Called by sum_band:

     Called by *egterg:
     cdiaghg      :      1.09s CPU      1.24s WALL (    9548 calls)
     cegterg:over :      0.23s CPU      0.27s WALL (    9110 calls)
     cegterg:upda :      0.05s CPU      0.05s WALL (    9110 calls)
     cegterg:last :      0.07s CPU      0.07s WALL (    7377 calls)
     h_psi        :      2.84s CPU      3.30s WALL (   10213 calls)
     s_psi        :      0.05s CPU      0.06s WALL (   10213 calls)
     g_psi        :      0.02s CPU      0.03s WALL (    9110 calls)

     Called by h_psi:
     h_psi:calbec :      0.16s CPU      0.19s WALL (   10213 calls)
     vloc_psi     :      2.52s CPU      2.92s WALL (   10213 calls)
     add_vuspsi   :      0.06s CPU      0.07s WALL (   10213 calls)

     General routines
     calbec       :      0.13s CPU      0.15s WALL (   10213 calls)
     fft          :      0.00s CPU      0.00s WALL (      12 calls)
     fftw         :      2.13s CPU      2.48s WALL (  127756 calls)
 
     Parallel routines

     PAW routines
     PAW_pot      :      0.01s CPU      0.01s WALL (       1 calls)
 
     PWSCF        :      5.68s CPU      7.53s WALL

 
   This run was terminated on:   0:44:50  27Jul2026            

=------------------------------------------------------------------------------=
   JOB DONE.
=------------------------------------------------------------------------------=
