
     Program PWSCF v.7.4.1 starts on  4Aug2026 at 21:47:44 

     This program is part of the open-source Quantum ESPRESSO suite
     for quantum simulation of materials; please cite
         "P. Giannozzi et al., J. Phys.:Condens. Matter 21 395502 (2009);
         "P. Giannozzi et al., J. Phys.:Condens. Matter 29 465901 (2017);
         "P. Giannozzi et al., J. Chem. Phys. 152 154105 (2020);
          URL http://www.quantum-espresso.org", 
     in publications or presentations arising from this work. More details at
     http://www.quantum-espresso.org/quote

     Parallel version (MPI), running on    28 processors

     MPI processes distributed on     1 nodes
     51856 MiB available memory on the printing compute node when the environment starts
 
     Reading input from diamond_pd_scf.in

     Current dimensions of program PWSCF are:
     Max number of different atomic species (ntypx) = 10
     Max number of k-points (npk) =  40000
     Max angular momentum in pseudopotentials (lmaxx) =  4
     file C.pbe-n-kjpaw_psl.1.0.0.UPF: wavefunction(s)  2S 2P renormalized
     file N.pbe-n-kjpaw_psl.1.0.0.UPF: wavefunction(s)  2S renormalized
 
     R & G space division:  proc/nbgrp/npool/nimage =      28
     Subspace diagonalization in iterative solution of the eigenvalue problem:
     one sub-group per band group will be used
     scalapack distributed-memory algorithm (size of sub-group:  5*  5 procs)

 
     Parallelization info
     --------------------
     sticks:   dense  smooth     PW     G-vecs:    dense   smooth      PW
     Min         209     209     52                12095    12095    1512
     Max         210     210     53                12100    12100    1515
     Sum        5877    5877   1473               338755   338755   42379
 
     Using Slab Decomposition
 


     bravais-lattice index     =            0
     lattice parameter (alat)  =      20.2515  a.u.
     unit-cell volume          =    8305.5769 (a.u.)^3
     number of atoms/cell      =          215
     number of atomic types    =            2
     number of electrons       =       864.00 (up: 432.00, down: 432.00)
     number of Kohn-Sham states=          864
     kinetic-energy cutoff     =      45.0000  Ry
     charge density cutoff     =     180.0000  Ry
     scf convergence threshold =      1.0E-08
     mixing beta               =       0.7000
     number of iterations used =            8  plain     mixing
     Exchange-correlation= SLA  PW   PBX  PBC
                           (   1   4   3   4   0   0   0)

     celldm(1)=  20.251472  celldm(2)=   0.000000  celldm(3)=   0.000000
     celldm(4)=   0.000000  celldm(5)=   0.000000  celldm(6)=   0.000000

     crystal axes: (cart. coord. in units of alat)
               a(1) = (  -0.707107   0.000000   0.707107 )  
               a(2) = (   0.408248   0.816497   0.408248 )  
               a(3) = (  -0.577350   0.577350  -0.577350 )  

     reciprocal axes: (cart. coord. in units 2 pi/alat)
               b(1) = ( -0.707107  0.000000  0.707107 )  
               b(2) = (  0.408248  0.816497  0.408248 )  
               b(3) = ( -0.577350  0.577350 -0.577350 )  


     PseudoPot. # 1 for C  read from file:
     ../../../pseudos/C.pbe-n-kjpaw_psl.1.0.0.UPF
     MD5 check sum: 5f16ad9a65e90284d1d834d4ab3b0f7d
     Pseudo is Projector augmented-wave + core cor, Zval =  4.0
     Generated using &quot;atomic&quot; code by A. Dal Corso  v.6.3
     Shape of augmentation charge: PSQ
     Using radial grid of 1073 points,  4 beta functions with: 
                l(1) =   0
                l(2) =   0
                l(3) =   1
                l(4) =   1
     Q(r) pseudized with 0 coefficients 


     PseudoPot. # 2 for N  read from file:
     ../../../pseudos/N.pbe-n-kjpaw_psl.1.0.0.UPF
     MD5 check sum: a6186d50559fdcbe4b2d0187dd61a119
     Pseudo is Projector augmented-wave + core cor, Zval =  5.0
     Generated using &quot;atomic&quot; code by A. Dal Corso  v.6.3
     Shape of augmentation charge: PSQ
     Using radial grid of 1085 points,  4 beta functions with: 
                l(1) =   0
                l(2) =   0
                l(3) =   1
                l(4) =   1
     Q(r) pseudized with 0 coefficients 


     atomic species   valence    mass     pseudopotential
     C                 4.00    12.01070     C ( 1.00)
     N                 5.00    14.00670     N ( 1.00)

     Starting magnetic structure 
     atomic species   magnetization
     C               0.000
     N               0.000

     No symmetry found


                                    s                        frac. trans.

      isym =  1     identity                                     

 cryst.   s( 1) = (     1          0          0      )
                  (     0          1          0      )
                  (     0          0          1      )

 cart.    s( 1) = (  1.0000000  0.0000000  0.0000000 )
                  (  0.0000000  1.0000000  0.0000000 )
                  (  0.0000000  0.0000000  1.0000000 )


   Cartesian axes

     site n.     atom                  positions (alat units)
         1        C      tau(   1) = (  -0.0001312   0.0000903   0.0001093  )
         2        C      tau(   2) = (  -0.1925758   0.1927881  -0.1922077  )
         3        C      tau(   3) = (  -0.3850236   0.3848671  -0.3848360  )
         4        C      tau(   4) = (   0.1357641   0.2724567   0.1361321  )
         5        C      tau(   5) = (  -0.0571598   0.4657894  -0.0558597  )
         6        C      tau(   6) = (  -0.2488220   0.6571551  -0.2488137  )
         7        C      tau(   7) = (   0.2721074   0.5443139   0.2722950  )
         8        C      tau(   8) = (   0.0796906   0.7368656   0.0796989  )
         9        C      tau(   9) = (  -0.1132164   0.9282944  -0.1120256  )
        10        C      tau(  10) = (  -0.2357219   0.0003653   0.2356333  )
        11        C      tau(  11) = (  -0.4283072   0.1926004   0.0431129  )
        12        C      tau(  12) = (  -0.6205072   0.3848565  -0.1489550  )
        13        C      tau(  13) = (  -0.0995241   0.2723766   0.3718961  )
        14        C      tau(  14) = (  -0.2948233   0.4658537   0.1817883  )
        15        C      tau(  15) = (  -0.4811584   0.6576606  -0.0136625  )
        16        C      tau(  16) = (   0.0362403   0.5442102   0.5077925  )
        17        C      tau(  17) = (  -0.1554992   0.7366787   0.3119967  )
        18        C      tau(  18) = (  -0.3499853   0.9274553   0.1249469  )
        19        C      tau(  19) = (  -0.4713862   0.0000413   0.4713762  )
        20        C      tau(  20) = (  -0.6639269   0.1924663   0.2788113  )
        21        C      tau(  21) = (  -0.8561995   0.3851225   0.0865351  )
        22        C      tau(  22) = (  -0.3351886   0.2722316   0.6075495  )
        23        C      tau(  23) = (  -0.5281429   0.4643972   0.4154613  )
        24        C      tau(  24) = (  -0.7186084   0.6570431   0.2225947  )
        25        C      tau(  25) = (  -0.1993182   0.5445086   0.7434164  )
        26        C      tau(  26) = (  -0.3916450   0.7363778   0.5495581  )
        27        C      tau(  27) = (  -0.5842437   0.9293381   0.3587485  )
        28        C      tau(  28) = (  -0.0499284   0.1363698   0.1858889  )
        29        C      tau(  29) = (  -0.2428761   0.3299354  -0.0056503  )
        30        C      tau(  30) = (  -0.4347914   0.5210286  -0.1990126  )
        31        C      tau(  31) = (   0.0859763   0.4083288   0.3221752  )
        32        C      tau(  32) = (  -0.1069345   0.6040015   0.1307585  )
        33        C      tau(  33) = (  -0.2998490   0.7904822  -0.0621631  )
        34        C      tau(  34) = (   0.2223030   0.6803833   0.4581693  )
        35        C      tau(  35) = (   0.0298587   0.8730083   0.2656725  )
        36        C      tau(  36) = (  -0.1630143   1.0643451   0.0738236  )
        37        C      tau(  37) = (  -0.2853929   0.1361882   0.4217105  )
        38        C      tau(  38) = (  -0.4782509   0.3280898   0.2292633  )
        39        C      tau(  39) = (  -0.6689852   0.5214692   0.0373964  )
        40        C      tau(  40) = (  -0.1492931   0.4083476   0.5576359  )
        41        C      tau(  41) = (  -0.3433057   0.5983091   0.3627214  )
        42        C      tau(  42) = (  -0.5313434   0.7947709   0.1736336  )
        43        C      tau(  43) = (  -0.0135887   0.6804959   0.6935231  )
        44        C      tau(  44) = (  -0.2061021   0.8727058   0.4999970  )
        45        C      tau(  45) = (  -0.3982670   1.0654466   0.3089223  )
        46        C      tau(  46) = (  -0.5212364   0.1362343   0.6574195  )
        47        C      tau(  47) = (  -0.7138134   0.3287587   0.4649900  )
        48        C      tau(  48) = (  -0.9059938   0.5211626   0.2723697  )
        49        C      tau(  49) = (  -0.3851231   0.4085354   0.7932041  )
        50        C      tau(  50) = (  -0.5777723   0.6009445   0.6009216  )
        51        C      tau(  51) = (  -0.7699144   0.7930426   0.4086384  )
        52        C      tau(  52) = (  -0.2491495   0.6804198   0.9294569  )
        53        C      tau(  53) = (  -0.4414895   0.8728323   0.7367502  )
        54        C      tau(  54) = (  -0.6340878   1.0653222   0.5446831  )
        55        C      tau(  55) = (  -0.2141437   0.0965245   0.0216736  )
        56        C      tau(  56) = (  -0.4067479   0.2887739  -0.1705491  )
        57        C      tau(  57) = (  -0.5990787   0.4810826  -0.3632124  )
        58        C      tau(  58) = (  -0.0792230   0.3696444   0.1580029  )
        59        C      tau(  59) = (  -0.2724417   0.5638427  -0.0347488  )
        60        C      tau(  60) = (  -0.4629917   0.7534227  -0.2271779  )
        61        C      tau(  61) = (   0.0580811   0.6406195   0.2938598  )
        62        C      tau(  62) = (  -0.1345073   0.8306008   0.1031786  )
        63        C      tau(  63) = (  -0.3272426   1.0244966  -0.0904047  )
        64        C      tau(  64) = (  -0.4499123   0.0962691   0.2571911  )
        65        C      tau(  65) = (  -0.6422076   0.2887465   0.0647214  )
        66        C      tau(  66) = (  -0.8344745   0.4813156  -0.1273627  )
        67        C      tau(  67) = (  -0.3137147   0.3680129   0.3937995  )
        68        C      tau(  68) = (  -0.5031890   0.5595149   0.2028381  )
        69        C      tau(  69) = (  -0.6972917   0.7535232   0.0088075  )
        70        C      tau(  70) = (  -0.1783685   0.6405128   0.5280132  )
        71        C      tau(  71) = (  -0.3711918   0.8336302   0.3337852  )
        72        C      tau(  72) = (  -0.5626053   1.0255714   0.1445839  )
        73        C      tau(  73) = (  -0.6856360   0.0963442   0.4930199  )
        74        C      tau(  74) = (  -0.8778276   0.2889853   0.3004996  )
        75        C      tau(  75) = (  -1.0703796   0.4811559   0.1082267  )
        76        C      tau(  76) = (  -0.5495944   0.3686049   0.6292090  )
        77        C      tau(  77) = (  -0.7419037   0.5611196   0.4367903  )
        78        C      tau(  78) = (  -0.9340356   0.7533206   0.2442041  )
        79        C      tau(  79) = (  -0.4133276   0.6407034   0.7650359  )
        80        C      tau(  80) = (  -0.6058911   0.8328413   0.5726616  )
        81        C      tau(  81) = (  -0.7983386   1.0254683   0.3804324  )
        82        C      tau(  82) = (  -0.0285189   0.2328187  -0.0279724  )
        83        C      tau(  83) = (  -0.2205736   0.4244364  -0.2215716  )
        84        C      tau(  84) = (  -0.4131178   0.6173098  -0.4128581  )
        85        C      tau(  85) = (   0.1088876   0.5043770   0.1078896  )
        86        C      tau(  86) = (  -0.0853507   0.6970759  -0.0837882  )
        87        C      tau(  87) = (  -0.2770873   0.8896508  -0.2780736  )
        88        C      tau(  88) = (   0.2437376   0.7766896   0.2439973  )
        89        C      tau(  89) = (   0.0525058   0.9696235   0.0515195  )
        90        C      tau(  90) = (  -0.1411538   1.1611701  -0.1405933  )
        91        C      tau(  91) = (  -0.2640018   0.2320418   0.2076990  )
        92        C      tau(  92) = (  -0.4561043   0.4254277   0.0153771  )
        93        C      tau(  93) = (  -0.6493869   0.6171848  -0.1782521  )
        94        C      tau(  94) = (  -0.1282542   0.5049775   0.3432272  )
        95        C      tau(  95) = (  -0.5121107   0.8889002  -0.0406767  )
        96        C      tau(  96) = (   0.0091135   0.7769638   0.4802484  )
        97        C      tau(  97) = (  -0.1846463   0.9683563   0.2867877  )
        98        C      tau(  98) = (  -0.3770278   1.1626938   0.0949110  )
        99        C      tau(  99) = (  -0.4996679   0.2323428   0.4432921  )
       100        C      tau( 100) = (  -0.6922975   0.4245577   0.2509661  )
       101        C      tau( 101) = (  -0.8840247   0.6173601   0.0584516  )
       102        C      tau( 102) = (  -0.3636554   0.5042996   0.5796082  )
       103        C      tau( 103) = (  -0.5555170   0.6970281   0.3863896  )
       104        C      tau( 104) = (  -0.7492875   0.8901187   0.1945834  )
       105        C      tau( 105) = (  -0.2275724   0.7766421   0.7149038  )
       106        C      tau( 106) = (  -0.4202484   0.9699570   0.5236224  )
       107        C      tau( 107) = (  -0.6122933   1.1614670   0.3304742  )
       108        C      tau( 108) = (  -0.0731682   0.1164504   0.0449126  )
       109        C      tau( 109) = (  -0.2657260   0.3091331  -0.1474027  )
       110        C      tau( 110) = (  -0.4580182   0.5010191  -0.3398969  )
       111        C      tau( 111) = (   0.0627257   0.3888289   0.1810491  )
       112        C      tau( 112) = (  -0.1305315   0.5818651  -0.0106527  )
       113        C      tau( 113) = (  -0.3214704   0.7744723  -0.2049447  )
       114        C      tau( 114) = (   0.1989888   0.6604357   0.3171101  )
       115        C      tau( 115) = (   0.0073468   0.8542567   0.1238725  )
       116        C      tau( 116) = (  -0.1860752   1.0447873  -0.0674327  )
       117        C      tau( 117) = (  -0.3087293   0.1161939   0.2805359  )
       118        C      tau( 118) = (  -0.5012076   0.3087498   0.0880698  )
       119        C      tau( 119) = (  -0.6931909   0.5012749  -0.1042196  )
       120        C      tau( 120) = (  -0.1726566   0.3884696   0.4166207  )
       121        C      tau( 121) = (  -0.5559967   0.7731086   0.0323292  )
       122        C      tau( 122) = (  -0.0367344   0.6605580   0.5522369  )
       123        C      tau( 123) = (  -0.2295271   0.8523234   0.3587988  )
       124        C      tau( 124) = (  -0.4211767   1.0468734   0.1671626  )
       125        C      tau( 125) = (  -0.5444997   0.1161908   0.5163071  )
       126        C      tau( 126) = (  -0.7370031   0.3086995   0.3237999  )
       127        C      tau( 127) = (  -0.9291582   0.5012096   0.1313850  )
       128        C      tau( 128) = (  -0.4083768   0.3884376   0.6524261  )
       129        C      tau( 129) = (  -0.6008323   0.5809308   0.4598749  )
       130        C      tau( 130) = (  -0.7927852   0.7733729   0.2674729  )
       131        C      tau( 131) = (  -0.2723339   0.6605819   0.7882093  )
       132        C      tau( 132) = (  -0.4647802   0.8529603   0.5954779  )
       133        C      tau( 133) = (  -0.6572392   1.0453016   0.4036065  )
       134        C      tau( 134) = (  -0.1230222   0.2526583   0.2308140  )
       135        C      tau( 135) = (  -0.3161844   0.4469821   0.0393107  )
       136        C      tau( 136) = (  -0.5093007   0.6369208  -0.1545340  )
       137        C      tau( 137) = (   0.0129694   0.5245288   0.3667570  )
       138        C      tau( 138) = (  -0.1672121   0.7187327   0.1763051  )
       139        C      tau( 139) = (  -0.3718326   0.9080653  -0.0171193  )
       140        C      tau( 140) = (   0.1494667   0.7968311   0.5034339  )
       141        C      tau( 141) = (  -0.0433254   0.9890726   0.3104063  )
       142        C      tau( 142) = (  -0.2357215   1.1813968   0.1181263  )
       143        C      tau( 143) = (  -0.3585447   0.2521169   0.4666293  )
       144        C      tau( 144) = (  -0.5521150   0.4439800   0.2743077  )
       145        C      tau( 145) = (  -0.7425001   0.6374314   0.0816785  )
       146        C      tau( 146) = (  -0.2225312   0.5245224   0.6021857  )
       147        C      tau( 147) = (  -0.4148559   0.7165585   0.4075553  )
       148        C      tau( 148) = (  -0.6089912   0.9092816   0.2175169  )
       149        C      tau( 149) = (  -0.0864820   0.7965907   0.7383434  )
       150        C      tau( 150) = (  -0.2789801   0.9890607   0.5459270  )
       151        C      tau( 151) = (  -0.4710904   1.1815193   0.3537467  )
       152        C      tau( 152) = (  -0.5944558   0.2525501   0.7022768  )
       153        C      tau( 153) = (  -0.7869332   0.4449644   0.5097846  )
       154        C      tau( 154) = (  -0.9789825   0.6372553   0.3173747  )
       155        C      tau( 155) = (  -0.4578251   0.5241341   0.8380295  )
       156        C      tau( 156) = (  -0.6508306   0.7169578   0.6457972  )
       157        C      tau( 157) = (  -0.8432057   0.9092242   0.4534377  )
       158        C      tau( 158) = (  -0.3222364   0.7966380   0.9743160  )
       159        C      tau( 159) = (  -0.5141910   0.9897018   0.7815493  )
       160        C      tau( 160) = (  -0.7071227   1.1813476   0.5895591  )
       161        C      tau( 161) = (  -0.2872838   0.2128018   0.0665524  )
       162        C      tau( 162) = (  -0.4795311   0.4050281  -0.1257436  )
       163        C      tau( 163) = (  -0.6725788   0.5973694  -0.3186116  )
       164        C      tau( 164) = (  -0.1525827   0.4866785   0.2029123  )
       165        C      tau( 165) = (  -0.3454520   0.6754845  -0.0019348  )
       166        C      tau( 166) = (  -0.5358957   0.8695550  -0.1821640  )
       167        C      tau( 167) = (  -0.0145724   0.7569620   0.3401944  )
       168        C      tau( 168) = (  -0.2080360   0.9478091   0.1466773  )
       169        C      tau( 169) = (  -0.3999468   1.1415491  -0.0460991  )
       170        C      tau( 170) = (  -0.5229631   0.2122223   0.3022109  )
       171        C      tau( 171) = (  -0.7149604   0.4050390   0.1097565  )
       172        C      tau( 172) = (  -0.9074613   0.5973877  -0.0826360  )
       173        C      tau( 173) = (  -0.3868988   0.4840681   0.4395239  )
       174        C      tau( 174) = (  -0.5766585   0.6772986   0.2457526  )
       175        C      tau( 175) = (  -0.7714174   0.8695754   0.0534897  )
       176        C      tau( 176) = (  -0.2508190   0.7567332   0.5733596  )
       177        C      tau( 177) = (  -0.4430310   0.9495503   0.3834771  )
       178        C      tau( 178) = (  -0.6355889   1.1416052   0.1892481  )
       179        C      tau( 179) = (  -0.7587202   0.2126929   0.5380123  )
       180        C      tau( 180) = (  -0.9506970   0.4045433   0.3451576  )
       181        C      tau( 181) = (  -1.1434389   0.5973809   0.1531136  )
       182        C      tau( 182) = (  -0.6225889   0.4848410   0.6741289  )
       183        C      tau( 183) = (  -0.8149297   0.6771407   0.4816981  )
       184        C      tau( 184) = (  -1.0071791   0.8700828   0.2885613  )
       185        C      tau( 185) = (  -0.4864962   0.7567525   0.8098610  )
       186        C      tau( 186) = (  -0.6788895   0.9490940   0.6177539  )
       187        C      tau( 187) = (  -0.8713672   1.1414952   0.4253146  )
       188        C      tau( 188) = (  -0.1017283   0.3494103   0.0169471  )
       189        C      tau( 189) = (  -0.2930158   0.5397019  -0.1763842  )
       190        C      tau( 190) = (  -0.4862544   0.7336159  -0.3680750  )
       191        C      tau( 191) = (   0.0357525   0.6194745   0.1523841  )
       192        C      tau( 192) = (  -0.1583684   0.8121155  -0.0386839  )
       193        C      tau( 193) = (  -0.3501220   1.0054252  -0.2320479  )
       194        C      tau( 194) = (   0.1707301   0.8930271   0.2889095  )
       195        C      tau( 195) = (  -0.0215806   1.0851427   0.0964936  )
       196        C      tau( 196) = (  -0.2140638   1.2775597  -0.0959242  )
       197        C      tau( 197) = (  -0.3368011   0.3471967   0.2525570  )
       198        C      tau( 198) = (  -0.5270511   0.5417668   0.0606134  )
       199        C      tau( 199) = (  -0.7215840   0.7334280  -0.1324907  )
       200        C      tau( 200) = (  -0.2016470   0.6207231   0.3860175  )
       201        C      tau( 201) = (  -0.3994973   0.8231415   0.1997697  )
       202        C      tau( 202) = (  -0.5856547   1.0054991   0.0035388  )
       203        C      tau( 203) = (  -0.0648026   0.8927899   0.5242907  )
       204        C      tau( 204) = (  -0.2571831   1.0851996   0.3320104  )
       205        C      tau( 205) = (  -0.4495592   1.2784873   0.1393462  )
       206        C      tau( 206) = (  -0.5728184   0.3484310   0.4882748  )
       207        C      tau( 207) = (  -0.7647683   0.5411178   0.2956431  )
       208        C      tau( 208) = (  -0.9572703   0.7334689   0.1032541  )
       209        C      tau( 209) = (  -0.4366006   0.6207447   0.6238108  )
       210        C      tau( 210) = (  -0.6288695   0.8130292   0.4315955  )
       211        C      tau( 211) = (  -0.8220294   1.0056776   0.2391472  )
       212        C      tau( 212) = (  -0.3005554   0.8928147   0.7599690  )
       213        C      tau( 213) = (  -0.4928555   1.0855486   0.5683211  )
       214        C      tau( 214) = (  -0.6853414   1.2776871   0.3753225  )
       215        N      tau( 215) = (  -0.3694532   0.5696816   0.2312252  )

   Crystallographic axes

     site n.     atom                  positions (cryst. coord.)
         1        C      tau(   1) = (  0.0001701  0.0000648  0.0000648  )
         2        C      tau(   2) = (  0.0002603  0.0003236  0.3334611  )
         3        C      tau(   3) = (  0.0001326 -0.0000512  0.6666818  )
         4        C      tau(   4) = (  0.0002603  0.3334611  0.0003236  )
         5        C      tau(   5) = (  0.0009193  0.3341754  0.3341754  )
         6        C      tau(   6) = (  0.0000059  0.3334060  0.6667187  )
         7        C      tau(   7) = (  0.0001326  0.6666818 -0.0000512  )
         8        C      tau(   8) = (  0.0000059  0.6667187  0.3334060  )
         9        C      tau(   9) = (  0.0008421  0.6659945  0.6659945  )
        10        C      tau(  10) = (  0.3332984  0.0002621  0.0002621  )
        11        C      tau(  11) = (  0.3333444  0.0000027  0.3335899  )
        12        C      tau(  12) = (  0.3334378  0.0001024  0.6664462  )
        13        C      tau(  13) = (  0.3333444  0.3335899  0.0000027  )
        14        C      tau(  14) = (  0.3370153  0.3342216  0.3342216  )
        15        C      tau(  15) = (  0.3305695  0.3349678  0.6653855  )
        16        C      tau(  16) = (  0.3334378  0.6664462  0.0001024  )
        17        C      tau(  17) = (  0.3305695  0.6653855  0.3349678  )
        18        C      tau(  18) = (  0.3358278  0.6653925  0.6653925  )
        19        C      tau(  19) = (  0.6666337  0.0000296  0.0000296  )
        20        C      tau(  20) = (  0.6666165 -0.0000747  0.3334671  )
        21        C      tau(  21) = (  0.6666140  0.0002370  0.6667165  )
        22        C      tau(  22) = (  0.6666165  0.3334671 -0.0000747  )
        23        C      tau(  23) = (  0.6672289  0.3331766  0.3331766  )
        24        C      tau(  24) = (  0.6655311  0.3339767  0.6657177  )
        25        C      tau(  25) = (  0.6666140  0.6667165  0.0002370  )
        26        C      tau(  26) = (  0.6655311  0.6657177  0.3339767  )
        27        C      tau(  27) = (  0.6667962  0.6667433  0.6667433  )
        28        C      tau(  28) = (  0.1667480  0.1668511  0.0002363  )
        29        C      tau(  29) = (  0.1677440  0.1679307  0.3339751  )
        30        C      tau(  30) = (  0.1667207  0.1666686  0.6667429  )
        31        C      tau(  31) = (  0.1670178  0.5000262  0.0001024  )
        32        C      tau(  32) = (  0.1680743  0.5028913  0.3349656  )
        33        C      tau(  33) = (  0.1680693  0.4976352  0.6653929  )
        34        C      tau(  34) = (  0.1667827  0.8333322 -0.0000514  )
        35        C      tau(  35) = (  0.1667456  0.8334584  0.3334065  )
        36        C      tau(  36) = (  0.1674697  0.8326222  0.6659942  )
        37        C      tau(  37) = (  0.4999976  0.1668486 -0.0000747  )
        38        C      tau(  38) = (  0.5002881  0.1662354  0.3331758  )
        39        C      tau(  39) = (  0.4994873  0.1679328  0.6657183  )
        40        C      tau(  40) = (  0.4998742  0.5001197  0.0000028  )
        41        C      tau(  41) = (  0.4992366  0.4964438  0.3342243  )
        42        C      tau(  42) = (  0.4984941  0.5028934  0.6653850  )
        43        C      tau(  43) = (  0.5000036  0.8332047  0.0003241  )
        44        C      tau(  44) = (  0.4992875  0.8325434  0.3341766  )
        45        C      tau(  45) = (  0.5000583  0.8334587  0.6667191  )
        46        C      tau(  46) = (  0.8334356  0.1668313  0.0000296  )
        47        C      tau(  47) = (  0.8335399  0.1668486  0.3334671  )
        48        C      tau(  48) = (  0.8332288  0.1668515  0.6667164  )
        49        C      tau(  49) = (  0.8332031  0.5001662  0.0002623  )
        50        C      tau(  50) = (  0.8334625  0.5001198  0.3335902  )
        51        C      tau(  51) = (  0.8333626  0.5000262  0.6664461  )
        52        C      tau(  52) = (  0.8334005  0.8332948  0.0000649  )
        53        C      tau(  53) = (  0.8331413  0.8332043  0.3334611  )
        54        C      tau(  54) = (  0.8335169  0.8333327  0.6666819  )
        55        C      tau(  55) = (  0.1667480  0.0002363  0.1668511  )
        56        C      tau(  56) = (  0.1670178  0.0001024  0.5000262  )
        57        C      tau(  57) = (  0.1667827 -0.0000514  0.8333322  )
        58        C      tau(  58) = (  0.1677440  0.3339751  0.1679307  )
        59        C      tau(  59) = (  0.1680743  0.3349656  0.5028913  )
        60        C      tau(  60) = (  0.1667456  0.3334065  0.8334584  )
        61        C      tau(  61) = (  0.1667207  0.6667429  0.1666686  )
        62        C      tau(  62) = (  0.1680693  0.6653929  0.4976352  )
        63        C      tau(  63) = (  0.1674697  0.6659942  0.8326222  )
        64        C      tau(  64) = (  0.4999976 -0.0000747  0.1668486  )
        65        C      tau(  65) = (  0.4998742  0.0000028  0.5001197  )
        66        C      tau(  66) = (  0.5000036  0.0003241  0.8332047  )
        67        C      tau(  67) = (  0.5002881  0.3331758  0.1662354  )
        68        C      tau(  68) = (  0.4992366  0.3342243  0.4964438  )
        69        C      tau(  69) = (  0.4992875  0.3341766  0.8325434  )
        70        C      tau(  70) = (  0.4994873  0.6657183  0.1679328  )
        71        C      tau(  71) = (  0.4984941  0.6653851  0.5028934  )
        72        C      tau(  72) = (  0.5000583  0.6667191  0.8334587  )
        73        C      tau(  73) = (  0.8334356  0.0000296  0.1668313  )
        74        C      tau(  74) = (  0.8332031  0.0002623  0.5001662  )
        75        C      tau(  75) = (  0.8334005  0.0000649  0.8332948  )
        76        C      tau(  76) = (  0.8335399  0.3334671  0.1668486  )
        77        C      tau(  77) = (  0.8334625  0.3335902  0.5001198  )
        78        C      tau(  78) = (  0.8331413  0.3334611  0.8332043  )
        79        C      tau(  79) = (  0.8332288  0.6667164  0.1668515  )
        80        C      tau(  80) = (  0.8333626  0.6664461  0.5000262  )
        81        C      tau(  81) = (  0.8335169  0.6666819  0.8333327  )
        82        C      tau(  82) = (  0.0003864  0.1670332  0.1670332  )
        83        C      tau(  83) = ( -0.0007057  0.1660458  0.5003211  )
        84        C      tau(  84) = (  0.0001836  0.1668281  0.8332814  )
        85        C      tau(  85) = ( -0.0007057  0.5003211  0.1660458  )
        86        C      tau(  86) = (  0.0011049  0.5001094  0.5001094  )
        87        C      tau(  87) = ( -0.0006974  0.4997534  0.8341625  )
        88        C      tau(  88) = (  0.0001836  0.8332814  0.1668281  )
        89        C      tau(  89) = ( -0.0006974  0.8341625  0.4997534  )
        90        C      tau(  90) = (  0.0003963  0.8330687  0.8330687  )
        91        C      tau(  91) = (  0.3335429  0.1664758  0.1664758  )
        92        C      tau(  92) = (  0.3333877  0.1674342  0.5000747  )
        93        C      tau(  93) = (  0.3331426  0.1660470  0.8341694  )
        94        C      tau(  94) = (  0.3333877  0.5000747  0.1674342  )
        95        C      tau(  95) = (  0.3333542  0.5001094  0.8323587  )
        96        C      tau(  96) = (  0.3331426  0.8341694  0.1660470  )
        97        C      tau(  97) = (  0.3333542  0.8323587  0.5001094  )
        98        C      tau(  98) = (  0.3337111  0.8341618  0.8341618  )
        99        C      tau(  99) = (  0.6667734  0.1666918  0.1666918  )
       100        C      tau( 100) = (  0.6669881  0.1664771  0.4999213  )
       101        C      tau( 101) = (  0.6664314  0.1670336  0.8330779  )
       102        C      tau( 102) = (  0.6669881  0.4999213  0.1664771  )
       103        C      tau( 103) = (  0.6660285  0.5000751  0.5000751  )
       104        C      tau( 104) = (  0.6674175  0.5003219  0.8341689  )
       105        C      tau( 105) = (  0.6664314  0.8330779  0.1670336  )
       106        C      tau( 106) = (  0.6674175  0.8341689  0.5003219  )
       107        C      tau( 107) = (  0.6666373  0.8332816  0.8332816  )
       108        C      tau( 108) = (  0.0834957  0.0835461  0.0835461  )
       109        C      tau( 109) = (  0.0836672  0.0837470  0.4169981  )
       110        C      tau( 110) = (  0.0835244  0.0833329  0.7499400  )
       111        C      tau( 111) = (  0.0836672  0.4169981  0.0837470  )
       112        C      tau( 112) = (  0.0847671  0.4174527  0.4174527  )
       113        C      tau( 113) = (  0.0823961  0.4174459  0.7510677  )
       114        C      tau( 114) = (  0.0835244  0.7499400  0.0833329  )
       115        C      tau( 115) = (  0.0823961  0.7510677  0.4174459  )
       116        C      tau( 116) = (  0.0838930  0.7495711  0.7495711  )
       117        C      tau( 117) = (  0.4166734  0.0833621  0.0833621  )
       118        C      tau( 118) = (  0.4166820  0.0834303  0.4167820  )
       119        C      tau( 119) = (  0.4164656  0.0837478  0.7497963  )
       120        C      tau( 120) = (  0.4166820  0.4167820  0.0834303  )
       121        C      tau( 121) = (  0.4160092  0.4174541  0.7486940  )
       122        C      tau( 122) = (  0.4164656  0.7497963  0.0837478  )
       123        C      tau( 123) = (  0.4160092  0.7486940  0.4174541  )
       124        C      tau( 124) = (  0.4160187  0.7510677  0.7510677  )
       125        C      tau( 125) = (  0.7501037  0.0833598  0.0833598  )
       126        C      tau( 126) = (  0.7501009  0.0833626  0.4167907  )
       127        C      tau( 127) = (  0.7499173  0.0835464  0.7499681  )
       128        C      tau( 128) = (  0.7501009  0.4167907  0.0833626  )
       129        C      tau( 129) = (  0.7500333  0.4167824  0.4167824  )
       130        C      tau( 130) = (  0.7497157  0.4169985  0.7497963  )
       131        C      tau( 131) = (  0.7499173  0.7499681  0.0835464  )
       132        C      tau( 132) = (  0.7497157  0.7497963  0.4169985  )
       133        C      tau( 133) = (  0.7501312  0.7499401  0.7499401  )
       134        C      tau( 134) = (  0.2502000  0.2503005  0.0836387  )
       135        C      tau( 135) = (  0.2513730  0.2519262  0.4179183  )
       136        C      tau( 136) = (  0.2508580  0.2490343  0.7509915  )
       137        C      tau( 137) = (  0.2501656  0.5832986  0.0836017  )
       138        C      tau( 138) = (  0.2429034  0.5905550  0.4097107  )
       139        C      tau( 139) = (  0.2508202  0.5826433  0.7488333  )
       140        C      tau( 140) = (  0.2502926  0.9171554  0.0830983  )
       141        C      tau( 141) = (  0.2501261  0.9166097  0.4168421  )
       142        C      tau( 142) = (  0.2502081  0.9165984  0.7499734  )
       143        C      tau( 143) = (  0.5834862  0.2499779  0.0831571  )
       144        C      tau( 144) = (  0.5843691  0.2490938  0.4167241  )
       145        C      tau( 145) = (  0.5827823  0.2506812  0.7495467  )
       146        C      tau( 146) = (  0.5831629  0.5832640  0.0836395  )
       147        C      tau( 147) = (  0.5815325  0.5820872  0.4179202  )
       148        C      tau( 148) = (  0.5844295  0.5826066  0.7509918  )
       149        C      tau( 149) = (  0.5832396  0.9165349  0.0835595  )
       150        C      tau( 150) = (  0.5832974  0.9165453  0.4169125  )
       151        C      tau( 151) = (  0.5832479  0.9168011  0.7498989  )
       152        C      tau( 152) = (  0.9169284  0.2502241  0.0835594  )
       153        C      tau( 153) = (  0.9169179  0.2501664  0.4169121  )
       154        C      tau( 154) = (  0.9166630  0.2502165  0.7498990  )
       155        C      tau( 155) = (  0.9163076  0.5831715  0.0830978  )
       156        C      tau( 156) = (  0.9168543  0.5833387  0.4168418  )
       157        C      tau( 157) = (  0.9168654  0.5832563  0.7499735  )
       158        C      tau( 158) = (  0.9168010  0.9166626  0.0834609  )
       159        C      tau( 159) = (  0.9162268  0.9172367  0.4170452  )
       160        C      tau( 160) = (  0.9168925  0.9165712  0.7499267  )
       161        C      tau( 161) = (  0.2502000  0.0836387  0.2503005  )
       162        C      tau( 162) = (  0.2501656  0.0836017  0.5832986  )
       163        C      tau( 163) = (  0.2502926  0.0830983  0.9171554  )
       164        C      tau( 164) = (  0.2513730  0.4179183  0.2519262  )
       165        C      tau( 165) = (  0.2429034  0.4097107  0.5905550  )
       166        C      tau( 166) = (  0.2501261  0.4168421  0.9166097  )
       167        C      tau( 167) = (  0.2508580  0.7509915  0.2490343  )
       168        C      tau( 168) = (  0.2508202  0.7488333  0.5826433  )
       169        C      tau( 169) = (  0.2502081  0.7499734  0.9165984  )
       170        C      tau( 170) = (  0.5834862  0.0831571  0.2499779  )
       171        C      tau( 171) = (  0.5831629  0.0836395  0.5832640  )
       172        C      tau( 172) = (  0.5832396  0.0835595  0.9165349  )
       173        C      tau( 173) = (  0.5843691  0.4167241  0.2490938  )
       174        C      tau( 174) = (  0.5815325  0.4179202  0.5820871  )
       175        C      tau( 175) = (  0.5832974  0.4169125  0.9165453  )
       176        C      tau( 176) = (  0.5827823  0.7495467  0.2506812  )
       177        C      tau( 177) = (  0.5844295  0.7509918  0.5826066  )
       178        C      tau( 178) = (  0.5832479  0.7498989  0.9168011  )
       179        C      tau( 179) = (  0.9169284  0.0835594  0.2502241  )
       180        C      tau( 180) = (  0.9163076  0.0830978  0.5831715  )
       181        C      tau( 181) = (  0.9168010  0.0834608  0.9166626  )
       182        C      tau( 182) = (  0.9169179  0.4169121  0.2501664  )
       183        C      tau( 183) = (  0.9168543  0.4168418  0.5833387  )
       184        C      tau( 184) = (  0.9162268  0.4170452  0.9172367  )
       185        C      tau( 185) = (  0.9166630  0.7498990  0.2502165  )
       186        C      tau( 186) = (  0.9168654  0.7499735  0.5832563  )
       187        C      tau( 187) = (  0.9168925  0.7499267  0.9165712  )
       188        C      tau( 188) = (  0.0839162  0.2506806  0.2506806  )
       189        C      tau( 189) = (  0.0824710  0.2490330  0.5826053  )
       190        C      tau( 190) = (  0.0835655  0.2502164  0.9168006  )
       191        C      tau( 191) = (  0.0824710  0.5826053  0.2490330  )
       192        C      tau( 192) = (  0.0846297  0.5826433  0.5826433  )
       193        C      tau( 193) = (  0.0834910  0.5832564  0.9165984  )
       194        C      tau( 194) = (  0.0835655  0.9168006  0.2502164  )
       195        C      tau( 195) = (  0.0834910  0.9165984  0.5832564  )
       196        C      tau( 196) = (  0.0835373  0.9165711  0.9165711  )
       197        C      tau( 197) = (  0.4167391  0.2490925  0.2490925  )
       198        C      tau( 198) = (  0.4155416  0.2519283  0.5820872  )
       199        C      tau( 199) = (  0.4165519  0.2501669  0.9165452  )
       200        C      tau( 200) = (  0.4155416  0.5820872  0.2519283  )
       201        C      tau( 201) = (  0.4237458  0.5905538  0.5905538  )
       202        C      tau( 202) = (  0.4166227  0.5833387  0.9166099  )
       203        C      tau( 203) = (  0.4165519  0.9165452  0.2501669  )
       204        C      tau( 204) = (  0.4166227  0.9166099  0.5833387  )
       205        C      tau( 205) = (  0.4164190  0.9172366  0.9172366  )
       206        C      tau( 206) = (  0.7503062  0.2499780  0.2499780  )
       207        C      tau( 207) = (  0.7498241  0.2503013  0.5832641  )
       208        C      tau( 208) = (  0.7499040  0.2502242  0.9165350  )
       209        C      tau( 209) = (  0.7498241  0.5832641  0.2503012  )
       210        C      tau( 210) = (  0.7498620  0.5832988  0.5832988  )
       211        C      tau( 211) = (  0.7503652  0.5831717  0.9171554  )
       212        C      tau( 212) = (  0.7499040  0.9165350  0.2502242  )
       213        C      tau( 213) = (  0.7503652  0.9171554  0.5831717  )
       214        C      tau( 214) = (  0.7500026  0.9166625  0.9166625  )
       215        N      tau( 215) = (  0.4247438  0.4087118  0.4087118  )

     number of k points=     1
                       cart. coord. in units 2pi/alat
        k(    1) = (   0.0000000   0.0000000   0.0000000), wk =   1.0000000

                       cryst. coord.
        k(    1) = (   0.0000000   0.0000000   0.0000000), wk =   1.0000000

     Dense  grid:   338755 G-vectors     FFT dimensions: (  90,  90,  90)

     Dynamical RAM for                 wfc:      19.93 MB

     Dynamical RAM for     wfc (w. buffer):      59.80 MB

     Dynamical RAM for           str. fact:       0.37 MB

     Dynamical RAM for           local pot:       0.00 MB

     Dynamical RAM for          nlocal pot:      39.68 MB

     Dynamical RAM for                qrad:       0.62 MB

     Dynamical RAM for          rho,v,vnew:       2.59 MB

     Dynamical RAM for               rhoin:       0.86 MB

     Dynamical RAM for            rho*nmix:       5.91 MB

     Dynamical RAM for           G-vectors:       0.78 MB

     Dynamical RAM for          h,s,v(r/c):       5.45 MB

     Dynamical RAM for          <psi|beta>:      22.68 MB

     Dynamical RAM for                 psi:      39.87 MB

     Dynamical RAM for                hpsi:      39.87 MB

     Dynamical RAM for                spsi:      39.87 MB

     Dynamical RAM for      wfcinit/wfcrot:      56.96 MB

     Dynamical RAM for           addusdens:      47.63 MB

     Dynamical RAM for          addusforce:     126.64 MB

     Dynamical RAM for         addusstress:       9.51 MB

     Estimated static dynamical RAM per process >     106.74 MB

     Estimated max dynamical RAM per process >     260.38 MB

     Estimated total dynamical RAM >       7.12 GB

     Check: negative core charge=   -0.000075
     Generating pointlists ...
     new r_m :   0.0565 (alat units)  1.1452 (a.u.) for type    1
     new r_m :   0.0565 (alat units)  1.1452 (a.u.) for type    2

     Initial potential from superposition of free atoms

     starting charge     860.9911, renormalised to     864.0000
     Starting wfcs are random
     Checking if some PAW data can be deallocated... 
       PAW data deallocated on   27 nodes for type:  2

     total cpu time spent up to now is        7.8 secs

     per-process dynamical memory:   156.8 Mb

     Self-consistent Calculation

     iteration #  1     ecut=    45.00 Ry     beta= 0.70
     Davidson diagonalization with overlap

---- Real-time Memory Report at c_bands before calling an iterative solver
           397 MiB given to the printing process from OS
           153 MiB allocation reported by mallinfo(arena+hblkhd)
         46997 MiB available memory on the node where the printing process lives
------------------
     ethr =  1.00E-02,  avg # of iterations =  9.0

     total cpu time spent up to now is       98.9 secs

     total energy              =   -3967.18250569 Ry
     estimated scf accuracy    <      13.63422036 Ry

     total magnetization       =    -0.00 Bohr mag/cell
     absolute magnetization    =     0.28 Bohr mag/cell

     iteration #  2     ecut=    45.00 Ry     beta= 0.70
     Davidson diagonalization with overlap

---- Real-time Memory Report at c_bands before calling an iterative solver
           668 MiB given to the printing process from OS
           175 MiB allocation reported by mallinfo(arena+hblkhd)
         46287 MiB available memory on the node where the printing process lives
------------------
     ethr =  1.58E-03,  avg # of iterations =  8.0

     total cpu time spent up to now is      126.6 secs

     total energy              =   -3961.95603727 Ry
     estimated scf accuracy    <      20.68646547 Ry

     total magnetization       =     0.00 Bohr mag/cell
     absolute magnetization    =     0.14 Bohr mag/cell

     iteration #  3     ecut=    45.00 Ry     beta= 0.70
     Davidson diagonalization with overlap

---- Real-time Memory Report at c_bands before calling an iterative solver
           687 MiB given to the printing process from OS
           182 MiB allocation reported by mallinfo(arena+hblkhd)
         46205 MiB available memory on the node where the printing process lives
------------------
     ethr =  1.58E-03,  avg # of iterations =  3.0

     total cpu time spent up to now is      155.9 secs

     total energy              =   -3967.67669415 Ry
     estimated scf accuracy    <      14.88981598 Ry

     total magnetization       =    -0.00 Bohr mag/cell
     absolute magnetization    =     0.09 Bohr mag/cell

     iteration #  4     ecut=    45.00 Ry     beta= 0.70
     Davidson diagonalization with overlap

---- Real-time Memory Report at c_bands before calling an iterative solver
           698 MiB given to the printing process from OS
           183 MiB allocation reported by mallinfo(arena+hblkhd)
         46179 MiB available memory on the node where the printing process lives
------------------
     ethr =  1.58E-03,  avg # of iterations =  4.0

     total cpu time spent up to now is      180.3 secs

     total energy              =   -3968.89667808 Ry
     estimated scf accuracy    <       1.75200391 Ry

     total magnetization       =    -0.00 Bohr mag/cell
     absolute magnetization    =     0.05 Bohr mag/cell

     iteration #  5     ecut=    45.00 Ry     beta= 0.70
     Davidson diagonalization with overlap

---- Real-time Memory Report at c_bands before calling an iterative solver
           710 MiB given to the printing process from OS
           183 MiB allocation reported by mallinfo(arena+hblkhd)
         46163 MiB available memory on the node where the printing process lives
------------------
     ethr =  2.03E-04,  avg # of iterations =  9.0

     total cpu time spent up to now is      208.5 secs

     total energy              =   -3968.96820147 Ry
     estimated scf accuracy    <       0.67697907 Ry

     total magnetization       =    -0.00 Bohr mag/cell
     absolute magnetization    =     0.04 Bohr mag/cell

     iteration #  6     ecut=    45.00 Ry     beta= 0.70
     Davidson diagonalization with overlap

---- Real-time Memory Report at c_bands before calling an iterative solver
           718 MiB given to the printing process from OS
           184 MiB allocation reported by mallinfo(arena+hblkhd)
         46149 MiB available memory on the node where the printing process lives
------------------
     ethr =  7.84E-05,  avg # of iterations = 10.5

     total cpu time spent up to now is      237.4 secs

     total energy              =   -3968.91197978 Ry
     estimated scf accuracy    <       0.31811391 Ry

     total magnetization       =     0.00 Bohr mag/cell
     absolute magnetization    =     0.03 Bohr mag/cell

     iteration #  7     ecut=    45.00 Ry     beta= 0.70
     Davidson diagonalization with overlap

---- Real-time Memory Report at c_bands before calling an iterative solver
           724 MiB given to the printing process from OS
           185 MiB allocation reported by mallinfo(arena+hblkhd)
         46112 MiB available memory on the node where the printing process lives
------------------
     ethr =  3.68E-05,  avg # of iterations =  6.0

     total cpu time spent up to now is      263.4 secs

     total energy              =   -3968.91585218 Ry
     estimated scf accuracy    <       0.04885485 Ry

     total magnetization       =    -0.00 Bohr mag/cell
     absolute magnetization    =     0.02 Bohr mag/cell

     iteration #  8     ecut=    45.00 Ry     beta= 0.70
     Davidson diagonalization with overlap

---- Real-time Memory Report at c_bands before calling an iterative solver
           729 MiB given to the printing process from OS
           186 MiB allocation reported by mallinfo(arena+hblkhd)
         46071 MiB available memory on the node where the printing process lives
------------------
     ethr =  5.65E-06,  avg # of iterations = 12.0

     total cpu time spent up to now is      297.1 secs

     total energy              =   -3968.92240329 Ry
     estimated scf accuracy    <       0.00265276 Ry

     total magnetization       =    -0.00 Bohr mag/cell
     absolute magnetization    =     0.01 Bohr mag/cell

     iteration #  9     ecut=    45.00 Ry     beta= 0.70
     Davidson diagonalization with overlap

---- Real-time Memory Report at c_bands before calling an iterative solver
           734 MiB given to the printing process from OS
           187 MiB allocation reported by mallinfo(arena+hblkhd)
         46028 MiB available memory on the node where the printing process lives
------------------
     ethr =  3.07E-07,  avg # of iterations =  2.0

     total cpu time spent up to now is      320.1 secs

     total energy              =   -3968.92281660 Ry
     estimated scf accuracy    <       0.00079436 Ry

     total magnetization       =     0.00 Bohr mag/cell
     absolute magnetization    =     0.00 Bohr mag/cell

     iteration # 10     ecut=    45.00 Ry     beta= 0.70
     Davidson diagonalization with overlap

---- Real-time Memory Report at c_bands before calling an iterative solver
           737 MiB given to the printing process from OS
           188 MiB allocation reported by mallinfo(arena+hblkhd)
         45960 MiB available memory on the node where the printing process lives
------------------
     ethr =  9.19E-08,  avg # of iterations =  2.0

     total cpu time spent up to now is      343.0 secs

     total energy              =   -3968.92293505 Ry
     estimated scf accuracy    <       0.00019358 Ry

     total magnetization       =    -0.00 Bohr mag/cell
     absolute magnetization    =     0.00 Bohr mag/cell

     iteration # 11     ecut=    45.00 Ry     beta= 0.70
     Davidson diagonalization with overlap

---- Real-time Memory Report at c_bands before calling an iterative solver
           739 MiB given to the printing process from OS
           189 MiB allocation reported by mallinfo(arena+hblkhd)
         45944 MiB available memory on the node where the printing process lives
------------------
     ethr =  2.24E-08,  avg # of iterations =  2.0

     total cpu time spent up to now is      366.1 secs

     total energy              =   -3968.92296543 Ry
     estimated scf accuracy    <       0.00002025 Ry

     total magnetization       =     0.00 Bohr mag/cell
     absolute magnetization    =     0.00 Bohr mag/cell

     iteration # 12     ecut=    45.00 Ry     beta= 0.70
     Davidson diagonalization with overlap

---- Real-time Memory Report at c_bands before calling an iterative solver
           741 MiB given to the printing process from OS
           189 MiB allocation reported by mallinfo(arena+hblkhd)
         45929 MiB available memory on the node where the printing process lives
------------------
     ethr =  2.34E-09,  avg # of iterations =  2.0

     total cpu time spent up to now is      389.0 secs

     total energy              =   -3968.92296834 Ry
     estimated scf accuracy    <       0.00000792 Ry

     total magnetization       =     0.00 Bohr mag/cell
     absolute magnetization    =     0.00 Bohr mag/cell

     iteration # 13     ecut=    45.00 Ry     beta= 0.70
     Davidson diagonalization with overlap

---- Real-time Memory Report at c_bands before calling an iterative solver
           743 MiB given to the printing process from OS
           189 MiB allocation reported by mallinfo(arena+hblkhd)
         45935 MiB available memory on the node where the printing process lives
------------------
     ethr =  9.16E-10,  avg # of iterations =  2.0

     total cpu time spent up to now is      411.9 secs

     total energy              =   -3968.92296969 Ry
     estimated scf accuracy    <       0.00000049 Ry

     total magnetization       =     0.00 Bohr mag/cell
     absolute magnetization    =     0.00 Bohr mag/cell

     iteration # 14     ecut=    45.00 Ry     beta= 0.70
     Davidson diagonalization with overlap

---- Real-time Memory Report at c_bands before calling an iterative solver
           744 MiB given to the printing process from OS
           189 MiB allocation reported by mallinfo(arena+hblkhd)
         45936 MiB available memory on the node where the printing process lives
------------------
     ethr =  5.68E-11,  avg # of iterations =  2.0

     total cpu time spent up to now is      434.8 secs

     total energy              =   -3968.92296972 Ry
     estimated scf accuracy    <       0.00000033 Ry

     total magnetization       =    -0.00 Bohr mag/cell
     absolute magnetization    =     0.00 Bohr mag/cell

     iteration # 15     ecut=    45.00 Ry     beta= 0.70
     Davidson diagonalization with overlap

---- Real-time Memory Report at c_bands before calling an iterative solver
           745 MiB given to the printing process from OS
           189 MiB allocation reported by mallinfo(arena+hblkhd)
         45953 MiB available memory on the node where the printing process lives
------------------
     ethr =  3.80E-11,  avg # of iterations =  2.0
 
     Magnetic moment per site  (integrated on atomic sphere of radius R)
     atom   1 (R=0.057)  charge=  1.8012  magn= -0.0000
     atom   2 (R=0.057)  charge=  1.8006  magn= -0.0000
     atom   3 (R=0.057)  charge=  1.8026  magn= -0.0000
     atom   4 (R=0.057)  charge=  1.8006  magn=  0.0000
     atom   5 (R=0.057)  charge=  1.7961  magn=  0.0000
     atom   6 (R=0.057)  charge=  1.8000  magn=  0.0000
     atom   7 (R=0.057)  charge=  1.8026  magn= -0.0000
     atom   8 (R=0.057)  charge=  1.8000  magn= -0.0000
     atom   9 (R=0.057)  charge=  1.7960  magn=  0.0000
     atom  10 (R=0.057)  charge=  1.8101  magn=  0.0000
     atom  11 (R=0.057)  charge=  1.8028  magn=  0.0000
     atom  12 (R=0.057)  charge=  1.8026  magn=  0.0000
     atom  13 (R=0.057)  charge=  1.8028  magn=  0.0000
     atom  14 (R=0.057)  charge=  1.7710  magn=  0.0000
     atom  15 (R=0.057)  charge=  1.7974  magn= -0.0000
     atom  16 (R=0.057)  charge=  1.8026  magn= -0.0000
     atom  17 (R=0.057)  charge=  1.7974  magn=  0.0000
     atom  18 (R=0.057)  charge=  1.7971  magn= -0.0000
     atom  19 (R=0.057)  charge=  1.8012  magn= -0.0000
     atom  20 (R=0.057)  charge=  1.8034  magn=  0.0000
     atom  21 (R=0.057)  charge=  1.8022  magn= -0.0000
     atom  22 (R=0.057)  charge=  1.8034  magn=  0.0000
     atom  23 (R=0.057)  charge=  1.8017  magn= -0.0000
     atom  24 (R=0.057)  charge=  1.7931  magn=  0.0000
     atom  25 (R=0.057)  charge=  1.8022  magn=  0.0000
     atom  26 (R=0.057)  charge=  1.7931  magn= -0.0000
     atom  27 (R=0.057)  charge=  1.8004  magn= -0.0000
     atom  28 (R=0.057)  charge=  1.8020  magn=  0.0000
     atom  29 (R=0.057)  charge=  1.7928  magn=  0.0000
     atom  30 (R=0.057)  charge=  1.8004  magn= -0.0000
     atom  31 (R=0.057)  charge=  1.8023  magn=  0.0000
     atom  32 (R=0.057)  charge=  1.7972  magn=  0.0000
     atom  33 (R=0.057)  charge=  1.7972  magn= -0.0000
     atom  34 (R=0.057)  charge=  1.8026  magn= -0.0000
     atom  35 (R=0.057)  charge=  1.7999  magn=  0.0000
     atom  36 (R=0.057)  charge=  1.7960  magn= -0.0000
     atom  37 (R=0.057)  charge=  1.8033  magn=  0.0000
     atom  38 (R=0.057)  charge=  1.8018  magn= -0.0000
     atom  39 (R=0.057)  charge=  1.7930  magn=  0.0000
     atom  40 (R=0.057)  charge=  1.8030  magn= -0.0000
     atom  41 (R=0.057)  charge=  1.7712  magn=  0.0000
     atom  42 (R=0.057)  charge=  1.7972  magn= -0.0000
     atom  43 (R=0.057)  charge=  1.8009  magn=  0.0000
     atom  44 (R=0.057)  charge=  1.7963  magn=  0.0000
     atom  45 (R=0.057)  charge=  1.8000  magn= -0.0000
     atom  46 (R=0.057)  charge=  1.8010  magn=  0.0000
     atom  47 (R=0.057)  charge=  1.8030  magn= -0.0000
     atom  48 (R=0.057)  charge=  1.8023  magn= -0.0000
     atom  49 (R=0.057)  charge=  1.8102  magn=  0.0000
     atom  50 (R=0.057)  charge=  1.8026  magn= -0.0000
     atom  51 (R=0.057)  charge=  1.8027  magn=  0.0000
     atom  52 (R=0.057)  charge=  1.8013  magn= -0.0000
     atom  53 (R=0.057)  charge=  1.8011  magn=  0.0000
     atom  54 (R=0.057)  charge=  1.8025  magn=  0.0000
     atom  55 (R=0.057)  charge=  1.8020  magn=  0.0000
     atom  56 (R=0.057)  charge=  1.8023  magn= -0.0000
     atom  57 (R=0.057)  charge=  1.8026  magn= -0.0000
     atom  58 (R=0.057)  charge=  1.7928  magn=  0.0000
     atom  59 (R=0.057)  charge=  1.7972  magn= -0.0000
     atom  60 (R=0.057)  charge=  1.7999  magn= -0.0000
     atom  61 (R=0.057)  charge=  1.8004  magn= -0.0000
     atom  62 (R=0.057)  charge=  1.7972  magn= -0.0000
     atom  63 (R=0.057)  charge=  1.7960  magn=  0.0000
     atom  64 (R=0.057)  charge=  1.8033  magn=  0.0000
     atom  65 (R=0.057)  charge=  1.8030  magn= -0.0000
     atom  66 (R=0.057)  charge=  1.8009  magn=  0.0000
     atom  67 (R=0.057)  charge=  1.8018  magn= -0.0000
     atom  68 (R=0.057)  charge=  1.7712  magn= -0.0000
     atom  69 (R=0.057)  charge=  1.7963  magn=  0.0000
     atom  70 (R=0.057)  charge=  1.7930  magn= -0.0000
     atom  71 (R=0.057)  charge=  1.7972  magn= -0.0000
     atom  72 (R=0.057)  charge=  1.8000  magn= -0.0000
     atom  73 (R=0.057)  charge=  1.8010  magn= -0.0000
     atom  74 (R=0.057)  charge=  1.8102  magn= -0.0000
     atom  75 (R=0.057)  charge=  1.8013  magn= -0.0000
     atom  76 (R=0.057)  charge=  1.8030  magn=  0.0000
     atom  77 (R=0.057)  charge=  1.8026  magn= -0.0000
     atom  78 (R=0.057)  charge=  1.8011  magn=  0.0000
     atom  79 (R=0.057)  charge=  1.8023  magn=  0.0000
     atom  80 (R=0.057)  charge=  1.8027  magn=  0.0000
     atom  81 (R=0.057)  charge=  1.8025  magn= -0.0000
     atom  82 (R=0.057)  charge=  1.7998  magn=  0.0000
     atom  83 (R=0.057)  charge=  1.8084  magn=  0.0000
     atom  84 (R=0.057)  charge=  1.8013  magn= -0.0000
     atom  85 (R=0.057)  charge=  1.8084  magn=  0.0000
     atom  86 (R=0.057)  charge=  1.8013  magn= -0.0000
     atom  87 (R=0.057)  charge=  1.8067  magn= -0.0000
     atom  88 (R=0.057)  charge=  1.8013  magn= -0.0000
     atom  89 (R=0.057)  charge=  1.8067  magn=  0.0000
     atom  90 (R=0.057)  charge=  1.8004  magn=  0.0000
     atom  91 (R=0.057)  charge=  1.8075  magn=  0.0000
     atom  92 (R=0.057)  charge=  1.8044  magn= -0.0000
     atom  93 (R=0.057)  charge=  1.8083  magn= -0.0000
     atom  94 (R=0.057)  charge=  1.8044  magn= -0.0000
     atom  95 (R=0.057)  charge=  1.8015  magn=  0.0000
     atom  96 (R=0.057)  charge=  1.8083  magn= -0.0000
     atom  97 (R=0.057)  charge=  1.8015  magn= -0.0000
     atom  98 (R=0.057)  charge=  1.8065  magn= -0.0000
     atom  99 (R=0.057)  charge=  1.8030  magn=  0.0000
     atom 100 (R=0.057)  charge=  1.8074  magn= -0.0000
     atom 101 (R=0.057)  charge=  1.8002  magn= -0.0000
     atom 102 (R=0.057)  charge=  1.8074  magn=  0.0000
     atom 103 (R=0.057)  charge=  1.8046  magn=  0.0000
     atom 104 (R=0.057)  charge=  1.8082  magn= -0.0000
     atom 105 (R=0.057)  charge=  1.8002  magn=  0.0000
     atom 106 (R=0.057)  charge=  1.8082  magn=  0.0000
     atom 107 (R=0.057)  charge=  1.8016  magn= -0.0000
     atom 108 (R=0.057)  charge=  1.7990  magn= -0.0000
     atom 109 (R=0.057)  charge=  1.7955  magn=  0.0000
     atom 110 (R=0.057)  charge=  1.7995  magn=  0.0000
     atom 111 (R=0.057)  charge=  1.7955  magn= -0.0000
     atom 112 (R=0.057)  charge=  1.7944  magn=  0.0000
     atom 113 (R=0.057)  charge=  1.7997  magn= -0.0000
     atom 114 (R=0.057)  charge=  1.7995  magn=  0.0000
     atom 115 (R=0.057)  charge=  1.7997  magn= -0.0000
     atom 116 (R=0.057)  charge=  1.7967  magn= -0.0000
     atom 117 (R=0.057)  charge=  1.8012  magn= -0.0000
     atom 118 (R=0.057)  charge=  1.7994  magn=  0.0000
     atom 119 (R=0.057)  charge=  1.7955  magn= -0.0000
     atom 120 (R=0.057)  charge=  1.7994  magn=  0.0000
     atom 121 (R=0.057)  charge=  1.7947  magn= -0.0000
     atom 122 (R=0.057)  charge=  1.7955  magn=  0.0000
     atom 123 (R=0.057)  charge=  1.7947  magn= -0.0000
     atom 124 (R=0.057)  charge=  1.7997  magn=  0.0000
     atom 125 (R=0.057)  charge=  1.7986  magn=  0.0000
     atom 126 (R=0.057)  charge=  1.8012  magn= -0.0000
     atom 127 (R=0.057)  charge=  1.7991  magn=  0.0000
     atom 128 (R=0.057)  charge=  1.8012  magn= -0.0000
     atom 129 (R=0.057)  charge=  1.7994  magn=  0.0000
     atom 130 (R=0.057)  charge=  1.7955  magn= -0.0000
     atom 131 (R=0.057)  charge=  1.7991  magn= -0.0000
     atom 132 (R=0.057)  charge=  1.7955  magn=  0.0000
     atom 133 (R=0.057)  charge=  1.7995  magn=  0.0000
     atom 134 (R=0.057)  charge=  1.7977  magn= -0.0000
     atom 135 (R=0.057)  charge=  1.7908  magn= -0.0000
     atom 136 (R=0.057)  charge=  1.7999  magn=  0.0000
     atom 137 (R=0.057)  charge=  1.7992  magn=  0.0000
     atom 138 (R=0.057)  charge=  1.8561  magn= -0.0000
     atom 139 (R=0.057)  charge=  1.7953  magn=  0.0000
     atom 140 (R=0.057)  charge=  1.8027  magn=  0.0000
     atom 141 (R=0.057)  charge=  1.7992  magn= -0.0000
     atom 142 (R=0.057)  charge=  1.7966  magn= -0.0000
     atom 143 (R=0.057)  charge=  1.8011  magn= -0.0000
     atom 144 (R=0.057)  charge=  1.8058  magn=  0.0000
     atom 145 (R=0.057)  charge=  1.7981  magn= -0.0000
     atom 146 (R=0.057)  charge=  1.7977  magn= -0.0000
     atom 147 (R=0.057)  charge=  1.7909  magn=  0.0000
     atom 148 (R=0.057)  charge=  1.8000  magn=  0.0000
     atom 149 (R=0.057)  charge=  1.7988  magn=  0.0000
     atom 150 (R=0.057)  charge=  1.7972  magn=  0.0000
     atom 151 (R=0.057)  charge=  1.7994  magn=  0.0000
     atom 152 (R=0.057)  charge=  1.7987  magn= -0.0000
     atom 153 (R=0.057)  charge=  1.7972  magn=  0.0000
     atom 154 (R=0.057)  charge=  1.7994  magn= -0.0000
     atom 155 (R=0.057)  charge=  1.8027  magn=  0.0000
     atom 156 (R=0.057)  charge=  1.7992  magn=  0.0000
     atom 157 (R=0.057)  charge=  1.7966  magn=  0.0000
     atom 158 (R=0.057)  charge=  1.7984  magn=  0.0000
     atom 159 (R=0.057)  charge=  1.8009  magn=  0.0000
     atom 160 (R=0.057)  charge=  1.7988  magn= -0.0000
     atom 161 (R=0.057)  charge=  1.7977  magn= -0.0000
     atom 162 (R=0.057)  charge=  1.7992  magn=  0.0000
     atom 163 (R=0.057)  charge=  1.8027  magn=  0.0000
     atom 164 (R=0.057)  charge=  1.7908  magn= -0.0000
     atom 165 (R=0.057)  charge=  1.8561  magn=  0.0000
     atom 166 (R=0.057)  charge=  1.7992  magn= -0.0000
     atom 167 (R=0.057)  charge=  1.7999  magn=  0.0000
     atom 168 (R=0.057)  charge=  1.7953  magn=  0.0000
     atom 169 (R=0.057)  charge=  1.7966  magn=  0.0000
     atom 170 (R=0.057)  charge=  1.8011  magn= -0.0000
     atom 171 (R=0.057)  charge=  1.7977  magn= -0.0000
     atom 172 (R=0.057)  charge=  1.7988  magn=  0.0000
     atom 173 (R=0.057)  charge=  1.8058  magn=  0.0000
     atom 174 (R=0.057)  charge=  1.7909  magn= -0.0000
     atom 175 (R=0.057)  charge=  1.7972  magn= -0.0000
     atom 176 (R=0.057)  charge=  1.7981  magn=  0.0000
     atom 177 (R=0.057)  charge=  1.8000  magn= -0.0000
     atom 178 (R=0.057)  charge=  1.7994  magn=  0.0000
     atom 179 (R=0.057)  charge=  1.7987  magn=  0.0000
     atom 180 (R=0.057)  charge=  1.8027  magn= -0.0000
     atom 181 (R=0.057)  charge=  1.7984  magn=  0.0000
     atom 182 (R=0.057)  charge=  1.7972  magn= -0.0000
     atom 183 (R=0.057)  charge=  1.7992  magn=  0.0000
     atom 184 (R=0.057)  charge=  1.8009  magn= -0.0000
     atom 185 (R=0.057)  charge=  1.7994  magn=  0.0000
     atom 186 (R=0.057)  charge=  1.7966  magn= -0.0000
     atom 187 (R=0.057)  charge=  1.7988  magn=  0.0000
     atom 188 (R=0.057)  charge=  1.7982  magn= -0.0000
     atom 189 (R=0.057)  charge=  1.8000  magn= -0.0000
     atom 190 (R=0.057)  charge=  1.7993  magn= -0.0000
     atom 191 (R=0.057)  charge=  1.8000  magn= -0.0000
     atom 192 (R=0.057)  charge=  1.7953  magn=  0.0000
     atom 193 (R=0.057)  charge=  1.7966  magn=  0.0000
     atom 194 (R=0.057)  charge=  1.7993  magn= -0.0000
     atom 195 (R=0.057)  charge=  1.7966  magn=  0.0000
     atom 196 (R=0.057)  charge=  1.7988  magn=  0.0000
     atom 197 (R=0.057)  charge=  1.8059  magn=  0.0000
     atom 198 (R=0.057)  charge=  1.7910  magn=  0.0000
     atom 199 (R=0.057)  charge=  1.7972  magn= -0.0000
     atom 200 (R=0.057)  charge=  1.7910  magn= -0.0000
     atom 201 (R=0.057)  charge=  1.8559  magn=  0.0000
     atom 202 (R=0.057)  charge=  1.7992  magn=  0.0000
     atom 203 (R=0.057)  charge=  1.7972  magn= -0.0000
     atom 204 (R=0.057)  charge=  1.7992  magn=  0.0000
     atom 205 (R=0.057)  charge=  1.8009  magn= -0.0000
     atom 206 (R=0.057)  charge=  1.8011  magn= -0.0000
     atom 207 (R=0.057)  charge=  1.7977  magn=  0.0000
     atom 208 (R=0.057)  charge=  1.7988  magn= -0.0000
     atom 209 (R=0.057)  charge=  1.7977  magn= -0.0000
     atom 210 (R=0.057)  charge=  1.7992  magn= -0.0000
     atom 211 (R=0.057)  charge=  1.8027  magn=  0.0000
     atom 212 (R=0.057)  charge=  1.7988  magn= -0.0000
     atom 213 (R=0.057)  charge=  1.8027  magn= -0.0000
     atom 214 (R=0.057)  charge=  1.7984  magn=  0.0000
     atom 215 (R=0.057)  charge=  2.8865  magn= -0.0000

     total cpu time spent up to now is      457.6 secs

     End of self-consistent calculation

 ------ SPIN UP ------------


          k = 0.0000 0.0000 0.0000 ( 42379 PWs)   bands (ev):

    -8.3804  -7.5109  -7.3792  -7.3792  -7.3084  -7.3084  -7.2040  -6.6796
    -6.3725  -6.3725  -6.3486  -6.3486  -6.3340  -6.2872  -6.2843  -6.2843
    -6.1740  -6.1740  -6.0099  -5.5897  -5.2972  -5.2690  -5.2690  -5.2136
    -5.2057  -5.2057  -4.9799  -4.4616  -4.3409  -4.3409  -4.3201  -4.3201
    -4.2777  -3.8851  -3.4738  -3.4669  -3.4669  -3.4545  -3.4545  -3.4416
    -3.4254  -3.4242  -3.4242  -3.4070  -3.4070  -3.4023  -3.3850  -3.3850
    -3.3297  -3.3270  -3.3269  -3.3079  -3.3055  -3.3055  -3.2127  -3.2127
    -3.0989  -2.9067  -2.7046  -2.7046  -2.6695  -2.6609  -2.6609  -2.6309
    -2.6300  -2.6207  -2.6207  -2.5608  -2.5608  -2.5199  -2.5045  -2.5045
    -2.4929  -2.4929  -2.4270  -2.3787  -2.3787  -2.2567  -2.0880  -2.0880
    -1.5283  -1.1015  -0.9517  -0.9517  -0.8956  -0.8942  -0.8942  -0.8603
    -0.8603  -0.8546  -0.7610  -0.7610  -0.3247   0.2908   0.3040   0.3040
     0.3176   0.3176   0.3387   0.6837   0.7651   0.7703   0.7703   0.7990
     0.7990   0.8088   0.8183   0.8350   0.8350   0.8540   0.8540   0.8988
     0.8988   0.9327   0.9930   0.9930   1.0024   1.0106   1.0304   1.0304
     1.0326   1.0441   1.0441   1.0474   1.0549   1.0593   1.0593   1.0696
     1.0696   1.0892   1.1371   1.1446   1.1446   1.1901   1.1901   1.1969
     1.1969   1.2091   1.2091   1.2243   1.2724   1.2724   1.3509   1.5207
     1.6324   1.6324   1.9075   2.1814   2.1814   2.1981   2.2217   2.2217
     2.2258   2.2609   2.2890   2.2891   2.5338   2.5338   3.4671   3.6781
     3.6781   3.7018   3.7308   3.7402   3.7402   3.7556   3.7556   3.7649
     3.7656   3.7796   3.7976   3.7976   3.8020   3.8229   3.8229   3.9369
     3.9369   3.9402   4.0007   4.3176   4.3176   4.3687   4.3717   4.3948
     4.3949   4.3963   4.4113   4.4113   4.4267   4.4267   4.4354   4.4560
     4.4560   4.4875   4.4957   4.4957   4.5054   4.5373   4.5374   4.5374
     4.8246   4.8246   5.1776   5.1776   5.1780   5.2035   5.2099   5.2099
     5.2246   5.2295   5.2295   5.2375   5.2556   5.2556   5.3120   5.3120
     5.3969   5.3969   5.4058   5.4202   5.4235   5.4598   5.4598   5.4773
     5.4945   5.4945   5.6281   5.6853   5.6853   5.7854   5.7854   5.8040
     5.8076   5.8169   5.8169   5.8612   5.8719   5.8748   5.8748   5.8794
     5.8837   5.8837   5.8905   5.9254   5.9350   5.9350   5.9550   5.9677
     5.9677   6.0000   6.0000   6.0523   6.0523   6.3750   6.3971   6.3971
     6.8337   6.8338   6.8916   6.9102   6.9480   6.9480   7.1417   7.3422
     7.3422   7.4135   7.4135   7.4183   7.4311   7.4440   7.4441   7.5210
     7.5519   7.5520   7.6810   7.6810   7.8129   7.8267   7.8333   7.8333
     7.8640   7.8640   7.8775   7.8928   7.9180   7.9180   7.9286   7.9626
     7.9798   7.9798   7.9995   7.9995   8.0030   8.0195   8.0195   8.0205
     8.0322   8.0500   8.0501   8.0553   8.0553   8.1084   8.1094   8.1095
     8.1305   8.1305   8.1366   8.1745   8.1785   8.1785   8.2027   8.2220
     8.2221   8.2339   8.2433   8.2433   8.2470   8.2506   8.2506   8.2671
     8.2671   8.2671   8.2929   8.3162   8.3162   8.3264   8.3338   8.3338
     8.3373   8.3373   8.3499   8.3518   8.3743   8.3743   8.3841   8.3841
     8.3866   8.4145   8.4145   8.4147   8.4709   8.4709   8.5065   8.5065
     8.5117   8.5371   8.5596   8.5597   8.5881   8.6007   8.6007   8.6078
     8.6207   8.7662   8.7663   8.8751   8.8751   8.8986   9.0370   9.0370
     9.0806   9.0921   9.1111   9.1111   9.1936   9.2009   9.2009   9.2186
     9.2612   9.2613   9.2946   9.2946   9.3081   9.3414   9.3414   9.4034
     9.5179   9.5179   9.5475  10.1166  10.2711  10.2712  10.4874  10.4875
    10.5291  10.5301  10.5301  10.5656  10.6031  10.6031  10.6280  10.6321
    10.6322  10.6427  10.6745  10.7307  10.7308  10.7902  10.7902  10.7947
    10.8206  10.8207  10.8404  10.8641  10.8642  10.8781  10.8781  10.9147
    10.9148  10.9231  10.9745  10.9946  10.9947  11.4961  11.4962  11.5338
    11.6989  11.7413  11.7414  11.7754  11.8260  11.8260  11.9058  12.0206
    12.0206  12.5208  13.0413  13.0414  13.1136  15.0307  16.7226  16.7227
    17.2156  17.2156  17.2488  17.2830  17.2831  17.2908  17.8343  17.8994
    17.8994  17.9122  17.9122  17.9937  18.0432  18.0432  18.1112  18.1548
    18.1549  18.2079  18.8478  18.8479  18.8558  19.3508  19.3971  19.3971
    19.4062  19.4305  19.4305  19.4441  19.4441  19.4610  19.4673  19.4673
    19.4870  19.9568  20.1013  20.1013  20.1180  20.1220  20.1220  20.1377
    20.1454  20.1454  20.1597  20.1598  20.1960  20.1960  20.2086  20.2283
    20.2537  20.2537  20.2594  20.2773  20.2773  20.2877  20.3195  20.3318
    20.3318  20.5704  20.5863  20.5863  20.5925  20.5952  20.5953  20.6016
    20.6200  20.6276  20.6277  20.6440  20.6566  20.6567  20.7086  20.7086
    20.7462  20.7462  20.7537  20.7911  20.7911  20.8037  20.8141  20.8141
    20.8191  20.8347  20.8348  20.8450  20.8492  20.8541  20.8541  20.8744
    20.8745  20.8786  20.8786  20.9027  20.9285  20.9599  20.9733  20.9733
    21.0388  21.0389  21.0480  21.1562  21.2351  21.2351  21.2456  21.2776
    21.2776  21.2810  21.2811  21.2856  21.3109  21.3110  21.3263  21.3291
    21.3291  21.3409  21.3409  21.3415  21.3497  21.3749  21.3750  21.4003
    21.4191  21.4191  21.4240  21.4241  21.4455  21.4571  21.4572  21.4837
    21.4837  21.4892  21.5122  21.5148  21.5171  21.5174  21.5174  21.5467
    21.5668  21.5693  21.5693  21.6350  21.6350  21.6625  21.6625  21.6645
    21.7186  21.7186  21.7220  21.7282  21.7283  21.7453  21.7785  21.7785
    21.8175  21.9387  21.9820  21.9820  22.0264  22.0265  22.0548  22.0548
    22.0711  22.1193  22.1329  22.1329  22.2113  22.2113  22.2209  22.2948
    22.3275  22.3276  22.4580  22.4581  22.4634  22.4836  22.4836  22.4951
    22.7561  22.8013  22.8013  22.9700  23.0130  23.0130  23.0330  23.0334
    23.0582  23.0582  23.0588  23.0588  23.0843  23.0843  23.0849  23.0992
    23.1034  23.1034  23.1293  23.2124  23.2415  23.2416  23.2781  23.3320
    23.3320  23.3623  23.3818  23.3819  23.4652  23.4774  23.4774  23.6865
    23.6970  23.6970  23.7127  23.7438  23.7654  23.7655  23.7847  23.7847
    23.8281  23.8282  23.8354  23.8354  23.8378  23.8501  23.8748  23.9815
    23.9815  24.0129  24.0156  24.0359  24.0359  24.1212  24.1212  24.1401
    24.1681  24.1714  24.1760  24.1760  24.1939  24.1939  24.2130  24.2179
    24.2179  24.2843  24.2936  24.2937  24.3296  24.3296  24.3443  24.3702
    24.3702  24.3800  24.3866  24.4058  24.4058  24.4384  24.4476  24.4477
    24.4574  24.4840  24.4840  24.4908  24.4909  24.5121  24.5363  24.5602
    24.5603  24.5766  24.5767  24.6714  24.7617  24.7618  24.7643  25.0937
    25.0937  25.1226  25.1226  25.6206  25.6327  25.6328  25.6486  25.6722
    25.7423  25.7423  25.7505  25.7505  25.9568  25.9856  25.9856  25.9921
    26.0423  26.0423  26.0928  26.1410  26.1623  26.1623  26.2377  26.3357
    26.3357  26.4020  26.5337  26.5337  26.5613  26.5671  26.5804  26.5804
    26.5827  26.6011  26.6011  26.6202  26.6202  26.6350  26.7000  26.7000
    26.7044  26.7282  26.7397  26.7397  26.8030  26.8070  26.8070  26.9442
    26.9442  26.9768  26.9845  26.9845  26.9949  26.9950  27.0027  27.0083
    27.0193  27.0193  27.0244  27.0258  27.0259  27.0947  27.0947  27.1173
    27.1322  27.1628  27.1629  27.2043  27.2043  27.2118  27.2118  27.2155
    27.2256  27.2354  27.2459  27.2459  27.2511  27.2635  27.2712  27.2712
    27.2857  27.3011  27.3012  27.3018  27.3051  27.3051  27.3265  27.3333
    27.3333  27.3524  27.3524  27.3652  27.3843  27.3843  27.3884  27.4267
    27.4268  27.4269  27.4393  27.4529  27.4529  27.4966  27.4966  27.5197
    27.5235  27.5236  27.5292  27.5447  27.5546  27.5546  27.5667  27.5753
    27.5914  27.5914  27.6082  27.6082  27.6137  27.6330  27.6330  27.7025
    27.7025  27.7489  27.7489  27.7827  27.8308  27.8428  27.8810  27.9239
    27.9239  27.9657  27.9657  28.0260  28.1139  28.1139  28.1338  28.1736
    28.1736  28.2769  28.2769  28.2976  28.3796  28.5158  28.5158  28.6409
    28.7641  28.7641  28.9983  29.0638  29.0639  29.0849  29.7643  29.8159
    29.8159  29.9578  29.9887  29.9888  30.0069  30.0354  30.0355  30.0589

     occupation numbers 
     1.0000   1.0000   1.0000   1.0000   1.0000   1.0000   1.0000   1.0000
     1.0000   1.0000   1.0000   1.0000   1.0000   1.0000   1.0000   1.0000
     1.0000   1.0000   1.0000   1.0000   1.0000   1.0000   1.0000   1.0000
     1.0000   1.0000   1.0000   1.0000   1.0000   1.0000   1.0000   1.0000
     1.0000   1.0000   1.0000   1.0000   1.0000   1.0000   1.0000   1.0000
     1.0000   1.0000   1.0000   1.0000   1.0000   1.0000   1.0000   1.0000
     1.0000   1.0000   1.0000   1.0000   1.0000   1.0000   1.0000   1.0000
     1.0000   1.0000   1.0000   1.0000   1.0000   1.0000   1.0000   1.0000
     1.0000   1.0000   1.0000   1.0000   1.0000   1.0000   1.0000   1.0000
     1.0000   1.0000   1.0000   1.0000   1.0000   1.0000   1.0000   1.0000
     1.0000   1.0000   1.0000   1.0000   1.0000   1.0000   1.0000   1.0000
     1.0000   1.0000   1.0000   1.0000   1.0000   1.0000   1.0000   1.0000
     1.0000   1.0000   1.0000   1.0000   1.0000   1.0000   1.0000   1.0000
     1.0000   1.0000   1.0000   1.0000   1.0000   1.0000   1.0000   1.0000
     1.0000   1.0000   1.0000   1.0000   1.0000   1.0000   1.0000   1.0000
     1.0000   1.0000   1.0000   1.0000   1.0000   1.0000   1.0000   1.0000
     1.0000   1.0000   1.0000   1.0000   1.0000   1.0000   1.0000   1.0000
     1.0000   1.0000   1.0000   1.0000   1.0000   1.0000   1.0000   1.0000
     1.0000   1.0000   1.0000   1.0000   1.0000   1.0000   1.0000   1.0000
     1.0000   1.0000   1.0000   1.0000   1.0000   1.0000   1.0000   1.0000
     1.0000   1.0000   1.0000   1.0000   1.0000   1.0000   1.0000   1.0000
     1.0000   1.0000   1.0000   1.0000   1.0000   1.0000   1.0000   1.0000
     1.0000   1.0000   1.0000   1.0000   1.0000   1.0000   1.0000   1.0000
     1.0000   1.0000   1.0000   1.0000   1.0000   1.0000   1.0000   1.0000
     1.0000   1.0000   1.0000   1.0000   1.0000   1.0000   1.0000   1.0000
     1.0000   1.0000   1.0000   1.0000   1.0000   1.0000   1.0000   1.0000
     1.0000   1.0000   1.0000   1.0000   1.0000   1.0000   1.0000   1.0000
     1.0000   1.0000   1.0000   1.0000   1.0000   1.0000   1.0000   1.0000
     1.0000   1.0000   1.0000   1.0000   1.0000   1.0000   1.0000   1.0000
     1.0000   1.0000   1.0000   1.0000   1.0000   1.0000   1.0000   1.0000
     1.0000   1.0000   1.0000   1.0000   1.0000   1.0000   1.0000   1.0000
     1.0000   1.0000   1.0000   1.0000   1.0000   1.0000   1.0000   1.0000
     1.0000   1.0000   1.0000   1.0000   1.0000   1.0000   1.0000   1.0000
     1.0000   1.0000   1.0000   1.0000   1.0000   1.0000   1.0000   1.0000
     1.0000   1.0000   1.0000   1.0000   1.0000   1.0000   1.0000   1.0000
     1.0000   1.0000   1.0000   1.0000   1.0000   1.0000   1.0000   1.0000
     1.0000   1.0000   1.0000   1.0000   1.0000   1.0000   1.0000   1.0000
     1.0000   1.0000   1.0000   1.0000   1.0000   1.0000   1.0000   1.0000
     1.0000   1.0000   1.0000   1.0000   1.0000   1.0000   1.0000   1.0000
     1.0000   1.0000   1.0000   1.0000   1.0000   1.0000   1.0000   1.0000
     1.0000   1.0000   1.0000   1.0000   1.0000   1.0000   1.0000   1.0000
     1.0000   1.0000   1.0000   1.0000   1.0000   1.0000   1.0000   1.0000
     1.0000   1.0000   1.0000   1.0000   1.0000   1.0000   1.0000   1.0000
     1.0000   1.0000   1.0000   1.0000   1.0000   1.0000   1.0000   1.0000
     1.0000   1.0000   1.0000   1.0000   1.0000   1.0000   1.0000   1.0000
     1.0000   1.0000   1.0000   1.0000   1.0000   1.0000   1.0000   1.0000
     1.0000   1.0000   1.0000   1.0000   1.0000   1.0000   1.0000   1.0000
     1.0000   1.0000   1.0000   1.0000   1.0000   1.0000   1.0000   1.0000
     1.0000   1.0000   1.0000   1.0000   1.0000   1.0000   1.0000   1.0000
     1.0000   1.0000   1.0000   1.0000   1.0000   1.0000   1.0000   1.0000
     1.0000   1.0000   1.0000   1.0000   1.0000   1.0000   1.0000   1.0000
     1.0000   1.0000   1.0000   1.0000   1.0000   1.0000   1.0000   1.0000
     1.0000   1.0000   1.0000   1.0000   1.0000   1.0000   1.0000   1.0000
     1.0000   1.0000   1.0000   1.0000   1.0000   1.0000   1.0000   1.0000
     0.0000   0.0000   0.0000   0.0000   0.0000   0.0000   0.0000   0.0000
     0.0000   0.0000   0.0000   0.0000   0.0000   0.0000   0.0000   0.0000
     0.0000   0.0000   0.0000   0.0000   0.0000   0.0000   0.0000   0.0000
     0.0000   0.0000   0.0000   0.0000   0.0000   0.0000   0.0000   0.0000
     0.0000   0.0000   0.0000   0.0000   0.0000   0.0000   0.0000   0.0000
     0.0000   0.0000   0.0000   0.0000   0.0000   0.0000   0.0000   0.0000
     0.0000   0.0000   0.0000   0.0000   0.0000   0.0000   0.0000   0.0000
     0.0000   0.0000   0.0000   0.0000   0.0000   0.0000   0.0000   0.0000
     0.0000   0.0000   0.0000   0.0000   0.0000   0.0000   0.0000   0.0000
     0.0000   0.0000   0.0000   0.0000   0.0000   0.0000   0.0000   0.0000
     0.0000   0.0000   0.0000   0.0000   0.0000   0.0000   0.0000   0.0000
     0.0000   0.0000   0.0000   0.0000   0.0000   0.0000   0.0000   0.0000
     0.0000   0.0000   0.0000   0.0000   0.0000   0.0000   0.0000   0.0000
     0.0000   0.0000   0.0000   0.0000   0.0000   0.0000   0.0000   0.0000
     0.0000   0.0000   0.0000   0.0000   0.0000   0.0000   0.0000   0.0000
     0.0000   0.0000   0.0000   0.0000   0.0000   0.0000   0.0000   0.0000
     0.0000   0.0000   0.0000   0.0000   0.0000   0.0000   0.0000   0.0000
     0.0000   0.0000   0.0000   0.0000   0.0000   0.0000   0.0000   0.0000
     0.0000   0.0000   0.0000   0.0000   0.0000   0.0000   0.0000   0.0000
     0.0000   0.0000   0.0000   0.0000   0.0000   0.0000   0.0000   0.0000
     0.0000   0.0000   0.0000   0.0000   0.0000   0.0000   0.0000   0.0000
     0.0000   0.0000   0.0000   0.0000   0.0000   0.0000   0.0000   0.0000
     0.0000   0.0000   0.0000   0.0000   0.0000   0.0000   0.0000   0.0000
     0.0000   0.0000   0.0000   0.0000   0.0000   0.0000   0.0000   0.0000
     0.0000   0.0000   0.0000   0.0000   0.0000   0.0000   0.0000   0.0000
     0.0000   0.0000   0.0000   0.0000   0.0000   0.0000   0.0000   0.0000
     0.0000   0.0000   0.0000   0.0000   0.0000   0.0000   0.0000   0.0000
     0.0000   0.0000   0.0000   0.0000   0.0000   0.0000   0.0000   0.0000
     0.0000   0.0000   0.0000   0.0000   0.0000   0.0000   0.0000   0.0000
     0.0000   0.0000   0.0000   0.0000   0.0000   0.0000   0.0000   0.0000
     0.0000   0.0000   0.0000   0.0000   0.0000   0.0000   0.0000   0.0000
     0.0000   0.0000   0.0000   0.0000   0.0000   0.0000   0.0000   0.0000
     0.0000   0.0000   0.0000   0.0000   0.0000   0.0000   0.0000   0.0000
     0.0000   0.0000   0.0000   0.0000   0.0000   0.0000   0.0000   0.0000
     0.0000   0.0000   0.0000   0.0000   0.0000   0.0000   0.0000   0.0000
     0.0000   0.0000   0.0000   0.0000   0.0000   0.0000   0.0000   0.0000
     0.0000   0.0000   0.0000   0.0000   0.0000   0.0000   0.0000   0.0000
     0.0000   0.0000   0.0000   0.0000   0.0000   0.0000   0.0000   0.0000
     0.0000   0.0000   0.0000   0.0000   0.0000   0.0000   0.0000   0.0000
     0.0000   0.0000   0.0000   0.0000   0.0000   0.0000   0.0000   0.0000
     0.0000   0.0000   0.0000   0.0000   0.0000   0.0000   0.0000   0.0000
     0.0000   0.0000   0.0000   0.0000   0.0000   0.0000   0.0000   0.0000
     0.0000   0.0000   0.0000   0.0000   0.0000   0.0000   0.0000   0.0000
     0.0000   0.0000   0.0000   0.0000   0.0000   0.0000   0.0000   0.0000
     0.0000   0.0000   0.0000   0.0000   0.0000   0.0000   0.0000   0.0000
     0.0000   0.0000   0.0000   0.0000   0.0000   0.0000   0.0000   0.0000
     0.0000   0.0000   0.0000   0.0000   0.0000   0.0000   0.0000   0.0000
     0.0000   0.0000   0.0000   0.0000   0.0000   0.0000   0.0000   0.0000
     0.0000   0.0000   0.0000   0.0000   0.0000   0.0000   0.0000   0.0000
     0.0000   0.0000   0.0000   0.0000   0.0000   0.0000   0.0000   0.0000
     0.0000   0.0000   0.0000   0.0000   0.0000   0.0000   0.0000   0.0000
     0.0000   0.0000   0.0000   0.0000   0.0000   0.0000   0.0000   0.0000
     0.0000   0.0000   0.0000   0.0000   0.0000   0.0000   0.0000   0.0000
     0.0000   0.0000   0.0000   0.0000   0.0000   0.0000   0.0000   0.0000

 ------ SPIN DOWN ----------


          k = 0.0000 0.0000 0.0000 ( 42379 PWs)   bands (ev):

    -8.3804  -7.5109  -7.3792  -7.3792  -7.3084  -7.3084  -7.2040  -6.6796
    -6.3725  -6.3725  -6.3486  -6.3486  -6.3340  -6.2872  -6.2843  -6.2843
    -6.1740  -6.1740  -6.0099  -5.5897  -5.2972  -5.2690  -5.2690  -5.2136
    -5.2057  -5.2057  -4.9799  -4.4616  -4.3409  -4.3409  -4.3201  -4.3201
    -4.2777  -3.8851  -3.4738  -3.4669  -3.4669  -3.4545  -3.4545  -3.4416
    -3.4254  -3.4242  -3.4242  -3.4070  -3.4070  -3.4023  -3.3850  -3.3850
    -3.3297  -3.3270  -3.3269  -3.3079  -3.3055  -3.3055  -3.2127  -3.2127
    -3.0989  -2.9067  -2.7046  -2.7046  -2.6695  -2.6609  -2.6609  -2.6309
    -2.6300  -2.6207  -2.6207  -2.5608  -2.5608  -2.5199  -2.5045  -2.5045
    -2.4929  -2.4929  -2.4270  -2.3787  -2.3787  -2.2567  -2.0880  -2.0880
    -1.5283  -1.1015  -0.9517  -0.9517  -0.8956  -0.8942  -0.8942  -0.8603
    -0.8603  -0.8546  -0.7610  -0.7610  -0.3247   0.2908   0.3040   0.3040
     0.3176   0.3176   0.3387   0.6837   0.7651   0.7703   0.7703   0.7990
     0.7990   0.8088   0.8183   0.8350   0.8350   0.8540   0.8540   0.8988
     0.8988   0.9327   0.9930   0.9930   1.0024   1.0106   1.0304   1.0304
     1.0326   1.0441   1.0441   1.0474   1.0549   1.0593   1.0593   1.0696
     1.0696   1.0892   1.1371   1.1446   1.1446   1.1901   1.1901   1.1969
     1.1969   1.2091   1.2091   1.2243   1.2724   1.2724   1.3509   1.5207
     1.6324   1.6324   1.9075   2.1814   2.1814   2.1981   2.2217   2.2217
     2.2258   2.2609   2.2890   2.2891   2.5338   2.5338   3.4671   3.6781
     3.6781   3.7018   3.7308   3.7402   3.7402   3.7556   3.7556   3.7649
     3.7656   3.7796   3.7976   3.7976   3.8020   3.8229   3.8229   3.9369
     3.9369   3.9402   4.0007   4.3176   4.3176   4.3687   4.3717   4.3948
     4.3949   4.3963   4.4113   4.4113   4.4267   4.4267   4.4354   4.4560
     4.4560   4.4875   4.4957   4.4957   4.5054   4.5373   4.5374   4.5374
     4.8246   4.8246   5.1776   5.1776   5.1780   5.2035   5.2099   5.2099
     5.2246   5.2295   5.2295   5.2375   5.2556   5.2556   5.3120   5.3120
     5.3969   5.3969   5.4058   5.4202   5.4235   5.4598   5.4598   5.4773
     5.4945   5.4945   5.6281   5.6853   5.6853   5.7854   5.7854   5.8040
     5.8076   5.8169   5.8169   5.8612   5.8719   5.8748   5.8748   5.8794
     5.8837   5.8837   5.8905   5.9254   5.9350   5.9350   5.9550   5.9677
     5.9677   6.0000   6.0000   6.0523   6.0523   6.3750   6.3971   6.3971
     6.8337   6.8338   6.8916   6.9102   6.9480   6.9480   7.1417   7.3422
     7.3422   7.4135   7.4135   7.4183   7.4311   7.4440   7.4440   7.5210
     7.5519   7.5520   7.6810   7.6810   7.8129   7.8267   7.8333   7.8333
     7.8640   7.8640   7.8775   7.8928   7.9180   7.9180   7.9286   7.9626
     7.9798   7.9798   7.9995   7.9995   8.0030   8.0195   8.0195   8.0205
     8.0322   8.0500   8.0501   8.0553   8.0553   8.1084   8.1094   8.1095
     8.1305   8.1305   8.1366   8.1745   8.1785   8.1785   8.2027   8.2220
     8.2221   8.2339   8.2433   8.2433   8.2470   8.2506   8.2506   8.2671
     8.2671   8.2671   8.2929   8.3162   8.3162   8.3264   8.3338   8.3338
     8.3373   8.3373   8.3499   8.3518   8.3743   8.3743   8.3841   8.3841
     8.3866   8.4145   8.4145   8.4147   8.4709   8.4709   8.5065   8.5065
     8.5117   8.5371   8.5596   8.5597   8.5881   8.6007   8.6007   8.6078
     8.6207   8.7662   8.7663   8.8751   8.8751   8.8986   9.0370   9.0370
     9.0806   9.0921   9.1111   9.1111   9.1936   9.2009   9.2009   9.2186
     9.2612   9.2613   9.2946   9.2946   9.3081   9.3414   9.3414   9.4034
     9.5179   9.5179   9.5475  10.1166  10.2711  10.2712  10.4874  10.4875
    10.5291  10.5301  10.5301  10.5656  10.6031  10.6031  10.6280  10.6321
    10.6322  10.6427  10.6745  10.7307  10.7308  10.7902  10.7902  10.7947
    10.8206  10.8207  10.8404  10.8641  10.8642  10.8781  10.8781  10.9147
    10.9148  10.9231  10.9745  10.9946  10.9947  11.4961  11.4962  11.5338
    11.6989  11.7413  11.7414  11.7754  11.8260  11.8260  11.9058  12.0206
    12.0206  12.5208  13.0413  13.0414  13.1136  15.0307  16.7226  16.7226
    17.2156  17.2156  17.2488  17.2830  17.2831  17.2908  17.8343  17.8994
    17.8994  17.9122  17.9122  17.9937  18.0432  18.0432  18.1112  18.1548
    18.1549  18.2079  18.8477  18.8479  18.8558  19.3508  19.3971  19.3971
    19.4062  19.4305  19.4305  19.4441  19.4441  19.4610  19.4673  19.4673
    19.4870  19.9568  20.1013  20.1013  20.1180  20.1220  20.1220  20.1377
    20.1454  20.1454  20.1597  20.1598  20.1960  20.1960  20.2086  20.2283
    20.2537  20.2537  20.2594  20.2773  20.2773  20.2877  20.3195  20.3318
    20.3318  20.5704  20.5863  20.5863  20.5925  20.5952  20.5953  20.6016
    20.6200  20.6276  20.6277  20.6440  20.6566  20.6567  20.7086  20.7086
    20.7462  20.7462  20.7537  20.7911  20.7911  20.8037  20.8141  20.8141
    20.8191  20.8347  20.8348  20.8450  20.8492  20.8541  20.8541  20.8744
    20.8745  20.8786  20.8786  20.9027  20.9285  20.9599  20.9733  20.9733
    21.0388  21.0389  21.0480  21.1562  21.2351  21.2351  21.2456  21.2776
    21.2776  21.2810  21.2811  21.2856  21.3109  21.3110  21.3263  21.3291
    21.3291  21.3409  21.3409  21.3415  21.3497  21.3749  21.3750  21.4003
    21.4191  21.4191  21.4240  21.4241  21.4455  21.4571  21.4572  21.4837
    21.4837  21.4892  21.5122  21.5148  21.5171  21.5174  21.5174  21.5467
    21.5668  21.5693  21.5693  21.6350  21.6350  21.6625  21.6625  21.6645
    21.7186  21.7186  21.7220  21.7282  21.7283  21.7453  21.7785  21.7785
    21.8175  21.9387  21.9820  21.9820  22.0264  22.0265  22.0548  22.0548
    22.0711  22.1193  22.1329  22.1329  22.2113  22.2113  22.2209  22.2948
    22.3275  22.3276  22.4580  22.4581  22.4634  22.4836  22.4836  22.4951
    22.7561  22.8013  22.8013  22.9700  23.0130  23.0130  23.0330  23.0334
    23.0582  23.0582  23.0588  23.0588  23.0843  23.0843  23.0849  23.0992
    23.1034  23.1034  23.1293  23.2124  23.2415  23.2416  23.2781  23.3320
    23.3320  23.3623  23.3818  23.3819  23.4652  23.4774  23.4774  23.6865
    23.6970  23.6970  23.7127  23.7438  23.7654  23.7655  23.7847  23.7847
    23.8281  23.8282  23.8354  23.8354  23.8378  23.8501  23.8748  23.9815
    23.9815  24.0129  24.0156  24.0359  24.0359  24.1212  24.1212  24.1401
    24.1681  24.1714  24.1760  24.1760  24.1939  24.1939  24.2131  24.2179
    24.2179  24.2843  24.2936  24.2937  24.3296  24.3296  24.3443  24.3702
    24.3702  24.3800  24.3866  24.4058  24.4058  24.4384  24.4476  24.4477
    24.4574  24.4840  24.4840  24.4908  24.4909  24.5121  24.5363  24.5602
    24.5603  24.5766  24.5767  24.6714  24.7617  24.7618  24.7643  25.0937
    25.0937  25.1226  25.1226  25.6206  25.6327  25.6328  25.6486  25.6722
    25.7423  25.7423  25.7505  25.7505  25.9568  25.9856  25.9856  25.9921
    26.0423  26.0423  26.0928  26.1410  26.1623  26.1623  26.2377  26.3357
    26.3357  26.4020  26.5337  26.5337  26.5613  26.5671  26.5804  26.5804
    26.5827  26.6011  26.6011  26.6202  26.6202  26.6350  26.7000  26.7000
    26.7044  26.7282  26.7397  26.7397  26.8030  26.8070  26.8070  26.9442
    26.9442  26.9768  26.9845  26.9845  26.9949  26.9950  27.0027  27.0083
    27.0193  27.0193  27.0244  27.0258  27.0259  27.0947  27.0947  27.1173
    27.1322  27.1628  27.1629  27.2043  27.2043  27.2118  27.2118  27.2155
    27.2256  27.2354  27.2459  27.2459  27.2511  27.2635  27.2712  27.2712
    27.2857  27.3011  27.3012  27.3018  27.3051  27.3051  27.3265  27.3333
    27.3333  27.3524  27.3524  27.3652  27.3843  27.3843  27.3884  27.4267
    27.4268  27.4269  27.4393  27.4529  27.4529  27.4966  27.4966  27.5197
    27.5235  27.5236  27.5292  27.5447  27.5546  27.5546  27.5667  27.5753
    27.5914  27.5914  27.6082  27.6082  27.6137  27.6330  27.6330  27.7025
    27.7025  27.7489  27.7489  27.7827  27.8308  27.8428  27.8810  27.9239
    27.9239  27.9657  27.9657  28.0260  28.1139  28.1139  28.1338  28.1736
    28.1736  28.2769  28.2769  28.2976  28.3796  28.5158  28.5158  28.6409
    28.7641  28.7641  28.9983  29.0638  29.0639  29.0849  29.7643  29.8158
    29.8159  29.9578  29.9887  29.9887  30.0067  30.0354  30.0354  30.0596

     occupation numbers 
     1.0000   1.0000   1.0000   1.0000   1.0000   1.0000   1.0000   1.0000
     1.0000   1.0000   1.0000   1.0000   1.0000   1.0000   1.0000   1.0000
     1.0000   1.0000   1.0000   1.0000   1.0000   1.0000   1.0000   1.0000
     1.0000   1.0000   1.0000   1.0000   1.0000   1.0000   1.0000   1.0000
     1.0000   1.0000   1.0000   1.0000   1.0000   1.0000   1.0000   1.0000
     1.0000   1.0000   1.0000   1.0000   1.0000   1.0000   1.0000   1.0000
     1.0000   1.0000   1.0000   1.0000   1.0000   1.0000   1.0000   1.0000
     1.0000   1.0000   1.0000   1.0000   1.0000   1.0000   1.0000   1.0000
     1.0000   1.0000   1.0000   1.0000   1.0000   1.0000   1.0000   1.0000
     1.0000   1.0000   1.0000   1.0000   1.0000   1.0000   1.0000   1.0000
     1.0000   1.0000   1.0000   1.0000   1.0000   1.0000   1.0000   1.0000
     1.0000   1.0000   1.0000   1.0000   1.0000   1.0000   1.0000   1.0000
     1.0000   1.0000   1.0000   1.0000   1.0000   1.0000   1.0000   1.0000
     1.0000   1.0000   1.0000   1.0000   1.0000   1.0000   1.0000   1.0000
     1.0000   1.0000   1.0000   1.0000   1.0000   1.0000   1.0000   1.0000
     1.0000   1.0000   1.0000   1.0000   1.0000   1.0000   1.0000   1.0000
     1.0000   1.0000   1.0000   1.0000   1.0000   1.0000   1.0000   1.0000
     1.0000   1.0000   1.0000   1.0000   1.0000   1.0000   1.0000   1.0000
     1.0000   1.0000   1.0000   1.0000   1.0000   1.0000   1.0000   1.0000
     1.0000   1.0000   1.0000   1.0000   1.0000   1.0000   1.0000   1.0000
     1.0000   1.0000   1.0000   1.0000   1.0000   1.0000   1.0000   1.0000
     1.0000   1.0000   1.0000   1.0000   1.0000   1.0000   1.0000   1.0000
     1.0000   1.0000   1.0000   1.0000   1.0000   1.0000   1.0000   1.0000
     1.0000   1.0000   1.0000   1.0000   1.0000   1.0000   1.0000   1.0000
     1.0000   1.0000   1.0000   1.0000   1.0000   1.0000   1.0000   1.0000
     1.0000   1.0000   1.0000   1.0000   1.0000   1.0000   1.0000   1.0000
     1.0000   1.0000   1.0000   1.0000   1.0000   1.0000   1.0000   1.0000
     1.0000   1.0000   1.0000   1.0000   1.0000   1.0000   1.0000   1.0000
     1.0000   1.0000   1.0000   1.0000   1.0000   1.0000   1.0000   1.0000
     1.0000   1.0000   1.0000   1.0000   1.0000   1.0000   1.0000   1.0000
     1.0000   1.0000   1.0000   1.0000   1.0000   1.0000   1.0000   1.0000
     1.0000   1.0000   1.0000   1.0000   1.0000   1.0000   1.0000   1.0000
     1.0000   1.0000   1.0000   1.0000   1.0000   1.0000   1.0000   1.0000
     1.0000   1.0000   1.0000   1.0000   1.0000   1.0000   1.0000   1.0000
     1.0000   1.0000   1.0000   1.0000   1.0000   1.0000   1.0000   1.0000
     1.0000   1.0000   1.0000   1.0000   1.0000   1.0000   1.0000   1.0000
     1.0000   1.0000   1.0000   1.0000   1.0000   1.0000   1.0000   1.0000
     1.0000   1.0000   1.0000   1.0000   1.0000   1.0000   1.0000   1.0000
     1.0000   1.0000   1.0000   1.0000   1.0000   1.0000   1.0000   1.0000
     1.0000   1.0000   1.0000   1.0000   1.0000   1.0000   1.0000   1.0000
     1.0000   1.0000   1.0000   1.0000   1.0000   1.0000   1.0000   1.0000
     1.0000   1.0000   1.0000   1.0000   1.0000   1.0000   1.0000   1.0000
     1.0000   1.0000   1.0000   1.0000   1.0000   1.0000   1.0000   1.0000
     1.0000   1.0000   1.0000   1.0000   1.0000   1.0000   1.0000   1.0000
     1.0000   1.0000   1.0000   1.0000   1.0000   1.0000   1.0000   1.0000
     1.0000   1.0000   1.0000   1.0000   1.0000   1.0000   1.0000   1.0000
     1.0000   1.0000   1.0000   1.0000   1.0000   1.0000   1.0000   1.0000
     1.0000   1.0000   1.0000   1.0000   1.0000   1.0000   1.0000   1.0000
     1.0000   1.0000   1.0000   1.0000   1.0000   1.0000   1.0000   1.0000
     1.0000   1.0000   1.0000   1.0000   1.0000   1.0000   1.0000   1.0000
     1.0000   1.0000   1.0000   1.0000   1.0000   1.0000   1.0000   1.0000
     1.0000   1.0000   1.0000   1.0000   1.0000   1.0000   1.0000   1.0000
     1.0000   1.0000   1.0000   1.0000   1.0000   1.0000   1.0000   1.0000
     1.0000   1.0000   1.0000   1.0000   1.0000   1.0000   1.0000   1.0000
     0.0000   0.0000   0.0000   0.0000   0.0000   0.0000   0.0000   0.0000
     0.0000   0.0000   0.0000   0.0000   0.0000   0.0000   0.0000   0.0000
     0.0000   0.0000   0.0000   0.0000   0.0000   0.0000   0.0000   0.0000
     0.0000   0.0000   0.0000   0.0000   0.0000   0.0000   0.0000   0.0000
     0.0000   0.0000   0.0000   0.0000   0.0000   0.0000   0.0000   0.0000
     0.0000   0.0000   0.0000   0.0000   0.0000   0.0000   0.0000   0.0000
     0.0000   0.0000   0.0000   0.0000   0.0000   0.0000   0.0000   0.0000
     0.0000   0.0000   0.0000   0.0000   0.0000   0.0000   0.0000   0.0000
     0.0000   0.0000   0.0000   0.0000   0.0000   0.0000   0.0000   0.0000
     0.0000   0.0000   0.0000   0.0000   0.0000   0.0000   0.0000   0.0000
     0.0000   0.0000   0.0000   0.0000   0.0000   0.0000   0.0000   0.0000
     0.0000   0.0000   0.0000   0.0000   0.0000   0.0000   0.0000   0.0000
     0.0000   0.0000   0.0000   0.0000   0.0000   0.0000   0.0000   0.0000
     0.0000   0.0000   0.0000   0.0000   0.0000   0.0000   0.0000   0.0000
     0.0000   0.0000   0.0000   0.0000   0.0000   0.0000   0.0000   0.0000
     0.0000   0.0000   0.0000   0.0000   0.0000   0.0000   0.0000   0.0000
     0.0000   0.0000   0.0000   0.0000   0.0000   0.0000   0.0000   0.0000
     0.0000   0.0000   0.0000   0.0000   0.0000   0.0000   0.0000   0.0000
     0.0000   0.0000   0.0000   0.0000   0.0000   0.0000   0.0000   0.0000
     0.0000   0.0000   0.0000   0.0000   0.0000   0.0000   0.0000   0.0000
     0.0000   0.0000   0.0000   0.0000   0.0000   0.0000   0.0000   0.0000
     0.0000   0.0000   0.0000   0.0000   0.0000   0.0000   0.0000   0.0000
     0.0000   0.0000   0.0000   0.0000   0.0000   0.0000   0.0000   0.0000
     0.0000   0.0000   0.0000   0.0000   0.0000   0.0000   0.0000   0.0000
     0.0000   0.0000   0.0000   0.0000   0.0000   0.0000   0.0000   0.0000
     0.0000   0.0000   0.0000   0.0000   0.0000   0.0000   0.0000   0.0000
     0.0000   0.0000   0.0000   0.0000   0.0000   0.0000   0.0000   0.0000
     0.0000   0.0000   0.0000   0.0000   0.0000   0.0000   0.0000   0.0000
     0.0000   0.0000   0.0000   0.0000   0.0000   0.0000   0.0000   0.0000
     0.0000   0.0000   0.0000   0.0000   0.0000   0.0000   0.0000   0.0000
     0.0000   0.0000   0.0000   0.0000   0.0000   0.0000   0.0000   0.0000
     0.0000   0.0000   0.0000   0.0000   0.0000   0.0000   0.0000   0.0000
     0.0000   0.0000   0.0000   0.0000   0.0000   0.0000   0.0000   0.0000
     0.0000   0.0000   0.0000   0.0000   0.0000   0.0000   0.0000   0.0000
     0.0000   0.0000   0.0000   0.0000   0.0000   0.0000   0.0000   0.0000
     0.0000   0.0000   0.0000   0.0000   0.0000   0.0000   0.0000   0.0000
     0.0000   0.0000   0.0000   0.0000   0.0000   0.0000   0.0000   0.0000
     0.0000   0.0000   0.0000   0.0000   0.0000   0.0000   0.0000   0.0000
     0.0000   0.0000   0.0000   0.0000   0.0000   0.0000   0.0000   0.0000
     0.0000   0.0000   0.0000   0.0000   0.0000   0.0000   0.0000   0.0000
     0.0000   0.0000   0.0000   0.0000   0.0000   0.0000   0.0000   0.0000
     0.0000   0.0000   0.0000   0.0000   0.0000   0.0000   0.0000   0.0000
     0.0000   0.0000   0.0000   0.0000   0.0000   0.0000   0.0000   0.0000
     0.0000   0.0000   0.0000   0.0000   0.0000   0.0000   0.0000   0.0000
     0.0000   0.0000   0.0000   0.0000   0.0000   0.0000   0.0000   0.0000
     0.0000   0.0000   0.0000   0.0000   0.0000   0.0000   0.0000   0.0000
     0.0000   0.0000   0.0000   0.0000   0.0000   0.0000   0.0000   0.0000
     0.0000   0.0000   0.0000   0.0000   0.0000   0.0000   0.0000   0.0000
     0.0000   0.0000   0.0000   0.0000   0.0000   0.0000   0.0000   0.0000
     0.0000   0.0000   0.0000   0.0000   0.0000   0.0000   0.0000   0.0000
     0.0000   0.0000   0.0000   0.0000   0.0000   0.0000   0.0000   0.0000
     0.0000   0.0000   0.0000   0.0000   0.0000   0.0000   0.0000   0.0000
     0.0000   0.0000   0.0000   0.0000   0.0000   0.0000   0.0000   0.0000
     0.0000   0.0000   0.0000   0.0000   0.0000   0.0000   0.0000   0.0000

     highest occupied, lowest unoccupied level (ev):    16.72265060   17.21561353

!    total energy              =   -3968.92296976 Ry
     total all-electron energy =    -16411.738573 Ry
     estimated scf accuracy    <          5.2E-09 Ry

     The total energy is the sum of the following terms:
     one-electron contribution =     889.78895888 Ry
     hartree contribution      =     218.33324512 Ry
     xc contribution           =   -1011.19555646 Ry
     ewald contribution        =   -2739.03764193 Ry
     one-center paw contrib.   =   -1326.81197538 Ry
      -> PAW hartree energy AE =      71.89820891 Ry
      -> PAW hartree energy PS =     -71.83275781 Ry
      -> PAW xc energy AE      =     -84.36881035 Ry
      -> PAW xc energy PS      =      35.00099140 Ry
      -> total E_H with PAW    =     218.39869622 Ry
      -> total E_XC with PAW   =   -1060.56337541 Ry

     total magnetization       =    -0.00 Bohr mag/cell
     absolute magnetization    =     0.00 Bohr mag/cell

     convergence has been achieved in  15 iterations

     Forces acting on atoms (cartesian axes, Ry/au):

     atom    1 type  1   force =     0.00000024    0.00004636   -0.00001153
     atom    2 type  1   force =     0.00004622    0.00000168   -0.00007475
     atom    3 type  1   force =     0.00005760    0.00004685   -0.00007121
     atom    4 type  1   force =     0.00007353    0.00000836   -0.00004745
     atom    5 type  1   force =    -0.00014039    0.00009941    0.00011627
     atom    6 type  1   force =    -0.00005707    0.00004076   -0.00002155
     atom    7 type  1   force =     0.00005977    0.00004741   -0.00006905
     atom    8 type  1   force =     0.00000972    0.00005692    0.00004523
     atom    9 type  1   force =    -0.00003964    0.00001979    0.00003482
     atom   10 type  1   force =     0.00002916   -0.00008567   -0.00000849
     atom   11 type  1   force =     0.00008306   -0.00015117    0.00007980
     atom   12 type  1   force =    -0.00007073    0.00012599   -0.00012255
     atom   13 type  1   force =    -0.00003954   -0.00018092   -0.00004279
     atom   14 type  1   force =    -0.00012592    0.00001864    0.00012148
     atom   15 type  1   force =     0.00010587    0.00003813    0.00009997
     atom   16 type  1   force =     0.00008732    0.00016433    0.00003545
     atom   17 type  1   force =    -0.00010301   -0.00001257   -0.00010871
     atom   18 type  1   force =     0.00008483    0.00006158   -0.00009985
     atom   19 type  1   force =     0.00001958   -0.00007079   -0.00000239
     atom   20 type  1   force =    -0.00009456   -0.00015211    0.00003426
     atom   21 type  1   force =    -0.00001887   -0.00001721   -0.00001251
     atom   22 type  1   force =    -0.00000013   -0.00012918    0.00012870
     atom   23 type  1   force =    -0.00001455   -0.00027459    0.00008116
     atom   24 type  1   force =     0.00012675   -0.00003600   -0.00008151
     atom   25 type  1   force =     0.00001569   -0.00000880    0.00002207
     atom   26 type  1   force =     0.00009129   -0.00004458   -0.00011696
     atom   27 type  1   force =     0.00008944    0.00006946   -0.00010631
     atom   28 type  1   force =     0.00001711   -0.00005297   -0.00002810
     atom   29 type  1   force =     0.00002618    0.00009218    0.00007723
     atom   30 type  1   force =     0.00005953    0.00011392   -0.00003052
     atom   31 type  1   force =     0.00013478    0.00003344   -0.00014064
     atom   32 type  1   force =    -0.00012188    0.00004002   -0.00002968
     atom   33 type  1   force =     0.00006485    0.00010397   -0.00000971
     atom   34 type  1   force =     0.00004025    0.00006913   -0.00003313
     atom   35 type  1   force =     0.00004051   -0.00004459   -0.00008188
     atom   36 type  1   force =    -0.00002228   -0.00005516   -0.00006627
     atom   37 type  1   force =     0.00001361   -0.00019120    0.00005539
     atom   38 type  1   force =    -0.00005050   -0.00019735    0.00018488
     atom   39 type  1   force =     0.00009054    0.00006081    0.00006562
     atom   40 type  1   force =    -0.00008987   -0.00003992    0.00014583
     atom   41 type  1   force =    -0.00004720   -0.00015817   -0.00012737
     atom   42 type  1   force =     0.00013511   -0.00005854   -0.00005668
     atom   43 type  1   force =     0.00005814    0.00003227   -0.00000791
     atom   44 type  1   force =    -0.00006292   -0.00012890   -0.00018893
     atom   45 type  1   force =    -0.00004698   -0.00000446   -0.00007669
     atom   46 type  1   force =     0.00001759   -0.00004579    0.00002482
     atom   47 type  1   force =    -0.00008960   -0.00013973    0.00004889
     atom   48 type  1   force =    -0.00000751   -0.00003152   -0.00004472
     atom   49 type  1   force =     0.00003388   -0.00003634    0.00004347
     atom   50 type  1   force =     0.00009430   -0.00011479    0.00010973
     atom   51 type  1   force =    -0.00005133    0.00012678   -0.00014396
     atom   52 type  1   force =     0.00002652   -0.00000039   -0.00008471
     atom   53 type  1   force =     0.00003679    0.00005551   -0.00001748
     atom   54 type  1   force =     0.00006289    0.00006212   -0.00005662
     atom   55 type  1   force =     0.00004021   -0.00004734   -0.00000493
     atom   56 type  1   force =     0.00013260    0.00003282   -0.00014281
     atom   57 type  1   force =     0.00001707    0.00006349   -0.00005637
     atom   58 type  1   force =    -0.00009598    0.00006258   -0.00004493
     atom   59 type  1   force =     0.00001589    0.00007364    0.00010821
     atom   60 type  1   force =     0.00009118   -0.00003228   -0.00003121
     atom   61 type  1   force =     0.00000446    0.00010055   -0.00008557
     atom   62 type  1   force =    -0.00001304    0.00008511   -0.00008784
     atom   63 type  1   force =     0.00007672   -0.00003114    0.00003274
     atom   64 type  1   force =    -0.00000838   -0.00019652    0.00003342
     atom   65 type  1   force =    -0.00013481   -0.00005084    0.00010089
     atom   66 type  1   force =     0.00000171    0.00001859   -0.00006435
     atom   67 type  1   force =    -0.00013452   -0.00021769    0.00010082
     atom   68 type  1   force =     0.00015970   -0.00010797    0.00007955
     atom   69 type  1   force =     0.00021210   -0.00006218    0.00008610
     atom   70 type  1   force =    -0.00007545    0.00002055   -0.00010041
     atom   71 type  1   force =     0.00007277   -0.00007374   -0.00011900
     atom   72 type  1   force =     0.00007415    0.00002493    0.00004450
     atom   73 type  1   force =    -0.00001284   -0.00005317   -0.00000559
     atom   74 type  1   force =    -0.00003268   -0.00005258   -0.00002309
     atom   75 type  1   force =     0.00008314    0.00001334   -0.00002812
     atom   76 type  1   force =    -0.00001716   -0.00012209    0.00012136
     atom   77 type  1   force =    -0.00007681   -0.00015632   -0.00006143
     atom   78 type  1   force =     0.00000495    0.00004782   -0.00004935
     atom   79 type  1   force =     0.00005063   -0.00001743    0.00001347
     atom   80 type  1   force =     0.00010851    0.00016552    0.00001586
     atom   81 type  1   force =     0.00004219    0.00005710   -0.00007737
     atom   82 type  1   force =     0.00009848   -0.00018147   -0.00005445
     atom   83 type  1   force =    -0.00009038    0.00016967    0.00000251
     atom   84 type  1   force =    -0.00000537   -0.00000705   -0.00025997
     atom   85 type  1   force =    -0.00004501    0.00018067    0.00004786
     atom   86 type  1   force =     0.00004189    0.00009179   -0.00006409
     atom   87 type  1   force =    -0.00000701   -0.00008082    0.00002903
     atom   88 type  1   force =     0.00025406    0.00005589   -0.00000059
     atom   89 type  1   force =    -0.00000932   -0.00008136    0.00002669
     atom   90 type  1   force =     0.00012859    0.00027148   -0.00019446
     atom   91 type  1   force =    -0.00012624    0.00000566    0.00012486
     atom   92 type  1   force =    -0.00002894   -0.00010512    0.00000013
     atom   93 type  1   force =     0.00021538    0.00002578   -0.00002114
     atom   94 type  1   force =     0.00002385   -0.00009224    0.00005284
     atom   95 type  1   force =     0.00005751    0.00009118   -0.00005880
     atom   96 type  1   force =     0.00002061   -0.00002149   -0.00021589
     atom   97 type  1   force =     0.00003735    0.00008621   -0.00007903
     atom   98 type  1   force =    -0.00001689   -0.00007857    0.00003596
     atom   99 type  1   force =    -0.00012905   -0.00040345    0.00022689
     atom  100 type  1   force =     0.00014738   -0.00011305    0.00008378
     atom  101 type  1   force =    -0.00015994   -0.00006304   -0.00003019
     atom  102 type  1   force =    -0.00005054   -0.00016107   -0.00011413
     atom  103 type  1   force =    -0.00004289   -0.00005293    0.00005575
     atom  104 type  1   force =     0.00020814    0.00006572    0.00001906
     atom  105 type  1   force =     0.00003961   -0.00001464    0.00016933
     atom  106 type  1   force =    -0.00002805    0.00000839   -0.00021714
     atom  107 type  1   force =    -0.00007808    0.00020196    0.00002900
     atom  108 type  1   force =    -0.00001838   -0.00002659    0.00002485
     atom  109 type  1   force =     0.00006972    0.00014511   -0.00000558
     atom  110 type  1   force =     0.00006218    0.00019610   -0.00007734
     atom  111 type  1   force =    -0.00002683    0.00012174   -0.00010211
     atom  112 type  1   force =    -0.00016291    0.00017672    0.00011998
     atom  113 type  1   force =    -0.00001409   -0.00001631    0.00010408
     atom  114 type  1   force =     0.00003069    0.00018844   -0.00010886
     atom  115 type  1   force =    -0.00009764   -0.00003664    0.00002053
     atom  116 type  1   force =     0.00009261    0.00028401   -0.00016151
     atom  117 type  1   force =    -0.00007664    0.00000880    0.00007448
     atom  118 type  1   force =    -0.00007704   -0.00019172    0.00022814
     atom  119 type  1   force =     0.00003085    0.00016614    0.00000032
     atom  120 type  1   force =    -0.00017869   -0.00021633    0.00012655
     atom  121 type  1   force =     0.00023942   -0.00000809    0.00008435
     atom  122 type  1   force =    -0.00003866    0.00014932   -0.00006913
     atom  123 type  1   force =    -0.00007317   -0.00008393   -0.00022821
     atom  124 type  1   force =     0.00001625   -0.00009234    0.00000617
     atom  125 type  1   force =    -0.00008362   -0.00012832    0.00011476
     atom  126 type  1   force =     0.00001681   -0.00004042    0.00007775
     atom  127 type  1   force =    -0.00005930   -0.00001094    0.00004055
     atom  128 type  1   force =    -0.00006549   -0.00006034   -0.00000458
     atom  129 type  1   force =    -0.00005903   -0.00027300    0.00012530
     atom  130 type  1   force =     0.00005781    0.00007795   -0.00009724
     atom  131 type  1   force =    -0.00003851   -0.00000591    0.00006134
     atom  132 type  1   force =     0.00007776    0.00008274   -0.00007731
     atom  133 type  1   force =     0.00005616    0.00017515   -0.00009868
     atom  134 type  1   force =    -0.00012739   -0.00001238   -0.00002844
     atom  135 type  1   force =    -0.00007782    0.00014733    0.00020418
     atom  136 type  1   force =     0.00014557    0.00008616    0.00009434
     atom  137 type  1   force =     0.00012676    0.00009533   -0.00002348
     atom  138 type  1   force =    -0.00023795    0.00000210   -0.00003431
     atom  139 type  1   force =     0.00001864   -0.00006649    0.00006499
     atom  140 type  1   force =    -0.00004117    0.00005451   -0.00010538
     atom  141 type  1   force =     0.00021605    0.00002755    0.00003004
     atom  142 type  1   force =    -0.00006102    0.00007165   -0.00005930
     atom  143 type  1   force =    -0.00019331   -0.00020501    0.00012735
     atom  144 type  1   force =     0.00006298   -0.00012477    0.00014100
     atom  145 type  1   force =    -0.00013445   -0.00000593   -0.00000331
     atom  146 type  1   force =    -0.00014369    0.00001058    0.00000464
     atom  147 type  1   force =     0.00002177   -0.00014498   -0.00019645
     atom  148 type  1   force =     0.00018089   -0.00001776   -0.00002757
     atom  149 type  1   force =     0.00002197   -0.00002660    0.00010452
     atom  150 type  1   force =    -0.00009512   -0.00009770   -0.00002524
     atom  151 type  1   force =    -0.00013194    0.00010667    0.00000384
     atom  152 type  1   force =     0.00003147   -0.00006748    0.00005890
     atom  153 type  1   force =    -0.00013491   -0.00001281    0.00009605
     atom  154 type  1   force =    -0.00010578    0.00002315   -0.00009498
     atom  155 type  1   force =    -0.00008435    0.00012819    0.00000417
     atom  156 type  1   force =     0.00019570    0.00004686    0.00006606
     atom  157 type  1   force =    -0.00007905    0.00008245   -0.00003951
     atom  158 type  1   force =     0.00004738    0.00006018    0.00001060
     atom  159 type  1   force =    -0.00004989   -0.00001567    0.00003637
     atom  160 type  1   force =     0.00013324    0.00020590   -0.00006818
     atom  161 type  1   force =     0.00002688    0.00002502    0.00012585
     atom  162 type  1   force =     0.00000394    0.00006550   -0.00014632
     atom  163 type  1   force =     0.00008838    0.00008595    0.00002412
     atom  164 type  1   force =    -0.00023529    0.00010909    0.00004677
     atom  165 type  1   force =     0.00002603    0.00006609    0.00022974
     atom  166 type  1   force =    -0.00002949   -0.00003204   -0.00021550
     atom  167 type  1   force =    -0.00010779    0.00002467   -0.00015906
     atom  168 type  1   force =    -0.00004693   -0.00008239   -0.00000054
     atom  169 type  1   force =     0.00003898    0.00009593    0.00004068
     atom  170 type  1   force =    -0.00008094   -0.00017778    0.00023975
     atom  171 type  1   force =    -0.00001113    0.00004273    0.00013720
     atom  172 type  1   force =    -0.00009468   -0.00005487   -0.00001211
     atom  173 type  1   force =    -0.00010573   -0.00016573   -0.00002775
     atom  174 type  1   force =     0.00022566   -0.00009551    0.00000741
     atom  175 type  1   force =     0.00004480   -0.00006367    0.00011470
     atom  176 type  1   force =     0.00000078    0.00002686    0.00013188
     atom  177 type  1   force =     0.00003612   -0.00005284   -0.00017229
     atom  178 type  1   force =    -0.00003271    0.00013079    0.00010313
     atom  179 type  1   force =    -0.00004042   -0.00008494   -0.00001300
     atom  180 type  1   force =    -0.00003669    0.00013972    0.00005190
     atom  181 type  1   force =    -0.00002314    0.00004310   -0.00005991
     atom  182 type  1   force =    -0.00009412   -0.00000287    0.00013681
     atom  183 type  1   force =    -0.00006963   -0.00001750   -0.00019925
     atom  184 type  1   force =    -0.00003307   -0.00001157    0.00005316
     atom  185 type  1   force =     0.00008377    0.00006911    0.00009455
     atom  186 type  1   force =     0.00001670    0.00010569    0.00005625
     atom  187 type  1   force =     0.00002149    0.00017884   -0.00017994
     atom  188 type  1   force =     0.00005444   -0.00009960   -0.00003025
     atom  189 type  1   force =    -0.00003797    0.00016067    0.00010707
     atom  190 type  1   force =     0.00002916   -0.00002875   -0.00011922
     atom  191 type  1   force =    -0.00014298    0.00013525    0.00000209
     atom  192 type  1   force =    -0.00006947   -0.00002053    0.00007442
     atom  193 type  1   force =     0.00006441    0.00002134   -0.00006605
     atom  194 type  1   force =     0.00012342   -0.00000584   -0.00002498
     atom  195 type  1   force =     0.00006099    0.00002045   -0.00006946
     atom  196 type  1   force =     0.00000185    0.00026766   -0.00006681
     atom  197 type  1   force =    -0.00014411   -0.00003681    0.00015310
     atom  198 type  1   force =     0.00016998    0.00004110    0.00018712
     atom  199 type  1   force =     0.00005509   -0.00009256    0.00006652
     atom  200 type  1   force =    -0.00018656   -0.00004546   -0.00016941
     atom  201 type  1   force =     0.00012320   -0.00019412   -0.00007609
     atom  202 type  1   force =    -0.00010827    0.00018396    0.00008843
     atom  203 type  1   force =    -0.00004124   -0.00011594   -0.00002981
     atom  204 type  1   force =    -0.00013238    0.00017814    0.00006432
     atom  205 type  1   force =    -0.00001870   -0.00002518    0.00002478
     atom  206 type  1   force =    -0.00005819   -0.00026682    0.00012291
     atom  207 type  1   force =     0.00003002   -0.00008719   -0.00002784
     atom  208 type  1   force =    -0.00012212   -0.00000142    0.00007460
     atom  209 type  1   force =     0.00004845   -0.00008273   -0.00000940
     atom  210 type  1   force =    -0.00004273    0.00016191    0.00000347
     atom  211 type  1   force =     0.00008684    0.00005064   -0.00001195
     atom  212 type  1   force =    -0.00007563    0.00000983    0.00012110
     atom  213 type  1   force =     0.00000216    0.00003004   -0.00009659
     atom  214 type  1   force =    -0.00004932    0.00010798    0.00002306
     atom  215 type  2   force =    -0.00005665   -0.00008103    0.00007630
     The non-local contrib.  to forces
     atom    1 type  1   force =     0.00627602    0.00421924   -0.00729934
     atom    2 type  1   force =     0.01838746   -0.00021394   -0.00278091
     atom    3 type  1   force =     0.00785876    0.00836098   -0.01850172
     atom    4 type  1   force =     0.00327775   -0.00388083   -0.01789056
     atom    5 type  1   force =     0.04385224   -0.06922016   -0.02705699
     atom    6 type  1   force =     0.02979360   -0.00839905   -0.05807136
     atom    7 type  1   force =     0.01622697    0.01039086   -0.01013356
     atom    8 type  1   force =     0.05924227   -0.00125355   -0.02862284
     atom    9 type  1   force =     0.03029197    0.06274084   -0.04551562
     atom   10 type  1   force =    -0.00736205    0.00946011    0.00506712
     atom   11 type  1   force =     0.01308136    0.00090319    0.02073599
     atom   12 type  1   force =    -0.00826118    0.01661137   -0.00647627
     atom   13 type  1   force =    -0.01998168   -0.00711993   -0.01232708
     atom   14 type  1   force =    -0.10969174    0.12561370    0.07921248
     atom   15 type  1   force =    -0.24124493   -0.06184061   -0.02307867
     atom   16 type  1   force =     0.00213981    0.01913461    0.00392459
     atom   17 type  1   force =     0.03009606    0.00399801    0.24826292
     atom   18 type  1   force =     0.06543708    0.19718625   -0.11328279
     atom   19 type  1   force =    -0.00583691    0.00350467    0.00498711
     atom   20 type  1   force =     0.00222766   -0.00143251    0.02240074
     atom   21 type  1   force =    -0.00675903    0.00979212    0.00732960
     atom   22 type  1   force =    -0.02135873   -0.00715623   -0.00118561
     atom   23 type  1   force =    -0.00767084   -0.01624705    0.01161253
     atom   24 type  1   force =    -0.04079366   -0.00596934   -0.00008392
     atom   25 type  1   force =    -0.00962109    0.00909727    0.00446767
     atom   26 type  1   force =     0.00032168    0.00400712    0.04103147
     atom   27 type  1   force =    -0.04498357    0.01466848    0.04142425
     atom   28 type  1   force =    -0.00505774   -0.00340831   -0.01260612
     atom   29 type  1   force =     0.01494018   -0.03595464   -0.01355112
     atom   30 type  1   force =    -0.02358488   -0.04383354   -0.03847099
     atom   31 type  1   force =     0.00792615    0.00332259   -0.01767290
     atom   32 type  1   force =     0.11112494   -0.21740119   -0.05417942
     atom   33 type  1   force =     0.06993472    0.18483864   -0.13009548
     atom   34 type  1   force =     0.01393007    0.01663670   -0.00159620
     atom   35 type  1   force =     0.04410770    0.04009037    0.02786290
     atom   36 type  1   force =     0.02771834    0.06974804   -0.03593987
     atom   37 type  1   force =    -0.02159361   -0.00653997   -0.00033289
     atom   38 type  1   force =    -0.00707693   -0.01787993    0.00937346
     atom   39 type  1   force =    -0.03862697   -0.01188565   -0.00814906
     atom   40 type  1   force =    -0.02404006    0.00397419    0.00282520
     atom   41 type  1   force =    -0.04282832   -0.05702748   -0.17026695
     atom   42 type  1   force =    -0.24250895   -0.05846123   -0.01847261
     atom   43 type  1   force =    -0.00392185    0.01577818    0.00896757
     atom   44 type  1   force =     0.01402794    0.01226655    0.08424717
     atom   45 type  1   force =     0.00572324    0.05734152    0.03173501
     atom   46 type  1   force =    -0.00278557   -0.00481864   -0.00638457
     atom   47 type  1   force =     0.00916290   -0.02036520   -0.00345305
     atom   48 type  1   force =    -0.00130703   -0.00508481   -0.01299912
     atom   49 type  1   force =    -0.00268353   -0.00327058   -0.01233577
     atom   50 type  1   force =     0.01906501   -0.01539954   -0.00154479
     atom   51 type  1   force =    -0.00561044    0.00942161   -0.01632107
     atom   52 type  1   force =     0.00432502    0.00957044    0.00000074
     atom   53 type  1   force =     0.01577644    0.00693454    0.00696479
     atom   54 type  1   force =     0.00304618    0.02153496   -0.00051602
     atom   55 type  1   force =     0.01290461    0.00095043    0.00535634
     atom   56 type  1   force =     0.01661099    0.00543063   -0.00898798
     atom   57 type  1   force =    -0.00197191    0.01277832   -0.01749830
     atom   58 type  1   force =     0.02206535   -0.03422608   -0.00642595
     atom   59 type  1   force =     0.10704901   -0.21838935   -0.05825475
     atom   60 type  1   force =    -0.03525411    0.02083333   -0.05149895
     atom   61 type  1   force =     0.04702820   -0.02670025    0.03214207
     atom   62 type  1   force =     0.08480828    0.18844836   -0.11522274
     atom   63 type  1   force =     0.01926505    0.06769644   -0.04439302
     atom   64 type  1   force =     0.00124760   -0.00099742    0.02250836
     atom   65 type  1   force =    -0.00436869    0.00874797    0.02249665
     atom   66 type  1   force =    -0.01254178    0.01368677    0.00034761
     atom   67 type  1   force =    -0.00509355   -0.01739904    0.01135675
     atom   68 type  1   force =     0.17761494   -0.00353877    0.05017586
     atom   69 type  1   force =    -0.08432809   -0.01159929   -0.01410890
     atom   70 type  1   force =     0.00961299   -0.00018078    0.04009082
     atom   71 type  1   force =     0.02478886    0.00639631    0.24882512
     atom   72 type  1   force =    -0.04417928    0.04523279   -0.01816737
     atom   73 type  1   force =     0.00725833   -0.00238127    0.00365942
     atom   74 type  1   force =     0.01267722    0.00045727    0.00302485
     atom   75 type  1   force =    -0.00213238    0.00800372   -0.00645674
     atom   76 type  1   force =     0.00841624   -0.02054669   -0.00419965
     atom   77 type  1   force =     0.00567501   -0.01864841   -0.01493477
     atom   78 type  1   force =    -0.00794893    0.00117727   -0.01676053
     atom   79 type  1   force =     0.01378862   -0.00142224    0.00209647
     atom   80 type  1   force =     0.01347294    0.01405223    0.00276220
     atom   81 type  1   force =    -0.00448732    0.01970668   -0.00804946
     atom   82 type  1   force =     0.01317507   -0.01785914   -0.00884167
     atom   83 type  1   force =     0.04099494   -0.06460807   -0.01981290
     atom   84 type  1   force =    -0.00321386   -0.00183270   -0.02382187
     atom   85 type  1   force =     0.03564690   -0.06590634   -0.02516113
     atom   86 type  1   force =     0.05649952   -0.00716750   -0.05476088
     atom   87 type  1   force =     0.02455818    0.06260754   -0.03561774
     atom   88 type  1   force =     0.02348104    0.00464477    0.00287291
     atom   89 type  1   force =     0.02054472    0.06163450   -0.03963144
     atom   90 type  1   force =     0.01035869    0.02680152   -0.01686151
     atom   91 type  1   force =     0.00442745   -0.01891515    0.00016222
     atom   92 type  1   force =    -0.01913267   -0.04135406   -0.00549457
     atom   93 type  1   force =    -0.07784307   -0.01119850   -0.00780924
     atom   94 type  1   force =     0.01453748   -0.03318470    0.02817546
     atom   95 type  1   force =    -0.05114709    0.04123084   -0.04387920
     atom   96 type  1   force =     0.00799970    0.00963070    0.07803365
     atom   97 type  1   force =     0.03144356    0.06127135    0.03871152
     atom   98 type  1   force =     0.02576036    0.05928634   -0.04014528
     atom   99 type  1   force =    -0.00393307   -0.01024182    0.00641815
     atom  100 type  1   force =    -0.01684682   -0.00935207    0.00230479
     atom  101 type  1   force =    -0.02324256   -0.00148252   -0.00516471
     atom  102 type  1   force =    -0.00051649   -0.00539003    0.01863510
     atom  103 type  1   force =    -0.02934665   -0.01344449    0.03260827
     atom  104 type  1   force =    -0.07621255   -0.01561340   -0.01386066
     atom  105 type  1   force =     0.00470197    0.00529812    0.02277991
     atom  106 type  1   force =     0.01496510    0.00651054    0.07731676
     atom  107 type  1   force =    -0.01130319    0.02027951    0.00638291
     atom  108 type  1   force =     0.00970270   -0.00523375   -0.00843232
     atom  109 type  1   force =     0.01293477   -0.02288632    0.00372452
     atom  110 type  1   force =    -0.00404440    0.00028647   -0.04111579
     atom  111 type  1   force =     0.00214617   -0.02550467   -0.00706402
     atom  112 type  1   force =     0.08602755   -0.01614022   -0.08211197
     atom  113 type  1   force =    -0.04727148   -0.06404470   -0.18277695
     atom  114 type  1   force =     0.03975729    0.01091430    0.00268575
     atom  115 type  1   force =     0.19129397   -0.00615859    0.05578843
     atom  116 type  1   force =     0.01264722    0.03281721   -0.02060988
     atom  117 type  1   force =    -0.01250326   -0.00040853    0.01260272
     atom  118 type  1   force =    -0.00850199   -0.02456756    0.02530197
     atom  119 type  1   force =    -0.02479581   -0.00592774    0.00753510
     atom  120 type  1   force =    -0.01903098   -0.02712286    0.01477296
     atom  121 type  1   force =    -0.08159971    0.05919004   -0.06518591
     atom  122 type  1   force =    -0.00663131   -0.00152039    0.02569972
     atom  123 type  1   force =     0.04703696    0.09040304    0.06345091
     atom  124 type  1   force =    -0.11960456    0.13359481    0.08718931
     atom  125 type  1   force =    -0.00130563   -0.00330114    0.00210698
     atom  126 type  1   force =     0.00987112   -0.01047189    0.01034863
     atom  127 type  1   force =    -0.01164696    0.00436201   -0.00626961
     atom  128 type  1   force =    -0.00730215   -0.01463938   -0.00682461
     atom  129 type  1   force =    -0.00531820   -0.03328862    0.01339493
     atom  130 type  1   force =    -0.02152368   -0.01487442   -0.00466516
     atom  131 type  1   force =     0.00472942    0.00833546    0.01010678
     atom  132 type  1   force =     0.00742203   -0.00785052    0.02428049
     atom  133 type  1   force =    -0.01733782    0.03658040    0.00846201
     atom  134 type  1   force =    -0.00311089   -0.01727050   -0.00561421
     atom  135 type  1   force =    -0.02581346   -0.11612320    0.03825720
     atom  136 type  1   force =     0.00847620   -0.02079230   -0.18893519
     atom  137 type  1   force =     0.00950986   -0.01182566    0.01122038
     atom  138 type  1   force =     0.67078537    0.08354785    0.11862420
     atom  139 type  1   force =    -0.06418045    0.08384057   -0.07856400
     atom  140 type  1   force =     0.02751451    0.00691032   -0.00953892
     atom  141 type  1   force =     0.04078794    0.02055556    0.01817857
     atom  142 type  1   force =     0.00667100    0.02955264   -0.00152385
     atom  143 type  1   force =    -0.01324493   -0.01189345    0.00518611
     atom  144 type  1   force =    -0.01231623   -0.07526320    0.05182825
     atom  145 type  1   force =    -0.03099276   -0.01536841    0.00297279
     atom  146 type  1   force =    -0.00893100   -0.00138182    0.01609644
     atom  147 type  1   force =    -0.03909778   -0.07983409    0.08786744
     atom  148 type  1   force =    -0.06034572    0.16720192    0.06788823
     atom  149 type  1   force =    -0.00435434    0.00688905    0.01383479
     atom  150 type  1   force =     0.00675213    0.01626791    0.02537827
     atom  151 type  1   force =    -0.02618099    0.03790444    0.01576694
     atom  152 type  1   force =     0.00231299   -0.01133326   -0.01104895
     atom  153 type  1   force =     0.01855995   -0.01601976   -0.01872596
     atom  154 type  1   force =    -0.00934690   -0.00809057   -0.04704709
     atom  155 type  1   force =     0.02354039    0.01773337    0.00524767
     atom  156 type  1   force =     0.04820580    0.00026335   -0.00953312
     atom  157 type  1   force =     0.01276039    0.01288727   -0.02428638
     atom  158 type  1   force =     0.01067770    0.00404399   -0.00005928
     atom  159 type  1   force =     0.03500970   -0.00647748    0.01415741
     atom  160 type  1   force =     0.00132911    0.01515661   -0.01069419
     atom  161 type  1   force =     0.00943541   -0.01422587    0.00693216
     atom  162 type  1   force =    -0.00784035   -0.01603495   -0.00612995
     atom  163 type  1   force =     0.00842467    0.00227822   -0.02862878
     atom  164 type  1   force =    -0.01053130   -0.11241546    0.05353966
     atom  165 type  1   force =    -0.11574365   -0.10729621   -0.66790514
     atom  166 type  1   force =    -0.02133719    0.00548061   -0.04394667
     atom  167 type  1   force =     0.18867550    0.02293157   -0.00873573
     atom  168 type  1   force =     0.05472043    0.11269127    0.04033717
     atom  169 type  1   force =    -0.00529413    0.02664907   -0.01348906
     atom  170 type  1   force =    -0.00261328   -0.00931347    0.01581785
     atom  171 type  1   force =    -0.01556583   -0.00299125    0.00946153
     atom  172 type  1   force =    -0.01518708    0.00426045    0.00300208
     atom  173 type  1   force =    -0.03295897   -0.08027233    0.03118560
     atom  174 type  1   force =    -0.06765606   -0.08676378    0.05930905
     atom  175 type  1   force =    -0.02829377    0.00776369   -0.00966761
     atom  176 type  1   force =    -0.00015165   -0.00788483    0.03381386
     atom  177 type  1   force =    -0.10708249    0.15586205    0.02115133
     atom  178 type  1   force =    -0.02499862    0.03819112    0.01694937
     atom  179 type  1   force =     0.01347049   -0.00862563    0.00010849
     atom  180 type  1   force =    -0.00860429    0.00993419   -0.02689697
     atom  181 type  1   force =    -0.00058982    0.00130996   -0.01132666
     atom  182 type  1   force =     0.02249682   -0.01506468   -0.01478911
     atom  183 type  1   force =     0.01057638   -0.00886714   -0.04716248
     atom  184 type  1   force =    -0.01122457   -0.01769651   -0.03207685
     atom  185 type  1   force =     0.04734155    0.00566450    0.00964115
     atom  186 type  1   force =     0.02091907    0.01486724   -0.01612768
     atom  187 type  1   force =     0.00685437    0.01649705   -0.00516907
     atom  188 type  1   force =     0.00920306   -0.03343980   -0.00108933
     atom  189 type  1   force =    -0.05244909    0.00659446   -0.18277730
     atom  190 type  1   force =    -0.00780677   -0.00877602   -0.04721048
     atom  191 type  1   force =     0.17449629    0.06166043    0.04416812
     atom  192 type  1   force =     0.09076343    0.01420119   -0.09420988
     atom  193 type  1   force =    -0.00282252    0.01989432   -0.02272155
     atom  194 type  1   force =     0.04770602    0.00469419    0.00830215
     atom  195 type  1   force =     0.01730199    0.02477793   -0.00259697
     atom  196 type  1   force =     0.00853933    0.01191700   -0.01143025
     atom  197 type  1   force =    -0.03921407   -0.06317203    0.05454207
     atom  198 type  1   force =    -0.06303022   -0.09940616    0.04201699
     atom  199 type  1   force =    -0.02710530    0.00450822   -0.01412171
     atom  200 type  1   force =    -0.01918777   -0.08876849    0.08585943
     atom  201 type  1   force =    -0.35429232    0.54435377    0.22220934
     atom  202 type  1   force =    -0.03274453    0.03664988   -0.00136219
     atom  203 type  1   force =     0.01188024    0.01396822    0.02486393
     atom  204 type  1   force =    -0.00825166    0.04259359    0.02313078
     atom  205 type  1   force =    -0.02524128    0.02061098    0.02024075
     atom  206 type  1   force =     0.00060189   -0.01811975    0.00379447
     atom  207 type  1   force =    -0.01176589   -0.01338785   -0.00473008
     atom  208 type  1   force =    -0.01180622   -0.00499065   -0.00962424
     atom  209 type  1   force =     0.00741370   -0.00873422    0.01444956
     atom  210 type  1   force =    -0.01310549   -0.00167154    0.01351072
     atom  211 type  1   force =    -0.00133491    0.02891604    0.00776133
     atom  212 type  1   force =     0.01018791    0.00034653    0.01236983
     atom  213 type  1   force =    -0.01439306    0.02574814   -0.00529682
     atom  214 type  1   force =    -0.00401302    0.01065471    0.00142819
     atom  215 type  2   force =    -0.42477824   -1.10036518    0.69177320
     The ionic contribution  to forces
     atom    1 type  1   force =    -0.00990208   -0.01554068    0.01367290
     atom    2 type  1   force =    -0.07726550    0.00656046    0.03830817
     atom    3 type  1   force =    -0.06303420   -0.02540862    0.05193415
     atom    4 type  1   force =    -0.04096843    0.01536767    0.07460519
     atom    5 type  1   force =    -0.19669464    0.19832608    0.14857267
     atom    6 type  1   force =    -0.03168405    0.04304039    0.24536099
     atom    7 type  1   force =    -0.04626279   -0.02133917    0.06870571
     atom    8 type  1   force =    -0.24939566   -0.00978534    0.02764960
     atom    9 type  1   force =    -0.16803005   -0.18297127    0.21242629
     atom   10 type  1   force =    -0.00234006   -0.01710326    0.00648993
     atom   11 type  1   force =    -0.05605397   -0.00208481   -0.10386904
     atom   12 type  1   force =     0.03340466   -0.06502135    0.00990132
     atom   13 type  1   force =     0.09978722    0.03572871    0.05197238
     atom   14 type  1   force =     0.89782855    0.36866025   -0.98728015
     atom   15 type  1   force =     0.32104371    0.26486927    1.01203106
     atom   16 type  1   force =     0.00666266   -0.07151013   -0.01684073
     atom   17 type  1   force =    -1.03634140   -0.06448771   -0.34535455
     atom   18 type  1   force =     0.53090148   -1.03250546   -0.28037377
     atom   19 type  1   force =     0.01427737   -0.03224428   -0.00645345
     atom   20 type  1   force =    -0.01597866   -0.05287928   -0.07206469
     atom   21 type  1   force =     0.04509008    0.00074483   -0.05446614
     atom   22 type  1   force =     0.08201090   -0.02910298    0.02592482
     atom   23 type  1   force =    -0.07129702    0.10617223    0.04553567
     atom   24 type  1   force =     0.26065582    0.10080435   -0.04361585
     atom   25 type  1   force =     0.05402248    0.00291212   -0.04553371
     atom   26 type  1   force =     0.02606234    0.04388219   -0.27820909
     atom   27 type  1   force =     0.13633052   -0.11796245   -0.10770798
     atom   28 type  1   force =     0.03474303    0.05545770    0.02638843
     atom   29 type  1   force =    -0.05823070    0.27407384    0.03661715
     atom   30 type  1   force =     0.05938731    0.09201937    0.17904739
     atom   31 type  1   force =    -0.01698727   -0.00679402    0.07153964
     atom   32 type  1   force =    -1.07460218    0.04016327   -0.20223789
     atom   33 type  1   force =     0.13802089    0.04084802    1.18605353
     atom   34 type  1   force =    -0.02448379   -0.08104022   -0.01272847
     atom   35 type  1   force =    -0.22039431   -0.08934481   -0.08094081
     atom   36 type  1   force =    -0.12696979   -0.29548908    0.05879920
     atom   37 type  1   force =     0.07615484   -0.01333823    0.04752447
     atom   38 type  1   force =    -0.02394607   -0.02356010   -0.13149225
     atom   39 type  1   force =     0.24733207    0.13689933    0.00584097
     atom   40 type  1   force =     0.11689985   -0.01097619   -0.01187659
     atom   41 type  1   force =     0.57835359    1.24125274    0.20441105
     atom   42 type  1   force =     0.69417354   -0.75471054   -0.38082410
     atom   43 type  1   force =    -0.00875460   -0.07291837   -0.04600722
     atom   44 type  1   force =    -0.08136955   -0.11727353   -0.28254401
     atom   45 type  1   force =     0.06343340   -0.21696192   -0.10962758
     atom   46 type  1   force =     0.00307990   -0.00146500    0.03558819
     atom   47 type  1   force =    -0.05131656    0.04398349    0.06022049
     atom   48 type  1   force =     0.02314292    0.06083216    0.02746388
     atom   49 type  1   force =    -0.00394857   -0.01218911    0.01303837
     atom   50 type  1   force =    -0.08594770    0.08034462    0.00842315
     atom   51 type  1   force =     0.01805487   -0.02248137    0.06779995
     atom   52 type  1   force =    -0.00820036   -0.02009237    0.00735417
     atom   53 type  1   force =    -0.05591503   -0.05163846   -0.04136756
     atom   54 type  1   force =    -0.04617680   -0.07126463   -0.01066927
     atom   55 type  1   force =    -0.03771186    0.03787722   -0.04606645
     atom   56 type  1   force =    -0.06837826   -0.01926364    0.02014854
     atom   57 type  1   force =     0.03076575   -0.06763438    0.04252097
     atom   58 type  1   force =    -0.10183498    0.26349368   -0.00698717
     atom   59 type  1   force =     0.15625998    0.33881991    1.02862374
     atom   60 type  1   force =     0.09338268   -0.01320964    0.23283619
     atom   61 type  1   force =    -0.19391860    0.03055710   -0.07425833
     atom   62 type  1   force =    -1.15781899   -0.27357595   -0.10978608
     atom   63 type  1   force =     0.00889872   -0.26252188    0.19466784
     atom   64 type  1   force =    -0.04084386   -0.04172698   -0.06947427
     atom   65 type  1   force =     0.01746684   -0.03510265   -0.11130966
     atom   66 type  1   force =     0.06162835   -0.05584056    0.02437572
     atom   67 type  1   force =     0.13260061    0.01442463    0.02505462
     atom   68 type  1   force =    -0.47459437    0.98576514   -0.84853619
     atom   69 type  1   force =     0.29977945   -0.02479124    0.09860491
     atom   70 type  1   force =    -0.03086892    0.06939625   -0.27235977
     atom   71 type  1   force =     0.56767162   -0.78540520   -0.50732614
     atom   72 type  1   force =     0.15944505   -0.19366569   -0.01361597
     atom   73 type  1   force =    -0.03413712   -0.01049535   -0.00162874
     atom   74 type  1   force =    -0.00990551   -0.01363457    0.00708148
     atom   75 type  1   force =    -0.00264244   -0.01874377    0.01291200
     atom   76 type  1   force =    -0.07033281    0.03936941    0.04120429
     atom   77 type  1   force =    -0.02957734    0.09402239    0.06479349
     atom   78 type  1   force =     0.05075709   -0.02575538    0.06530446
     atom   79 type  1   force =    -0.04035506    0.04542492   -0.03603403
     atom   80 type  1   force =    -0.06004600   -0.04143188   -0.01030092
     atom   81 type  1   force =     0.02584103   -0.05379017    0.06134851
     atom   82 type  1   force =    -0.07138416    0.09877518    0.04741732
     atom   83 type  1   force =    -0.00762157    0.05047494    0.17374052
     atom   84 type  1   force =     0.01261837    0.01296371    0.06654559
     atom   85 type  1   force =    -0.18088730    0.00843351    0.00047475
     atom   86 type  1   force =    -0.26018759    0.02094636    0.25510514
     atom   87 type  1   force =     0.01700018   -0.00854867    0.20566275
     atom   88 type  1   force =    -0.06733748   -0.00643686   -0.01341016
     atom   89 type  1   force =    -0.19728067   -0.06054190   -0.00861816
     atom   90 type  1   force =    -0.04490255   -0.11643927    0.07315547
     atom   91 type  1   force =     0.09375745    0.05644619   -0.10745354
     atom   92 type  1   force =     0.08285624    0.19536419   -0.04846473
     atom   93 type  1   force =     0.07138172    0.01494925    0.16593443
     atom   94 type  1   force =     0.00340008    0.17608512   -0.12792072
     atom   95 type  1   force =     0.22706531   -0.19808879    0.20603686
     atom   96 type  1   force =    -0.16267183   -0.04184174   -0.06811899
     atom   97 type  1   force =    -0.14696222   -0.28884327   -0.16799071
     atom   98 type  1   force =     0.08187754   -0.18608607   -0.03672554
     atom   99 type  1   force =    -0.00844600   -0.02200979    0.01378659
     atom  100 type  1   force =    -0.03684476    0.11532754   -0.09433844
     atom  101 type  1   force =     0.12779926    0.00936949    0.02735976
     atom  102 type  1   force =     0.06340422    0.13965193    0.00591045
     atom  103 type  1   force =     0.10701466    0.12965411   -0.13847398
     atom  104 type  1   force =     0.12405510   -0.12869384   -0.03032256
     atom  105 type  1   force =    -0.02513131   -0.02773777   -0.12557072
     atom  106 type  1   force =     0.06333627   -0.14342672   -0.09104133
     atom  107 type  1   force =     0.03690070   -0.05334251   -0.02395758
     atom  108 type  1   force =     0.00470133    0.03741474   -0.01377962
     atom  109 type  1   force =    -0.02759547    0.07744068    0.15709307
     atom  110 type  1   force =     0.00039908   -0.01157023    0.05566328
     atom  111 type  1   force =    -0.17164295    0.04248889    0.01304556
     atom  112 type  1   force =    -0.58551384    0.20772005    0.53511230
     atom  113 type  1   force =     0.05091365    0.03830703    0.33378702
     atom  114 type  1   force =    -0.05133293   -0.02412261    0.00393116
     atom  115 type  1   force =    -0.33181539   -0.05455881   -0.04894196
     atom  116 type  1   force =    -0.08188104   -0.21206102    0.13333570
     atom  117 type  1   force =    -0.01572447   -0.01022166    0.01820470
     atom  118 type  1   force =     0.01218747    0.06033578   -0.14664637
     atom  119 type  1   force =     0.10144432    0.01943655    0.14418948
     atom  120 type  1   force =     0.12858017    0.08857737   -0.03025363
     atom  121 type  1   force =     0.62349930   -0.33593503    0.41304910
     atom  122 type  1   force =    -0.14174664   -0.03957157   -0.09900155
     atom  123 type  1   force =    -0.30422798   -0.56103930   -0.51467827
     atom  124 type  1   force =     0.16701352   -0.27897943   -0.09932190
     atom  125 type  1   force =    -0.01288864   -0.03340530    0.02099416
     atom  126 type  1   force =     0.00564014   -0.01973544    0.01590619
     atom  127 type  1   force =     0.02242954    0.02954048   -0.01556318
     atom  128 type  1   force =    -0.01063830   -0.02368519   -0.00037242
     atom  129 type  1   force =    -0.02291993    0.15679545   -0.01512501
     atom  130 type  1   force =     0.14531350   -0.10007175   -0.01908853
     atom  131 type  1   force =     0.00879675    0.02623254   -0.02919608
     atom  132 type  1   force =     0.04628502   -0.12410009   -0.11811690
     atom  133 type  1   force =     0.01615166   -0.05452794   -0.00292105
     atom  134 type  1   force =     0.06993002    0.12630576   -0.04087485
     atom  135 type  1   force =     0.30285418    0.67392240    0.10014640
     atom  136 type  1   force =     0.07931970    0.06262482    0.28470048
     atom  137 type  1   force =    -0.09690888    0.01807148   -0.03907933
     atom  138 type  1   force =    -3.85396403   -0.40623785   -0.73512232
     atom  139 type  1   force =     0.37541231   -0.58009234    0.52528799
     atom  140 type  1   force =     0.01761659   -0.03427470   -0.09146708
     atom  141 type  1   force =    -0.17344686   -0.08324648   -0.08335058
     atom  142 type  1   force =     0.03808487   -0.20329344    0.00172459
     atom  143 type  1   force =     0.04256837   -0.04164834    0.04196440
     atom  144 type  1   force =    -0.19292952    0.06868549   -0.10183424
     atom  145 type  1   force =     0.18704273    0.05350466    0.01103755
     atom  146 type  1   force =     0.08088289    0.09653680   -0.08170399
     atom  147 type  1   force =     0.47374392    0.20736276   -0.53699699
     atom  148 type  1   force =     0.18258859   -0.21919350   -0.10002641
     atom  149 type  1   force =    -0.03587621   -0.03979983   -0.02812478
     atom  150 type  1   force =     0.03635079   -0.14349546   -0.15420151
     atom  151 type  1   force =     0.03412388   -0.04802676   -0.03487039
     atom  152 type  1   force =    -0.05165140    0.00360174    0.03117879
     atom  153 type  1   force =    -0.05323927    0.10156010    0.18026575
     atom  154 type  1   force =     0.00775204    0.02411222    0.06354528
     atom  155 type  1   force =    -0.02271484    0.07632004    0.05940788
     atom  156 type  1   force =    -0.20590121    0.00593218    0.03828465
     atom  157 type  1   force =    -0.01425728   -0.06002937    0.19734764
     atom  158 type  1   force =    -0.02263395   -0.01418360    0.00430264
     atom  159 type  1   force =    -0.01583201   -0.07985922    0.05412074
     atom  160 type  1   force =    -0.05927894   -0.03759823    0.01167310
     atom  161 type  1   force =     0.01193526    0.11223389   -0.09886972
     atom  162 type  1   force =     0.03093122    0.04909079    0.08876076
     atom  163 type  1   force =     0.09743400   -0.01490770   -0.01164965
     atom  164 type  1   force =    -0.24746757    0.54039199   -0.45017476
     atom  165 type  1   force =     0.69964619    0.69865361    3.81848857
     atom  166 type  1   force =     0.09562875   -0.01795778    0.18572511
     atom  167 type  1   force =    -0.28905171   -0.02675728   -0.08367140
     atom  168 type  1   force =    -0.36280304   -0.75921339   -0.21292715
     atom  169 type  1   force =     0.04733055   -0.20105014    0.01097017
     atom  170 type  1   force =    -0.02973054   -0.05919107   -0.03033438
     atom  171 type  1   force =     0.05892642    0.09120936   -0.10366039
     atom  172 type  1   force =     0.03567547   -0.02243842    0.04342701
     atom  173 type  1   force =     0.07721630    0.13423427    0.16831096
     atom  174 type  1   force =     0.48631235    0.21041255   -0.52442872
     atom  175 type  1   force =     0.18465369   -0.10751116   -0.00589866
     atom  176 type  1   force =    -0.01798448    0.00375656   -0.19398967
     atom  177 type  1   force =     0.15405139   -0.22611748   -0.12856322
     atom  178 type  1   force =     0.04616901   -0.04510419   -0.02282532
     atom  179 type  1   force =    -0.03261311    0.00822117    0.05021709
     atom  180 type  1   force =    -0.07634756    0.06330666    0.00577533
     atom  181 type  1   force =    -0.00148373   -0.00905167    0.02545288
     atom  182 type  1   force =    -0.20057129    0.06581128    0.03293370
     atom  183 type  1   force =    -0.04447600    0.04510052    0.19970995
     atom  184 type  1   force =    -0.03420290   -0.08431679    0.03574987
     atom  185 type  1   force =    -0.06718977    0.00592821   -0.01139664
     atom  186 type  1   force =    -0.17796308   -0.09975100    0.03364188
     atom  187 type  1   force =    -0.00417240   -0.02422714    0.06677957
     atom  188 type  1   force =    -0.08007303    0.17357134    0.03795767
     atom  189 type  1   force =     0.04220080    0.07935063    0.28828561
     atom  190 type  1   force =     0.02346440    0.01701944    0.06203168
     atom  191 type  1   force =    -0.29753840   -0.00308375   -0.05145344
     atom  192 type  1   force =    -0.58662883   -0.14758993    0.62244002
     atom  193 type  1   force =    -0.00228402   -0.06537920    0.19620938
     atom  194 type  1   force =    -0.06359831   -0.00410554   -0.02503110
     atom  195 type  1   force =    -0.17525392   -0.10734874    0.02323939
     atom  196 type  1   force =     0.01253397   -0.06991052    0.00442921
     atom  197 type  1   force =     0.15902984   -0.08964988   -0.13727698
     atom  198 type  1   force =     0.31927124    0.66650879    0.09852728
     atom  199 type  1   force =     0.13989329    0.01464302    0.16095912
     atom  200 type  1   force =    -0.24367776    0.52991377   -0.46442185
     atom  201 type  1   force =     2.08052203   -3.07394047   -1.33465932
     atom  202 type  1   force =     0.14461527   -0.15177686    0.00299937
     atom  203 type  1   force =    -0.15580745   -0.05710610   -0.13474165
     atom  204 type  1   force =     0.03699582   -0.17788964   -0.10461999
     atom  205 type  1   force =    -0.03988158   -0.06908597    0.05664461
     atom  206 type  1   force =    -0.05155089    0.00073587    0.05137236
     atom  207 type  1   force =     0.04140413    0.13927169   -0.03813489
     atom  208 type  1   force =     0.04152759   -0.03827535    0.02179152
     atom  209 type  1   force =     0.00540179    0.13053597   -0.07413743
     atom  210 type  1   force =     0.06994262   -0.05700254   -0.05611152
     atom  211 type  1   force =     0.08127906    0.02942321    0.04885408
     atom  212 type  1   force =    -0.01095932   -0.05101085   -0.03069539
     atom  213 type  1   force =    -0.05206815   -0.00293217   -0.08449296
     atom  214 type  1   force =     0.00488370   -0.02651835    0.00155071
     atom  215 type  2   force =     1.64873550    4.27218652   -2.68534077
     The local contribution  to forces
     atom    1 type  1   force =     0.00372246    0.01144664   -0.00649804
     atom    2 type  1   force =     0.05920199   -0.00635080   -0.03571409
     atom    3 type  1   force =     0.05541101    0.01727457   -0.03381425
     atom    4 type  1   force =     0.03788300   -0.01152596   -0.05703279
     atom    5 type  1   force =     0.15350425   -0.13023640   -0.12190505
     atom    6 type  1   force =     0.00227348   -0.03473656   -0.18817291
     atom    7 type  1   force =     0.03036140    0.01119478   -0.05886441
     atom    8 type  1   force =     0.19104399    0.01106736    0.00059673
     atom    9 type  1   force =     0.13824291    0.12140912   -0.16770241
     atom   10 type  1   force =     0.00955861    0.00776010   -0.01143975
     atom   11 type  1   force =     0.04328704    0.00104805    0.08360864
     atom   12 type  1   force =    -0.02539668    0.04885888   -0.00370948
     atom   13 type  1   force =    -0.08022626   -0.02892398   -0.03990516
     atom   14 type  1   force =    -0.79002929   -0.49117195    0.90920591
     atom   15 type  1   force =    -0.08465884   -0.20409770   -0.98876062
     atom   16 type  1   force =    -0.00863805    0.05292358    0.01304921
     atom   17 type  1   force =     1.00617075    0.06058260    0.10207004
     atom   18 type  1   force =    -0.59455563    0.83906932    0.39096275
     atom   19 type  1   force =    -0.00851311    0.02873481    0.00154245
     atom   20 type  1   force =     0.01366623    0.05417653    0.05011306
     atom   21 type  1   force =    -0.03847753   -0.01042194    0.04726894
     atom   22 type  1   force =    -0.06105837    0.03604282   -0.02461146
     atom   23 type  1   force =     0.07889132   -0.09040876   -0.05695633
     atom   24 type  1   force =    -0.22042000   -0.09485741    0.04369302
     atom   25 type  1   force =    -0.04456018   -0.01189917    0.04118667
     atom   26 type  1   force =    -0.02638947   -0.04777670    0.23772356
     atom   27 type  1   force =    -0.09193517    0.10358027    0.06680179
     atom   28 type  1   force =    -0.02977835   -0.05218742   -0.01398178
     atom   29 type  1   force =     0.04346980   -0.23858503   -0.02329554
     atom   30 type  1   force =    -0.03611414   -0.04872687   -0.14116411
     atom   31 type  1   force =     0.00938327    0.00357960   -0.05432964
     atom   32 type  1   force =     0.96507006    0.17272755    0.25510366
     atom   33 type  1   force =    -0.20632532   -0.22155603   -1.05810318
     atom   34 type  1   force =     0.01080115    0.06482380    0.01427903
     atom   35 type  1   force =     0.17697234    0.04981574    0.05344469
     atom   36 type  1   force =     0.09972220    0.22697488   -0.02357053
     atom   37 type  1   force =    -0.05494416    0.01956772   -0.04717813
     atom   38 type  1   force =     0.03089559    0.04106566    0.12245976
     atom   39 type  1   force =    -0.20921564   -0.12517654    0.00213431
     atom   40 type  1   force =    -0.09340270    0.00703857    0.00926324
     atom   41 type  1   force =    -0.53610244   -1.18468479   -0.03785923
     atom   42 type  1   force =    -0.45629251    0.81145953    0.39859408
     atom   43 type  1   force =     0.01274125    0.05744695    0.03719741
     atom   44 type  1   force =     0.06753979    0.10514381    0.19964389
     atom   45 type  1   force =    -0.06912328    0.16047610    0.07831340
     atom   46 type  1   force =    -0.00032404    0.00617389   -0.02927572
     atom   47 type  1   force =     0.04221086   -0.02412081   -0.05681831
     atom   48 type  1   force =    -0.02188399   -0.05589032   -0.01469676
     atom   49 type  1   force =     0.00659950    0.01535065   -0.00091529
     atom   50 type  1   force =     0.06732416   -0.06534193   -0.00678783
     atom   51 type  1   force =    -0.01263621    0.01341520   -0.05192172
     atom   52 type  1   force =     0.00396997    0.01069017   -0.00743437
     atom   53 type  1   force =     0.04038806    0.04494483    0.03452747
     atom   54 type  1   force =     0.04329627    0.05019380    0.01111631
     atom   55 type  1   force =     0.02503212   -0.03888706    0.04082877
     atom   56 type  1   force =     0.05220020    0.01397136   -0.01151243
     atom   57 type  1   force =    -0.02883930    0.05520578   -0.02536131
     atom   58 type  1   force =     0.08010708   -0.22969649    0.01334182
     atom   59 type  1   force =    -0.26092687   -0.12474784   -0.97089271
     atom   60 type  1   force =    -0.05859703   -0.00734537   -0.18212458
     atom   61 type  1   force =     0.14758003   -0.00415618    0.04252985
     atom   62 type  1   force =     1.07416601    0.08914479    0.22238782
     atom   63 type  1   force =    -0.02774943    0.19604372   -0.15104264
     atom   64 type  1   force =     0.03964650    0.04252061    0.04741267
     atom   65 type  1   force =    -0.01332843    0.02647034    0.08933767
     atom   66 type  1   force =    -0.04930817    0.04239149   -0.02485222
     atom   67 type  1   force =    -0.12775417    0.00256951   -0.03619039
     atom   68 type  1   force =     0.30067805   -0.98164786    0.79892101
     atom   69 type  1   force =    -0.21678591    0.03615243   -0.08468197
     atom   70 type  1   force =     0.02144862   -0.06920845    0.23279838
     atom   71 type  1   force =    -0.59150837    0.77865194    0.26337859
     atom   72 type  1   force =    -0.11587453    0.14913105    0.03156223
     atom   73 type  1   force =     0.02697501    0.01279872   -0.00197686
     atom   74 type  1   force =    -0.00254015    0.01313523   -0.01005526
     atom   75 type  1   force =     0.00481680    0.01089603   -0.00658734
     atom   76 type  1   force =     0.06208528   -0.01929958   -0.03694373
     atom   77 type  1   force =     0.02391860   -0.07587372   -0.05019352
     atom   78 type  1   force =    -0.04297866    0.02471468   -0.04883902
     atom   79 type  1   force =     0.02682436   -0.04407222    0.03401167
     atom   80 type  1   force =     0.04691250    0.02786501    0.00762700
     atom   81 type  1   force =    -0.02139072    0.03449698   -0.05357064
     atom   82 type  1   force =     0.05853677   -0.08140964   -0.03878313
     atom   83 type  1   force =    -0.03263921    0.01304030   -0.15415164
     atom   84 type  1   force =    -0.00947361   -0.01115587   -0.04338831
     atom   85 type  1   force =     0.14573603    0.05632005    0.02422376
     atom   86 type  1   force =     0.20487760   -0.01383068   -0.20152367
     atom   87 type  1   force =    -0.04104346   -0.05283265   -0.17052782
     atom   88 type  1   force =     0.04450744    0.00194268    0.01059199
     atom   89 type  1   force =     0.17693031    0.00005873    0.04744597
     atom   90 type  1   force =     0.03485489    0.09041671   -0.05679244
     atom   91 type  1   force =    -0.09815994   -0.03788793    0.10735340
     atom   92 type  1   force =    -0.06419450   -0.15501715    0.05378150
     atom   93 type  1   force =     0.00513520   -0.00392894   -0.15813142
     atom   94 type  1   force =    -0.01754159   -0.14369910    0.10043411
     atom   95 type  1   force =    -0.17692758    0.15779971   -0.16310185
     atom   96 type  1   force =     0.15468337    0.03235834   -0.00858324
     atom   97 type  1   force =     0.11618443    0.22892348    0.13001044
     atom   98 type  1   force =    -0.10704172    0.12776903    0.07604134
     atom   99 type  1   force =     0.01218546    0.03169951   -0.01987703
     atom  100 type  1   force =     0.05344119   -0.10620076    0.09210173
     atom  101 type  1   force =    -0.10513975   -0.00796560   -0.02231813
     atom  102 type  1   force =    -0.06290863   -0.13443323   -0.02424788
     atom  103 type  1   force =    -0.07839065   -0.11648935    0.10665378
     atom  104 type  1   force =    -0.04908199    0.14393684    0.04388707
     atom  105 type  1   force =     0.02055165    0.02253306    0.10337344
     atom  106 type  1   force =    -0.07796207    0.13693178    0.01500693
     atom  107 type  1   force =    -0.02587022    0.03362680    0.01771196
     atom  108 type  1   force =    -0.01418490   -0.03243407    0.02205607
     atom  109 type  1   force =     0.01507964   -0.05499483   -0.16072102
     atom  110 type  1   force =     0.00366584    0.01153031   -0.01542760
     atom  111 type  1   force =     0.16951860   -0.01752382   -0.00628195
     atom  112 type  1   force =     0.50102327   -0.19210268   -0.45441319
     atom  113 type  1   force =    -0.00477797    0.02386428   -0.15385180
     atom  114 type  1   force =     0.01237472    0.01364263   -0.00671907
     atom  115 type  1   force =     0.14369030    0.05989092   -0.00538426
     atom  116 type  1   force =     0.06966439    0.18036958   -0.11342905
     atom  117 type  1   force =     0.02787825    0.01058838   -0.03044622
     atom  118 type  1   force =    -0.00390008   -0.03641276    0.12202873
     atom  119 type  1   force =    -0.07723070   -0.01349434   -0.15152714
     atom  120 type  1   force =    -0.11006831   -0.06217554    0.01586035
     atom  121 type  1   force =    -0.54352585    0.27764214   -0.34895680
     atom  122 type  1   force =     0.14816706    0.04119599    0.07387103
     atom  123 type  1   force =     0.25799418    0.47212551    0.45256384
     atom  124 type  1   force =    -0.04983659    0.14707175    0.01415169
     atom  125 type  1   force =     0.01410811    0.03650863   -0.02296551
     atom  126 type  1   force =    -0.01526697    0.02989339   -0.02594632
     atom  127 type  1   force =    -0.01115619   -0.03388770    0.02174034
     atom  128 type  1   force =     0.01772176    0.03789573    0.00704259
     atom  129 type  1   force =     0.02810944   -0.12440289    0.00207384
     atom  130 type  1   force =    -0.12424868    0.11462260    0.02350787
     atom  131 type  1   force =    -0.01344934   -0.03444465    0.01944758
     atom  132 type  1   force =    -0.05340603    0.13181347    0.09435044
     atom  133 type  1   force =     0.00096516    0.01884224   -0.00553665
     atom  134 type  1   force =    -0.06690502   -0.10948709    0.04631336
     atom  135 type  1   force =    -0.27702568   -0.56022632   -0.13778241
     atom  136 type  1   force =    -0.08667713   -0.04199659   -0.09909535
     atom  137 type  1   force =     0.08775798   -0.00637454    0.02804219
     atom  138 type  1   force =     3.19139441    0.32377962    0.61794660
     atom  139 type  1   force =    -0.31205149    0.49800725   -0.44822709
     atom  140 type  1   force =    -0.04463051    0.02743739    0.10042268
     atom  141 type  1   force =     0.13361068    0.06302109    0.06551718
     atom  142 type  1   force =    -0.04462705    0.17430706   -0.00034977
     atom  143 type  1   force =    -0.02977742    0.05317202   -0.04700176
     atom  144 type  1   force =     0.20552133    0.00519589    0.05110046
     atom  145 type  1   force =    -0.15716182   -0.03850583   -0.01403576
     atom  146 type  1   force =    -0.07219928   -0.09516466    0.06602922
     atom  147 type  1   force =    -0.43502146   -0.12888634    0.45121657
     atom  148 type  1   force =    -0.12236713    0.05523113    0.03347303
     atom  149 type  1   force =     0.04021997    0.03302242    0.01477921
     atom  150 type  1   force =    -0.04298536    0.12734829    0.12928710
     atom  151 type  1   force =    -0.00865840    0.01089210    0.01935838
     atom  152 type  1   force =     0.04950819    0.00732404   -0.02033445
     atom  153 type  1   force =     0.03496119   -0.08590358   -0.16172476
     atom  154 type  1   force =     0.00120895   -0.01617621   -0.01748763
     atom  155 type  1   force =    -0.00056330   -0.09336747   -0.06439831
     atom  156 type  1   force =     0.15875249   -0.00617324   -0.02882253
     atom  157 type  1   force =     0.00169317    0.04750075   -0.17349478
     atom  158 type  1   force =     0.01223217    0.01024760   -0.00423094
     atom  159 type  1   force =    -0.01864168    0.08587384   -0.06778082
     atom  160 type  1   force =     0.05815763    0.02299606   -0.00130661
     atom  161 type  1   force =    -0.02109581   -0.09837057    0.09212282
     atom  162 type  1   force =    -0.02322875   -0.03330262   -0.08294447
     atom  163 type  1   force =    -0.10529251    0.01271781    0.03976035
     atom  164 type  1   force =     0.25796660   -0.43041665    0.39720914
     atom  165 type  1   force =    -0.58533363   -0.59260893   -3.15878182
     atom  166 type  1   force =    -0.07467673    0.01247898   -0.14277045
     atom  167 type  1   force =     0.10368163    0.00419314    0.09126403
     atom  168 type  1   force =     0.30910457    0.64872664    0.17292862
     atom  169 type  1   force =    -0.04201955    0.17493882    0.00225776
     atom  170 type  1   force =     0.03227348    0.06822953    0.01504912
     atom  171 type  1   force =    -0.04377512   -0.08826629    0.09445326
     atom  172 type  1   force =    -0.02098819    0.01817038   -0.04642931
     atom  173 type  1   force =    -0.04498822   -0.05558915   -0.19940880
     atom  174 type  1   force =    -0.42037619   -0.12533314    0.46586188
     atom  175 type  1   force =    -0.15683512    0.09972102    0.01543743
     atom  176 type  1   force =     0.01821599    0.00404895    0.16134228
     atom  177 type  1   force =    -0.04903331    0.07302611    0.10680655
     atom  178 type  1   force =    -0.02161866    0.00774676    0.00639872
     atom  179 type  1   force =     0.01944250    0.00003026   -0.05040030
     atom  180 type  1   force =     0.08454766   -0.07271441    0.02071273
     atom  181 type  1   force =     0.00204569    0.00777571   -0.01441714
     atom  182 type  1   force =     0.17834640   -0.05111322   -0.01833949
     atom  183 type  1   force =     0.03399144   -0.03644564   -0.15358336
     atom  184 type  1   force =     0.04506922    0.10133012   -0.00406972
     atom  185 type  1   force =     0.02083504   -0.01141349    0.00213807
     atom  186 type  1   force =     0.15738560    0.08527922   -0.01780251
     atom  187 type  1   force =    -0.00248682    0.00828032   -0.06195113
     atom  188 type  1   force =     0.07131678   -0.14121483   -0.03705294
     atom  189 type  1   force =     0.00883545   -0.08497260   -0.10858339
     atom  190 type  1   force =    -0.01569451   -0.00854910   -0.01585190
     atom  191 type  1   force =     0.12575883   -0.05660333    0.00833933
     atom  192 type  1   force =     0.49744392    0.13407167   -0.52997659
     atom  193 type  1   force =     0.00516424    0.04590656   -0.17391411
     atom  194 type  1   force =     0.01696535   -0.00062245    0.01680777
     atom  195 type  1   force =     0.15826829    0.08305818   -0.02080976
     atom  196 type  1   force =    -0.02087259    0.05855180    0.00666739
     atom  197 type  1   force =    -0.12084268    0.15202488    0.08395465
     atom  198 type  1   force =    -0.25798099   -0.56874341   -0.13974854
     atom  199 type  1   force =    -0.11327334   -0.01916369   -0.14695207
     atom  200 type  1   force =     0.26242841   -0.44247100    0.38066130
     atom  201 type  1   force =    -1.73058594    2.53631955    1.11517061
     atom  202 type  1   force =    -0.11254201    0.11592483   -0.00153650
     atom  203 type  1   force =     0.14402795    0.04327023    0.11034959
     atom  204 type  1   force =    -0.02904923    0.13618585    0.08195615
     atom  205 type  1   force =     0.06450382    0.04853431   -0.07627828
     atom  206 type  1   force =     0.05098427    0.01679241   -0.05505964
     atom  207 type  1   force =    -0.02994824   -0.12623377    0.04271941
     atom  208 type  1   force =    -0.03018750    0.04314407   -0.01231049
     atom  209 type  1   force =    -0.01260158   -0.12202513    0.06006643
     atom  210 type  1   force =    -0.05712427    0.05883256    0.04284780
     atom  211 type  1   force =    -0.07958780   -0.05769560   -0.05637088
     atom  212 type  1   force =     0.00092650    0.05069532    0.01880354
     atom  213 type  1   force =     0.06608262   -0.02234821    0.08929909
     atom  214 type  1   force =    -0.00099128    0.01615560   -0.00292722
     atom  215 type  2   force =    -1.23077592   -3.18936287    2.00463948
     The core correction contribution to forces
     atom    1 type  1   force =    -0.00010210   -0.00006488    0.00011784
     atom    2 type  1   force =    -0.00028294    0.00001696    0.00011720
     atom    3 type  1   force =    -0.00019161   -0.00016074    0.00030933
     atom    4 type  1   force =    -0.00012594    0.00005506    0.00027420
     atom    5 type  1   force =    -0.00080434    0.00122657    0.00050673
     atom    6 type  1   force =    -0.00046091    0.00014637    0.00084316
     atom    7 type  1   force =    -0.00026808   -0.00017929    0.00023286
     atom    8 type  1   force =    -0.00086673    0.00004790    0.00043734
     atom    9 type  1   force =    -0.00055295   -0.00111061    0.00082244
     atom   10 type  1   force =     0.00016468   -0.00018926   -0.00011876
     atom   11 type  1   force =    -0.00023671   -0.00000637   -0.00037124
     atom   12 type  1   force =     0.00015944   -0.00029521    0.00015745
     atom   13 type  1   force =     0.00035535    0.00013730    0.00022082
     atom   14 type  1   force =     0.00174485   -0.00309347   -0.00099425
     atom   15 type  1   force =     0.00493363    0.00111153   -0.00009041
     atom   16 type  1   force =    -0.00007881   -0.00035302   -0.00008080
     atom   17 type  1   force =    -0.00003309   -0.00009360   -0.00505714
     atom   18 type  1   force =    -0.00171499   -0.00364581    0.00259962
     atom   19 type  1   force =     0.00007783   -0.00005300   -0.00006498
     atom   20 type  1   force =    -0.00001584    0.00000331   -0.00040607
     atom   21 type  1   force =     0.00010799   -0.00011572   -0.00013926
     atom   22 type  1   force =     0.00039323    0.00010257    0.00000299
     atom   23 type  1   force =     0.00006081    0.00021159   -0.00011214
     atom   24 type  1   force =     0.00066519   -0.00000425   -0.00007711
     atom   25 type  1   force =     0.00016564   -0.00010172   -0.00008162
     atom   26 type  1   force =     0.00009493   -0.00014262   -0.00064737
     atom   27 type  1   force =     0.00065911   -0.00017915   -0.00061564
     atom   28 type  1   force =     0.00009664    0.00008773    0.00017710
     atom   29 type  1   force =    -0.00016053    0.00056059    0.00031879
     atom   30 type  1   force =     0.00034956    0.00066822    0.00054259
     atom   31 type  1   force =    -0.00018732   -0.00005694    0.00032346
     atom   32 type  1   force =    -0.00171667    0.00454872    0.00130017
     atom   33 type  1   force =    -0.00157978   -0.00399540    0.00212459
     atom   34 type  1   force =    -0.00021240   -0.00033079    0.00002565
     atom   35 type  1   force =    -0.00063434   -0.00058717   -0.00043091
     atom   36 type  1   force =    -0.00050242   -0.00124869    0.00063400
     atom   37 type  1   force =     0.00038195    0.00013398    0.00004547
     atom   38 type  1   force =     0.00006802    0.00019322   -0.00013640
     atom   39 type  1   force =     0.00057640    0.00023810    0.00024718
     atom   40 type  1   force =     0.00042841   -0.00006245   -0.00005179
     atom   41 type  1   force =     0.00051128    0.00029644    0.00361046
     atom   42 type  1   force =     0.00473360    0.00167062    0.00065921
     atom   43 type  1   force =    -0.00001241   -0.00025514   -0.00014993
     atom   44 type  1   force =    -0.00026772   -0.00024512   -0.00151010
     atom   45 type  1   force =    -0.00010582   -0.00082431   -0.00048396
     atom   46 type  1   force =     0.00003380    0.00006750    0.00009929
     atom   47 type  1   force =    -0.00015168    0.00037374    0.00009974
     atom   48 type  1   force =     0.00002111    0.00012122    0.00018512
     atom   49 type  1   force =     0.00006137    0.00009108    0.00026504
     atom   50 type  1   force =    -0.00034346    0.00028460    0.00002658
     atom   51 type  1   force =     0.00012328   -0.00019744    0.00029202
     atom   52 type  1   force =    -0.00007197   -0.00014703    0.00000571
     atom   53 type  1   force =    -0.00021677   -0.00016427   -0.00012912
     atom   54 type  1   force =    -0.00011349   -0.00037522    0.00001628
     atom   55 type  1   force =    -0.00018995    0.00001818   -0.00010949
     atom   56 type  1   force =    -0.00030615   -0.00008578    0.00020463
     atom   57 type  1   force =     0.00004698   -0.00026786    0.00028502
     atom   58 type  1   force =    -0.00044640    0.00049123    0.00003293
     atom   59 type  1   force =    -0.00238421    0.00438674    0.00063262
     atom   60 type  1   force =     0.00053884   -0.00030250    0.00074227
     atom   61 type  1   force =    -0.00067458    0.00041973   -0.00048155
     atom   62 type  1   force =    -0.00116729   -0.00389533    0.00253710
     atom   63 type  1   force =    -0.00033591   -0.00120828    0.00080050
     atom   64 type  1   force =    -0.00006483    0.00002557   -0.00040132
     atom   65 type  1   force =     0.00007729   -0.00014766   -0.00040292
     atom   66 type  1   force =     0.00020542   -0.00020228    0.00006790
     atom   67 type  1   force =     0.00008890    0.00019829   -0.00011552
     atom   68 type  1   force =    -0.00356248   -0.00069202   -0.00046329
     atom   69 type  1   force =     0.00151704    0.00018795    0.00027465
     atom   70 type  1   force =    -0.00027975    0.00003036   -0.00060897
     atom   71 type  1   force =    -0.00089876    0.00030398   -0.00497315
     atom   72 type  1   force =     0.00066139   -0.00063815    0.00028324
     atom   73 type  1   force =    -0.00011140    0.00003227   -0.00004591
     atom   74 type  1   force =    -0.00027718    0.00000893   -0.00007350
     atom   75 type  1   force =     0.00002705   -0.00012301    0.00010473
     atom   76 type  1   force =    -0.00018931    0.00036461    0.00006211
     atom   77 type  1   force =    -0.00010272    0.00034301    0.00026732
     atom   78 type  1   force =     0.00015795   -0.00007334    0.00024559
     atom   79 type  1   force =    -0.00020779    0.00006568   -0.00004378
     atom   80 type  1   force =    -0.00023360   -0.00028404   -0.00006486
     atom   81 type  1   force =     0.00006937   -0.00033084    0.00019915
     atom   82 type  1   force =    -0.00023627    0.00031488    0.00015987
     atom   83 type  1   force =    -0.00083767    0.00127095    0.00021806
     atom   84 type  1   force =     0.00004701    0.00002836    0.00040265
     atom   85 type  1   force =    -0.00053535    0.00134432    0.00052039
     atom   86 type  1   force =    -0.00114736    0.00015997    0.00110855
     atom   87 type  1   force =    -0.00053005   -0.00127812    0.00050732
     atom   88 type  1   force =    -0.00039648   -0.00007925   -0.00004084
     atom   89 type  1   force =    -0.00020672   -0.00119968    0.00083066
     atom   90 type  1   force =    -0.00019375   -0.00048804    0.00031216
     atom   91 type  1   force =    -0.00016778    0.00037141    0.00007766
     atom   92 type  1   force =     0.00042384    0.00091099    0.00019633
     atom   93 type  1   force =     0.00151990    0.00021592   -0.00001973
     atom   94 type  1   force =    -0.00039332    0.00071272   -0.00062082
     atom   95 type  1   force =     0.00104170   -0.00082449    0.00088618
     atom   96 type  1   force =     0.00001174   -0.00015002   -0.00152790
     atom   97 type  1   force =    -0.00063672   -0.00123175   -0.00079223
     atom   98 type  1   force =    -0.00062333   -0.00101463    0.00086952
     atom   99 type  1   force =     0.00005737    0.00016345   -0.00009703
     atom  100 type  1   force =     0.00038875    0.00012180    0.00002188
     atom  101 type  1   force =     0.00040424    0.00002707    0.00009535
     atom  102 type  1   force =    -0.00003884    0.00001805   -0.00040571
     atom  103 type  1   force =     0.00067198    0.00023279   -0.00072845
     atom  104 type  1   force =     0.00142909    0.00046195    0.00032211
     atom  105 type  1   force =    -0.00008744   -0.00009224   -0.00039634
     atom  106 type  1   force =    -0.00038091    0.00002276   -0.00148790
     atom  107 type  1   force =     0.00018146   -0.00033911   -0.00009918
     atom  108 type  1   force =    -0.00024474    0.00023110    0.00018866
     atom  109 type  1   force =    -0.00035582    0.00059550   -0.00010297
     atom  110 type  1   force =     0.00002407   -0.00003474    0.00079881
     atom  111 type  1   force =    -0.00005051    0.00066958    0.00020234
     atom  112 type  1   force =    -0.00170451    0.00069434    0.00153605
     atom  113 type  1   force =     0.00110478    0.00187815    0.00292590
     atom  114 type  1   force =    -0.00076710   -0.00022670    0.00000764
     atom  115 type  1   force =    -0.00325332    0.00082069   -0.00143220
     atom  116 type  1   force =    -0.00034526   -0.00080410    0.00054037
     atom  117 type  1   force =     0.00026285    0.00006382   -0.00027834
     atom  118 type  1   force =     0.00012562    0.00046681   -0.00042747
     atom  119 type  1   force =     0.00058946    0.00017055   -0.00019871
     atom  120 type  1   force =     0.00030881    0.00051126   -0.00024428
     atom  121 type  1   force =     0.00183075   -0.00089400    0.00118387
     atom  122 type  1   force =     0.00016968    0.00006869   -0.00061849
     atom  123 type  1   force =    -0.00088694   -0.00155343   -0.00153383
     atom  124 type  1   force =     0.00242294   -0.00173510   -0.00200194
     atom  125 type  1   force =    -0.00000821    0.00007427   -0.00000981
     atom  126 type  1   force =    -0.00023654    0.00028908   -0.00022813
     atom  127 type  1   force =     0.00029475   -0.00001170    0.00013378
     atom  128 type  1   force =     0.00014670    0.00038207    0.00015511
     atom  129 type  1   force =     0.00006986    0.00061880   -0.00022000
     atom  130 type  1   force =     0.00049726    0.00042373    0.00014623
     atom  131 type  1   force =    -0.00011877   -0.00011203   -0.00027974
     atom  132 type  1   force =    -0.00022770    0.00024782   -0.00057873
     atom  133 type  1   force =     0.00026457   -0.00069066   -0.00009699
     atom  134 type  1   force =    -0.00006108    0.00044172    0.00015511
     atom  135 type  1   force =    -0.00010832    0.00257390   -0.00039784
     atom  136 type  1   force =    -0.00100086    0.00025855    0.00341059
     atom  137 type  1   force =    -0.00023126    0.00024620   -0.00019473
     atom  138 type  1   force =    -0.00846405   -0.00107859   -0.00146171
     atom  139 type  1   force =     0.00082886   -0.00177991    0.00156450
     atom  140 type  1   force =    -0.00054438   -0.00000481    0.00049309
     atom  141 type  1   force =    -0.00073484   -0.00028444   -0.00030032
     atom  142 type  1   force =    -0.00020557   -0.00046353    0.00008358
     atom  143 type  1   force =     0.00024822    0.00018230   -0.00002039
     atom  144 type  1   force =    -0.00021564    0.00126323   -0.00094190
     atom  145 type  1   force =     0.00095494    0.00037564    0.00002405
     atom  146 type  1   force =     0.00008863    0.00003361   -0.00040245
     atom  147 type  1   force =     0.00038870    0.00121790   -0.00226886
     atom  148 type  1   force =     0.00027943   -0.00322389   -0.00134968
     atom  149 type  1   force =     0.00002530   -0.00012251   -0.00036761
     atom  150 type  1   force =    -0.00022297   -0.00019531   -0.00047215
     atom  151 type  1   force =     0.00056357   -0.00064250   -0.00024464
     atom  152 type  1   force =    -0.00014528    0.00034286    0.00026716
     atom  153 type  1   force =    -0.00042340    0.00035351    0.00027695
     atom  154 type  1   force =     0.00025908    0.00018895    0.00089026
     atom  155 type  1   force =    -0.00034523   -0.00054297   -0.00024050
     atom  156 type  1   force =    -0.00085480    0.00004297    0.00014637
     atom  157 type  1   force =    -0.00028768   -0.00023806    0.00039119
     atom  158 type  1   force =    -0.00022999   -0.00003216    0.00000888
     atom  159 type  1   force =    -0.00059244    0.00046961   -0.00045700
     atom  160 type  1   force =    -0.00008698   -0.00032803    0.00026300
     atom  161 type  1   force =    -0.00025654    0.00039429   -0.00004035
     atom  162 type  1   force =     0.00012452    0.00033253    0.00016105
     atom  163 type  1   force =    -0.00049343    0.00000756    0.00054403
     atom  164 type  1   force =    -0.00022330    0.00254601   -0.00051283
     atom  165 type  1   force =     0.00143212    0.00132263    0.00843447
     atom  166 type  1   force =     0.00033776   -0.00002417    0.00077228
     atom  167 type  1   force =    -0.00340262   -0.00032422    0.00100882
     atom  168 type  1   force =    -0.00107652   -0.00224224   -0.00034090
     atom  169 type  1   force =     0.00002218   -0.00040826    0.00031133
     atom  170 type  1   force =    -0.00001606    0.00011817   -0.00028468
     atom  171 type  1   force =     0.00038556    0.00010565   -0.00010552
     atom  172 type  1   force =     0.00038670   -0.00003482   -0.00000622
     atom  173 type  1   force =     0.00061106    0.00146382   -0.00011521
     atom  174 type  1   force =     0.00192804    0.00159141   -0.00072953
     atom  175 type  1   force =     0.00049831   -0.00002030    0.00024913
     atom  176 type  1   force =    -0.00008460    0.00012341   -0.00101548
     atom  177 type  1   force =     0.00207895   -0.00278726    0.00044985
     atom  178 type  1   force =     0.00040519   -0.00068093   -0.00040301
     atom  179 type  1   force =    -0.00034449    0.00029452    0.00006795
     atom  180 type  1   force =     0.00035173   -0.00037387    0.00045646
     atom  181 type  1   force =    -0.00000763    0.00002179    0.00023124
     atom  182 type  1   force =    -0.00036446    0.00036781    0.00033589
     atom  183 type  1   force =    -0.00017675    0.00020749    0.00082442
     atom  184 type  1   force =     0.00031630    0.00069012    0.00045174
     atom  185 type  1   force =    -0.00090194   -0.00009276   -0.00027074
     atom  186 type  1   force =    -0.00033211   -0.00024884    0.00034675
     atom  187 type  1   force =    -0.00018065   -0.00035076    0.00016933
     atom  188 type  1   force =    -0.00040006    0.00098403    0.00016129
     atom  189 type  1   force =     0.00135553   -0.00080710    0.00316543
     atom  190 type  1   force =     0.00005241    0.00028190    0.00091149
     atom  191 type  1   force =    -0.00284591   -0.00182654   -0.00103601
     atom  192 type  1   force =    -0.00165288   -0.00066151    0.00181340
     atom  193 type  1   force =     0.00000868   -0.00037173    0.00036173
     atom  194 type  1   force =    -0.00095038    0.00003858   -0.00009129
     atom  195 type  1   force =    -0.00026352   -0.00043778    0.00008953
     atom  196 type  1   force =    -0.00020927   -0.00027318    0.00027555
     atom  197 type  1   force =     0.00086099    0.00077229   -0.00104837
     atom  198 type  1   force =     0.00188496    0.00168870   -0.00059203
     atom  199 type  1   force =     0.00051680   -0.00006971    0.00018202
     atom  200 type  1   force =     0.00023097    0.00128738   -0.00224601
     atom  201 type  1   force =     0.00445591   -0.00690982   -0.00277930
     atom  202 type  1   force =     0.00054361   -0.00058623    0.00000477
     atom  203 type  1   force =    -0.00014560   -0.00023044   -0.00048038
     atom  204 type  1   force =     0.00014908   -0.00068196   -0.00038975
     atom  205 type  1   force =     0.00059097   -0.00006370   -0.00057552
     atom  206 type  1   force =    -0.00009600    0.00033764    0.00001408
     atom  207 type  1   force =     0.00032657    0.00026765    0.00011538
     atom  208 type  1   force =     0.00032623    0.00013055    0.00021938
     atom  209 type  1   force =    -0.00016582    0.00014817   -0.00037702
     atom  210 type  1   force =     0.00023296    0.00003733   -0.00024201
     atom  211 type  1   force =    -0.00028069   -0.00057051   -0.00024591
     atom  212 type  1   force =    -0.00023455   -0.00000553   -0.00034140
     atom  213 type  1   force =     0.00036532   -0.00041377    0.00040010
     atom  214 type  1   force =     0.00006032   -0.00016324   -0.00002072
     atom  215 type  2   force =     0.00673368    0.01744113   -0.01096570
     The Hubbard contrib.    to forces
     atom    1 type  1   force =     0.00000000    0.00000000    0.00000000
     atom    2 type  1   force =     0.00000000    0.00000000    0.00000000
     atom    3 type  1   force =     0.00000000    0.00000000    0.00000000
     atom    4 type  1   force =     0.00000000    0.00000000    0.00000000
     atom    5 type  1   force =     0.00000000    0.00000000    0.00000000
     atom    6 type  1   force =     0.00000000    0.00000000    0.00000000
     atom    7 type  1   force =     0.00000000    0.00000000    0.00000000
     atom    8 type  1   force =     0.00000000    0.00000000    0.00000000
     atom    9 type  1   force =     0.00000000    0.00000000    0.00000000
     atom   10 type  1   force =     0.00000000    0.00000000    0.00000000
     atom   11 type  1   force =     0.00000000    0.00000000    0.00000000
     atom   12 type  1   force =     0.00000000    0.00000000    0.00000000
     atom   13 type  1   force =     0.00000000    0.00000000    0.00000000
     atom   14 type  1   force =     0.00000000    0.00000000    0.00000000
     atom   15 type  1   force =     0.00000000    0.00000000    0.00000000
     atom   16 type  1   force =     0.00000000    0.00000000    0.00000000
     atom   17 type  1   force =     0.00000000    0.00000000    0.00000000
     atom   18 type  1   force =     0.00000000    0.00000000    0.00000000
     atom   19 type  1   force =     0.00000000    0.00000000    0.00000000
     atom   20 type  1   force =     0.00000000    0.00000000    0.00000000
     atom   21 type  1   force =     0.00000000    0.00000000    0.00000000
     atom   22 type  1   force =     0.00000000    0.00000000    0.00000000
     atom   23 type  1   force =     0.00000000    0.00000000    0.00000000
     atom   24 type  1   force =     0.00000000    0.00000000    0.00000000
     atom   25 type  1   force =     0.00000000    0.00000000    0.00000000
     atom   26 type  1   force =     0.00000000    0.00000000    0.00000000
     atom   27 type  1   force =     0.00000000    0.00000000    0.00000000
     atom   28 type  1   force =     0.00000000    0.00000000    0.00000000
     atom   29 type  1   force =     0.00000000    0.00000000    0.00000000
     atom   30 type  1   force =     0.00000000    0.00000000    0.00000000
     atom   31 type  1   force =     0.00000000    0.00000000    0.00000000
     atom   32 type  1   force =     0.00000000    0.00000000    0.00000000
     atom   33 type  1   force =     0.00000000    0.00000000    0.00000000
     atom   34 type  1   force =     0.00000000    0.00000000    0.00000000
     atom   35 type  1   force =     0.00000000    0.00000000    0.00000000
     atom   36 type  1   force =     0.00000000    0.00000000    0.00000000
     atom   37 type  1   force =     0.00000000    0.00000000    0.00000000
     atom   38 type  1   force =     0.00000000    0.00000000    0.00000000
     atom   39 type  1   force =     0.00000000    0.00000000    0.00000000
     atom   40 type  1   force =     0.00000000    0.00000000    0.00000000
     atom   41 type  1   force =     0.00000000    0.00000000    0.00000000
     atom   42 type  1   force =     0.00000000    0.00000000    0.00000000
     atom   43 type  1   force =     0.00000000    0.00000000    0.00000000
     atom   44 type  1   force =     0.00000000    0.00000000    0.00000000
     atom   45 type  1   force =     0.00000000    0.00000000    0.00000000
     atom   46 type  1   force =     0.00000000    0.00000000    0.00000000
     atom   47 type  1   force =     0.00000000    0.00000000    0.00000000
     atom   48 type  1   force =     0.00000000    0.00000000    0.00000000
     atom   49 type  1   force =     0.00000000    0.00000000    0.00000000
     atom   50 type  1   force =     0.00000000    0.00000000    0.00000000
     atom   51 type  1   force =     0.00000000    0.00000000    0.00000000
     atom   52 type  1   force =     0.00000000    0.00000000    0.00000000
     atom   53 type  1   force =     0.00000000    0.00000000    0.00000000
     atom   54 type  1   force =     0.00000000    0.00000000    0.00000000
     atom   55 type  1   force =     0.00000000    0.00000000    0.00000000
     atom   56 type  1   force =     0.00000000    0.00000000    0.00000000
     atom   57 type  1   force =     0.00000000    0.00000000    0.00000000
     atom   58 type  1   force =     0.00000000    0.00000000    0.00000000
     atom   59 type  1   force =     0.00000000    0.00000000    0.00000000
     atom   60 type  1   force =     0.00000000    0.00000000    0.00000000
     atom   61 type  1   force =     0.00000000    0.00000000    0.00000000
     atom   62 type  1   force =     0.00000000    0.00000000    0.00000000
     atom   63 type  1   force =     0.00000000    0.00000000    0.00000000
     atom   64 type  1   force =     0.00000000    0.00000000    0.00000000
     atom   65 type  1   force =     0.00000000    0.00000000    0.00000000
     atom   66 type  1   force =     0.00000000    0.00000000    0.00000000
     atom   67 type  1   force =     0.00000000    0.00000000    0.00000000
     atom   68 type  1   force =     0.00000000    0.00000000    0.00000000
     atom   69 type  1   force =     0.00000000    0.00000000    0.00000000
     atom   70 type  1   force =     0.00000000    0.00000000    0.00000000
     atom   71 type  1   force =     0.00000000    0.00000000    0.00000000
     atom   72 type  1   force =     0.00000000    0.00000000    0.00000000
     atom   73 type  1   force =     0.00000000    0.00000000    0.00000000
     atom   74 type  1   force =     0.00000000    0.00000000    0.00000000
     atom   75 type  1   force =     0.00000000    0.00000000    0.00000000
     atom   76 type  1   force =     0.00000000    0.00000000    0.00000000
     atom   77 type  1   force =     0.00000000    0.00000000    0.00000000
     atom   78 type  1   force =     0.00000000    0.00000000    0.00000000
     atom   79 type  1   force =     0.00000000    0.00000000    0.00000000
     atom   80 type  1   force =     0.00000000    0.00000000    0.00000000
     atom   81 type  1   force =     0.00000000    0.00000000    0.00000000
     atom   82 type  1   force =     0.00000000    0.00000000    0.00000000
     atom   83 type  1   force =     0.00000000    0.00000000    0.00000000
     atom   84 type  1   force =     0.00000000    0.00000000    0.00000000
     atom   85 type  1   force =     0.00000000    0.00000000    0.00000000
     atom   86 type  1   force =     0.00000000    0.00000000    0.00000000
     atom   87 type  1   force =     0.00000000    0.00000000    0.00000000
     atom   88 type  1   force =     0.00000000    0.00000000    0.00000000
     atom   89 type  1   force =     0.00000000    0.00000000    0.00000000
     atom   90 type  1   force =     0.00000000    0.00000000    0.00000000
     atom   91 type  1   force =     0.00000000    0.00000000    0.00000000
     atom   92 type  1   force =     0.00000000    0.00000000    0.00000000
     atom   93 type  1   force =     0.00000000    0.00000000    0.00000000
     atom   94 type  1   force =     0.00000000    0.00000000    0.00000000
     atom   95 type  1   force =     0.00000000    0.00000000    0.00000000
     atom   96 type  1   force =     0.00000000    0.00000000    0.00000000
     atom   97 type  1   force =     0.00000000    0.00000000    0.00000000
     atom   98 type  1   force =     0.00000000    0.00000000    0.00000000
     atom   99 type  1   force =     0.00000000    0.00000000    0.00000000
     atom  100 type  1   force =     0.00000000    0.00000000    0.00000000
     atom  101 type  1   force =     0.00000000    0.00000000    0.00000000
     atom  102 type  1   force =     0.00000000    0.00000000    0.00000000
     atom  103 type  1   force =     0.00000000    0.00000000    0.00000000
     atom  104 type  1   force =     0.00000000    0.00000000    0.00000000
     atom  105 type  1   force =     0.00000000    0.00000000    0.00000000
     atom  106 type  1   force =     0.00000000    0.00000000    0.00000000
     atom  107 type  1   force =     0.00000000    0.00000000    0.00000000
     atom  108 type  1   force =     0.00000000    0.00000000    0.00000000
     atom  109 type  1   force =     0.00000000    0.00000000    0.00000000
     atom  110 type  1   force =     0.00000000    0.00000000    0.00000000
     atom  111 type  1   force =     0.00000000    0.00000000    0.00000000
     atom  112 type  1   force =     0.00000000    0.00000000    0.00000000
     atom  113 type  1   force =     0.00000000    0.00000000    0.00000000
     atom  114 type  1   force =     0.00000000    0.00000000    0.00000000
     atom  115 type  1   force =     0.00000000    0.00000000    0.00000000
     atom  116 type  1   force =     0.00000000    0.00000000    0.00000000
     atom  117 type  1   force =     0.00000000    0.00000000    0.00000000
     atom  118 type  1   force =     0.00000000    0.00000000    0.00000000
     atom  119 type  1   force =     0.00000000    0.00000000    0.00000000
     atom  120 type  1   force =     0.00000000    0.00000000    0.00000000
     atom  121 type  1   force =     0.00000000    0.00000000    0.00000000
     atom  122 type  1   force =     0.00000000    0.00000000    0.00000000
     atom  123 type  1   force =     0.00000000    0.00000000    0.00000000
     atom  124 type  1   force =     0.00000000    0.00000000    0.00000000
     atom  125 type  1   force =     0.00000000    0.00000000    0.00000000
     atom  126 type  1   force =     0.00000000    0.00000000    0.00000000
     atom  127 type  1   force =     0.00000000    0.00000000    0.00000000
     atom  128 type  1   force =     0.00000000    0.00000000    0.00000000
     atom  129 type  1   force =     0.00000000    0.00000000    0.00000000
     atom  130 type  1   force =     0.00000000    0.00000000    0.00000000
     atom  131 type  1   force =     0.00000000    0.00000000    0.00000000
     atom  132 type  1   force =     0.00000000    0.00000000    0.00000000
     atom  133 type  1   force =     0.00000000    0.00000000    0.00000000
     atom  134 type  1   force =     0.00000000    0.00000000    0.00000000
     atom  135 type  1   force =     0.00000000    0.00000000    0.00000000
     atom  136 type  1   force =     0.00000000    0.00000000    0.00000000
     atom  137 type  1   force =     0.00000000    0.00000000    0.00000000
     atom  138 type  1   force =     0.00000000    0.00000000    0.00000000
     atom  139 type  1   force =     0.00000000    0.00000000    0.00000000
     atom  140 type  1   force =     0.00000000    0.00000000    0.00000000
     atom  141 type  1   force =     0.00000000    0.00000000    0.00000000
     atom  142 type  1   force =     0.00000000    0.00000000    0.00000000
     atom  143 type  1   force =     0.00000000    0.00000000    0.00000000
     atom  144 type  1   force =     0.00000000    0.00000000    0.00000000
     atom  145 type  1   force =     0.00000000    0.00000000    0.00000000
     atom  146 type  1   force =     0.00000000    0.00000000    0.00000000
     atom  147 type  1   force =     0.00000000    0.00000000    0.00000000
     atom  148 type  1   force =     0.00000000    0.00000000    0.00000000
     atom  149 type  1   force =     0.00000000    0.00000000    0.00000000
     atom  150 type  1   force =     0.00000000    0.00000000    0.00000000
     atom  151 type  1   force =     0.00000000    0.00000000    0.00000000
     atom  152 type  1   force =     0.00000000    0.00000000    0.00000000
     atom  153 type  1   force =     0.00000000    0.00000000    0.00000000
     atom  154 type  1   force =     0.00000000    0.00000000    0.00000000
     atom  155 type  1   force =     0.00000000    0.00000000    0.00000000
     atom  156 type  1   force =     0.00000000    0.00000000    0.00000000
     atom  157 type  1   force =     0.00000000    0.00000000    0.00000000
     atom  158 type  1   force =     0.00000000    0.00000000    0.00000000
     atom  159 type  1   force =     0.00000000    0.00000000    0.00000000
     atom  160 type  1   force =     0.00000000    0.00000000    0.00000000
     atom  161 type  1   force =     0.00000000    0.00000000    0.00000000
     atom  162 type  1   force =     0.00000000    0.00000000    0.00000000
     atom  163 type  1   force =     0.00000000    0.00000000    0.00000000
     atom  164 type  1   force =     0.00000000    0.00000000    0.00000000
     atom  165 type  1   force =     0.00000000    0.00000000    0.00000000
     atom  166 type  1   force =     0.00000000    0.00000000    0.00000000
     atom  167 type  1   force =     0.00000000    0.00000000    0.00000000
     atom  168 type  1   force =     0.00000000    0.00000000    0.00000000
     atom  169 type  1   force =     0.00000000    0.00000000    0.00000000
     atom  170 type  1   force =     0.00000000    0.00000000    0.00000000
     atom  171 type  1   force =     0.00000000    0.00000000    0.00000000
     atom  172 type  1   force =     0.00000000    0.00000000    0.00000000
     atom  173 type  1   force =     0.00000000    0.00000000    0.00000000
     atom  174 type  1   force =     0.00000000    0.00000000    0.00000000
     atom  175 type  1   force =     0.00000000    0.00000000    0.00000000
     atom  176 type  1   force =     0.00000000    0.00000000    0.00000000
     atom  177 type  1   force =     0.00000000    0.00000000    0.00000000
     atom  178 type  1   force =     0.00000000    0.00000000    0.00000000
     atom  179 type  1   force =     0.00000000    0.00000000    0.00000000
     atom  180 type  1   force =     0.00000000    0.00000000    0.00000000
     atom  181 type  1   force =     0.00000000    0.00000000    0.00000000
     atom  182 type  1   force =     0.00000000    0.00000000    0.00000000
     atom  183 type  1   force =     0.00000000    0.00000000    0.00000000
     atom  184 type  1   force =     0.00000000    0.00000000    0.00000000
     atom  185 type  1   force =     0.00000000    0.00000000    0.00000000
     atom  186 type  1   force =     0.00000000    0.00000000    0.00000000
     atom  187 type  1   force =     0.00000000    0.00000000    0.00000000
     atom  188 type  1   force =     0.00000000    0.00000000    0.00000000
     atom  189 type  1   force =     0.00000000    0.00000000    0.00000000
     atom  190 type  1   force =     0.00000000    0.00000000    0.00000000
     atom  191 type  1   force =     0.00000000    0.00000000    0.00000000
     atom  192 type  1   force =     0.00000000    0.00000000    0.00000000
     atom  193 type  1   force =     0.00000000    0.00000000    0.00000000
     atom  194 type  1   force =     0.00000000    0.00000000    0.00000000
     atom  195 type  1   force =     0.00000000    0.00000000    0.00000000
     atom  196 type  1   force =     0.00000000    0.00000000    0.00000000
     atom  197 type  1   force =     0.00000000    0.00000000    0.00000000
     atom  198 type  1   force =     0.00000000    0.00000000    0.00000000
     atom  199 type  1   force =     0.00000000    0.00000000    0.00000000
     atom  200 type  1   force =     0.00000000    0.00000000    0.00000000
     atom  201 type  1   force =     0.00000000    0.00000000    0.00000000
     atom  202 type  1   force =     0.00000000    0.00000000    0.00000000
     atom  203 type  1   force =     0.00000000    0.00000000    0.00000000
     atom  204 type  1   force =     0.00000000    0.00000000    0.00000000
     atom  205 type  1   force =     0.00000000    0.00000000    0.00000000
     atom  206 type  1   force =     0.00000000    0.00000000    0.00000000
     atom  207 type  1   force =     0.00000000    0.00000000    0.00000000
     atom  208 type  1   force =     0.00000000    0.00000000    0.00000000
     atom  209 type  1   force =     0.00000000    0.00000000    0.00000000
     atom  210 type  1   force =     0.00000000    0.00000000    0.00000000
     atom  211 type  1   force =     0.00000000    0.00000000    0.00000000
     atom  212 type  1   force =     0.00000000    0.00000000    0.00000000
     atom  213 type  1   force =     0.00000000    0.00000000    0.00000000
     atom  214 type  1   force =     0.00000000    0.00000000    0.00000000
     atom  215 type  2   force =     0.00000000    0.00000000    0.00000000
     The SCF correction term to forces
     atom    1 type  1   force =    -0.00000512    0.00000225    0.00000225
     atom    2 type  1   force =    -0.00000585    0.00000521    0.00000201
     atom    3 type  1   force =     0.00000257   -0.00000313    0.00000840
     atom    4 type  1   force =    -0.00000392    0.00000863    0.00000366
     atom    5 type  1   force =    -0.00000896    0.00001952    0.00000603
     atom    6 type  1   force =     0.00000975    0.00000582    0.00002570
     atom    7 type  1   force =    -0.00000880   -0.00000357   -0.00000251
     atom    8 type  1   force =    -0.00002521   -0.00000324   -0.00000848
     atom    9 type  1   force =    -0.00000257   -0.00003208    0.00001125
     atom   10 type  1   force =    -0.00000308    0.00000285    0.00000010
     atom   11 type  1   force =    -0.00000573    0.00000499   -0.00001742
     atom   12 type  1   force =     0.00001196   -0.00001150    0.00001155
     atom   13 type  1   force =     0.00001477    0.00001320    0.00000338
     atom   14 type  1   force =     0.00001065    0.00002632   -0.00001538
     atom   15 type  1   force =     0.00002123    0.00001184    0.00000574
     atom   16 type  1   force =    -0.00000935   -0.00001449   -0.00000969
     atom   17 type  1   force =    -0.00000639    0.00000435   -0.00002285
     atom   18 type  1   force =     0.00000583   -0.00002652    0.00000148
     atom   19 type  1   force =     0.00000334    0.00000322   -0.00000638
     atom   20 type  1   force =    -0.00000501   -0.00000395   -0.00000164
     atom   21 type  1   force =     0.00000856   -0.00000029    0.00000149
     atom   22 type  1   force =     0.00000178    0.00000084    0.00000510
     atom   23 type  1   force =    -0.00000987    0.00001360    0.00000857
     atom   24 type  1   force =     0.00000834    0.00000685    0.00000948
     atom   25 type  1   force =    -0.00000223   -0.00000109   -0.00000982
     atom   26 type  1   force =    -0.00000925    0.00000164   -0.00000841
     atom   27 type  1   force =     0.00000749   -0.00002148   -0.00000159
     atom   28 type  1   force =     0.00000247    0.00001354    0.00000140
     atom   29 type  1   force =    -0.00000363    0.00001363   -0.00000492
     atom   30 type  1   force =     0.00001062    0.00000294    0.00002173
     atom   31 type  1   force =    -0.00001111   -0.00000158    0.00000593
     atom   32 type  1   force =    -0.00000910    0.00001787   -0.00000907
     atom   33 type  1   force =     0.00000326   -0.00001505    0.00001797
     atom   34 type  1   force =    -0.00000584   -0.00000414   -0.00000600
     atom   35 type  1   force =    -0.00002195   -0.00000251   -0.00001062
     atom   36 type  1   force =    -0.00000167   -0.00002410    0.00001808
     atom   37 type  1   force =     0.00000352    0.00000150    0.00000361
     atom   38 type  1   force =    -0.00000218    0.00000002   -0.00001256
     atom   39 type  1   force =     0.00001362    0.00000177   -0.00000065
     atom   40 type  1   force =     0.00001357    0.00000218   -0.00000710
     atom   41 type  1   force =     0.00000762    0.00002113   -0.00001556
     atom   42 type  1   force =     0.00001837   -0.00000071   -0.00000613
     atom   43 type  1   force =    -0.00000531   -0.00000315   -0.00000860
     atom   44 type  1   force =    -0.00000446   -0.00000441   -0.00001875
     atom   45 type  1   force =     0.00001441   -0.00001963   -0.00000642
     atom   46 type  1   force =     0.00000244    0.00001268    0.00000478
     atom   47 type  1   force =    -0.00000619    0.00000527    0.00000715
     atom   48 type  1   force =     0.00000841    0.00000644    0.00000930
     atom   49 type  1   force =    -0.00000595   -0.00000218   -0.00000175
     atom   50 type  1   force =    -0.00001476    0.00001366   -0.00000024
     atom   51 type  1   force =     0.00000611   -0.00001501    0.00001400
     atom   52 type  1   force =    -0.00000720   -0.00000539   -0.00000381
     atom   53 type  1   force =    -0.00000698   -0.00000492   -0.00000592
     atom   54 type  1   force =    -0.00000032   -0.00001059    0.00000321
     atom   55 type  1   force =    -0.00000576    0.00001009   -0.00000697
     atom   56 type  1   force =    -0.00000525   -0.00000354    0.00001156
     atom   57 type  1   force =     0.00000448   -0.00000216    0.00000438
     atom   58 type  1   force =     0.00000189    0.00001645    0.00000058
     atom   59 type  1   force =     0.00000693    0.00002039    0.00000646
     atom   60 type  1   force =     0.00000974    0.00000811    0.00002098
     atom   61 type  1   force =    -0.00002165   -0.00000365   -0.00001047
     atom   62 type  1   force =    -0.00001210   -0.00002054    0.00000320
     atom   63 type  1   force =    -0.00001276   -0.00002493    0.00000720
     atom   64 type  1   force =    -0.00000485   -0.00000210   -0.00000489
     atom   65 type  1   force =     0.00000712   -0.00000263   -0.00001372
     atom   66 type  1   force =     0.00000683   -0.00000061    0.00000378
     atom   67 type  1   force =     0.00001262    0.00000514    0.00000248
     atom   68 type  1   force =     0.00001249    0.00002176   -0.00001071
     atom   69 type  1   force =     0.00001855    0.00000419    0.00000454
     atom   70 type  1   force =     0.00000055   -0.00000062   -0.00001374
     atom   71 type  1   force =     0.00000837   -0.00000456   -0.00001628
     atom   72 type  1   force =     0.00001047   -0.00001887   -0.00001050
     atom   73 type  1   force =    -0.00000874    0.00000867   -0.00000636
     atom   74 type  1   force =     0.00000186   -0.00000324    0.00000647
     atom   75 type  1   force =     0.00000305   -0.00000342    0.00000637
     atom   76 type  1   force =    -0.00000761    0.00000637    0.00000548
     atom   77 type  1   force =    -0.00000144    0.00001661    0.00001319
     atom   78 type  1   force =     0.00000644    0.00000080    0.00000727
     atom   79 type  1   force =    -0.00001056    0.00000265   -0.00000971
     atom   80 type  1   force =    -0.00000839   -0.00001960   -0.00000042
     atom   81 type  1   force =    -0.00000124   -0.00000934    0.00000222
     atom   82 type  1   force =    -0.00000400    0.00001346    0.00000029
     atom   83 type  1   force =     0.00000208    0.00000776    0.00001561
     atom   84 type  1   force =     0.00000566    0.00000565    0.00000910
     atom   85 type  1   force =    -0.00001635    0.00000533   -0.00000279
     atom   86 type  1   force =    -0.00001134   -0.00000014    0.00001391
     atom   87 type  1   force =    -0.00000293   -0.00001271    0.00001165
     atom   88 type  1   force =    -0.00001152    0.00000075   -0.00000737
     atom   89 type  1   force =    -0.00000803   -0.00001680    0.00000679
     atom   90 type  1   force =     0.00000024   -0.00000323   -0.00000100
     atom   91 type  1   force =     0.00000552    0.00000733   -0.00000774
     atom   92 type  1   force =     0.00000709    0.00000711   -0.00001127
     atom   93 type  1   force =     0.00001057    0.00000425    0.00001195
     atom   94 type  1   force =     0.00001013    0.00000993   -0.00000805
     atom   95 type  1   force =     0.00001411   -0.00000987    0.00000634
     atom   96 type  1   force =    -0.00001343   -0.00000256   -0.00001228
     atom   97 type  1   force =    -0.00000276   -0.00001739   -0.00001092
     atom   98 type  1   force =    -0.00000079   -0.00001702    0.00000307
     atom   99 type  1   force =    -0.00000387    0.00000141    0.00000333
     atom  100 type  1   force =    -0.00000204    0.00000665    0.00000095
     atom  101 type  1   force =     0.00000781    0.00000475    0.00000467
     atom  102 type  1   force =    -0.00000185    0.00000842    0.00000105
     atom  103 type  1   force =    -0.00000329    0.00001022    0.00000327
     atom  104 type  1   force =     0.00000742   -0.00000963    0.00000024
     atom  105 type  1   force =    -0.00000632    0.00000040   -0.00000983
     atom  106 type  1   force =     0.00000251   -0.00001377   -0.00000448
     atom  107 type  1   force =     0.00000211   -0.00000652   -0.00000197
     atom  108 type  1   force =    -0.00000383    0.00001160   -0.00000082
     atom  109 type  1   force =    -0.00000446    0.00000630    0.00000795
     atom  110 type  1   force =     0.00000651    0.00000050    0.00001109
     atom  111 type  1   force =    -0.00000921    0.00000796    0.00000309
     atom  112 type  1   force =    -0.00000645    0.00002144    0.00000393
     atom  113 type  1   force =     0.00000587   -0.00000487    0.00002704
     atom  114 type  1   force =    -0.00001235   -0.00000297   -0.00000722
     atom  115 type  1   force =    -0.00002427   -0.00001464   -0.00000234
     atom  116 type  1   force =    -0.00000376   -0.00002145    0.00000848
     atom  117 type  1   force =    -0.00000108    0.00000299   -0.00000124
     atom  118 type  1   force =     0.00000087    0.00000221   -0.00002157
     atom  119 type  1   force =     0.00001253   -0.00000267    0.00000872
     atom  120 type  1   force =     0.00002054    0.00000964   -0.00000171
     atom  121 type  1   force =     0.00002386    0.00000495    0.00000123
     atom  122 type  1   force =    -0.00000852   -0.00000720   -0.00001271
     atom  123 type  1   force =    -0.00000046   -0.00000354   -0.00002373
     atom  124 type  1   force =     0.00000987   -0.00002816   -0.00000387
     atom  125 type  1   force =    -0.00000032    0.00001143   -0.00000392
     atom  126 type  1   force =    -0.00000200    0.00000065    0.00000451
     atom  127 type  1   force =     0.00000850    0.00000217    0.00000635
     atom  128 type  1   force =    -0.00000457    0.00000264    0.00000188
     atom  129 type  1   force =    -0.00001126    0.00002047    0.00000867
     atom  130 type  1   force =     0.00000835   -0.00000600    0.00000948
     atom  131 type  1   force =    -0.00000763   -0.00000101   -0.00001007
     atom  132 type  1   force =    -0.00000662   -0.00001172   -0.00000548
     atom  133 type  1   force =     0.00000153   -0.00001269    0.00000113
     atom  134 type  1   force =     0.00000852    0.00001394   -0.00000072
     atom  135 type  1   force =     0.00000440    0.00001676   -0.00001203
     atom  136 type  1   force =     0.00001659    0.00000789    0.00002093
     atom  137 type  1   force =    -0.00001200   -0.00000595   -0.00000485
     atom  138 type  1   force =    -0.00000072    0.00000727   -0.00001394
     atom  139 type  1   force =    -0.00000167   -0.00002586    0.00001073
     atom  140 type  1   force =    -0.00000844    0.00000252   -0.00000802
     atom  141 type  1   force =    -0.00001194   -0.00000198   -0.00000768
     atom  142 type  1   force =     0.00000467   -0.00001488    0.00001330
     atom  143 type  1   force =     0.00000139   -0.00000133    0.00000612
     atom  144 type  1   force =    -0.00000802    0.00001003   -0.00000443
     atom  145 type  1   force =     0.00001140    0.00000422    0.00000520
     atom  146 type  1   force =     0.00000401    0.00000287   -0.00000744
     atom  147 type  1   force =    -0.00000267    0.00001100   -0.00000747
     atom  148 type  1   force =     0.00001467   -0.00001722   -0.00000561
     atom  149 type  1   force =    -0.00000381    0.00000048   -0.00000995
     atom  150 type  1   force =    -0.00000077   -0.00000692   -0.00000982
     atom  151 type  1   force =     0.00000894   -0.00000440    0.00000068
     atom  152 type  1   force =    -0.00000409    0.00001334    0.00000348
     atom  153 type  1   force =    -0.00000444    0.00001313    0.00001121
     atom  154 type  1   force =     0.00000999    0.00000498    0.00001133
     atom  155 type  1   force =    -0.00001244    0.00000143   -0.00000543
     atom  156 type  1   force =    -0.00001765   -0.00000219   -0.00000217
     atom  157 type  1   force =     0.00000127   -0.00002194    0.00000996
     atom  158 type  1   force =    -0.00000960    0.00000056   -0.00000357
     atom  159 type  1   force =    -0.00000452   -0.00000622    0.00000318
     atom  160 type  1   force =     0.00000135   -0.00000430    0.00000365
     atom  161 type  1   force =    -0.00000250    0.00000949   -0.00001193
     atom  162 type  1   force =     0.00000624   -0.00000403    0.00001342
     atom  163 type  1   force =     0.00000458    0.00000627    0.00000530
     atom  164 type  1   force =     0.00000921    0.00001941   -0.00000730
     atom  165 type  1   force =     0.00001394    0.00001120    0.00000080
     atom  166 type  1   force =     0.00000686    0.00000652    0.00001138
     atom  167 type  1   force =    -0.00002165   -0.00000234   -0.00001766
     atom  168 type  1   force =    -0.00000343   -0.00002847    0.00000885
     atom  169 type  1   force =    -0.00001114   -0.00001736   -0.00000239
     atom  170 type  1   force =    -0.00000560   -0.00000473   -0.00000104
     atom  171 type  1   force =     0.00000679    0.00000146   -0.00000454
     atom  172 type  1   force =     0.00000736    0.00000374    0.00000147
     atom  173 type  1   force =     0.00000303    0.00001386    0.00000683
     atom  174 type  1   force =     0.00000646    0.00001365    0.00000186
     atom  175 type  1   force =     0.00001063   -0.00000072    0.00000155
     atom  176 type  1   force =    -0.00000554   -0.00000102   -0.00001197
     atom  177 type  1   force =     0.00001052   -0.00002006   -0.00000967
     atom  178 type  1   force =    -0.00000070   -0.00000576   -0.00000949
     atom  179 type  1   force =    -0.00000688    0.00001094    0.00000090
     atom  180 type  1   force =     0.00000472    0.00000335    0.00001148
     atom  181 type  1   force =     0.00000129    0.00000352    0.00000691
     atom  182 type  1   force =    -0.00001266    0.00001215    0.00000295
     atom  183 type  1   force =     0.00000424    0.00000347    0.00001935
     atom  184 type  1   force =    -0.00000218   -0.00000230    0.00000526
     atom  185 type  1   force =    -0.00001218   -0.00000114   -0.00001015
     atom  186 type  1   force =    -0.00000383   -0.00002471    0.00000495
     atom  187 type  1   force =    -0.00000407   -0.00000442   -0.00000151
     atom  188 type  1   force =    -0.00000338    0.00001587    0.00000020
     atom  189 type  1   force =     0.00000828    0.00001149    0.00002386
     atom  190 type  1   force =     0.00000257    0.00001123    0.00000712
     atom  191 type  1   force =    -0.00002485    0.00000464   -0.00000878
     atom  192 type  1   force =    -0.00000617   -0.00002575    0.00001462
     atom  193 type  1   force =    -0.00001304   -0.00001240    0.00000563
     atom  194 type  1   force =    -0.00001033    0.00000558   -0.00000538
     atom  195 type  1   force =    -0.00000291   -0.00001293    0.00001548
     atom  196 type  1   force =    -0.00000064   -0.00000123   -0.00000157
     atom  197 type  1   force =     0.00001075    0.00000413   -0.00001114
     atom  198 type  1   force =     0.00001393    0.00000939   -0.00000945
     atom  199 type  1   force =     0.00001258    0.00000581    0.00000630
     atom  200 type  1   force =     0.00000853    0.00000908   -0.00001515
     atom  201 type  1   force =     0.00001246   -0.00000094   -0.00001030
     atom  202 type  1   force =     0.00000833   -0.00001145   -0.00000989
     atom  203 type  1   force =    -0.00000745   -0.00000164   -0.00001416
     atom  204 type  1   force =     0.00001253   -0.00001349   -0.00000573
     atom  205 type  1   force =    -0.00000170   -0.00000460    0.00000036
     atom  206 type  1   force =    -0.00000851    0.00000320    0.00000878
     atom  207 type  1   force =     0.00000238    0.00001131    0.00000948
     atom  208 type  1   force =     0.00000672    0.00000617    0.00000557
     atom  209 type  1   force =    -0.00001071    0.00000868   -0.00000381
     atom  210 type  1   force =     0.00000038   -0.00001769    0.00000562
     atom  211 type  1   force =     0.00000012   -0.00000628   -0.00000343
     atom  212 type  1   force =    -0.00000724    0.00000057   -0.00000835
     atom  213 type  1   force =     0.00000437   -0.00000775    0.00000113
     atom  214 type  1   force =    -0.00000011   -0.00000454   -0.00000076
     atom  215 type  2   force =     0.00001726    0.00003558   -0.00002279

     Total force =     0.002518     Total SCF correction =     0.000255
     SCF correction compared to forces is large: reduce conv_thr to get better values


     Computing stress (Cartesian axis) and pressure

          total   stress  (Ry/bohr**3)                   (kbar)     P=       76.28
   0.00051514   0.00000357  -0.00000225           75.78        0.52       -0.33
   0.00000357   0.00052303  -0.00000582            0.52       76.94       -0.86
  -0.00000225  -0.00000582   0.00051742           -0.33       -0.86       76.11

     kinetic stress (kbar)  19005.36      4.70     -2.94
                                4.70  19015.67     -7.64
                               -2.94     -7.64  19008.36

     local   stress (kbar)  -3549.47     16.94    -10.52
                               16.94  -3512.48    -27.47
                              -10.52    -27.47  -3538.69

     nonloc. stress (kbar)   4207.67     -0.24      0.14
                               -0.24   4207.16      0.38
                                0.14      0.38   4207.52

     hartree stress (kbar)   1295.59     -6.96      4.36
                               -6.96   1280.29     11.32
                                4.36     11.32   1291.15

     exc-cor stress (kbar)   -469.10     -0.01      0.00
                               -0.01   -469.11      0.01
                                0.00      0.01   -469.10

     corecor stress (kbar)  -4256.31     -0.10      0.07
                               -0.10  -4256.54      0.17
                                0.07      0.17  -4256.38

     ewald   stress (kbar) -16157.96    -13.81      8.56
                              -13.81 -16188.05     22.37
                                8.56     22.37 -16166.74

     hubbard stress (kbar)      0.00      0.00      0.00
                                0.00      0.00      0.00
                                0.00      0.00      0.00

     DFT-D   stress (kbar)      0.00      0.00      0.00
                                0.00      0.00      0.00
                                0.00      0.00      0.00

     XDM     stress (kbar)      0.00      0.00      0.00
                                0.00      0.00      0.00
                                0.00      0.00      0.00

     dft-nl  stress (kbar)      0.00      0.00      0.00
                                0.00      0.00      0.00
                                0.00      0.00      0.00

     TS-vdW  stress (kbar)      0.00      0.00      0.00
                                0.00      0.00      0.00
                                0.00      0.00      0.00

     MDB     stress (kbar)      0.00      0.00      0.00
                                0.00      0.00      0.00
                                0.00      0.00      0.00

     3D-RISM stress (kbar)      0.00      0.00      0.00
                                0.00      0.00      0.00
                                0.00      0.00      0.00


     Writing all to output data dir ../tmp/diamond_pd.save/ :
     XML data file, charge density, pseudopotentials, collected wavefunctions
 
     init_run     :      7.09s CPU      7.64s WALL (       1 calls)
     electrons    :    440.76s CPU    449.98s WALL (       1 calls)
     forces       :      4.99s CPU      5.17s WALL (       1 calls)
     stress       :     17.51s CPU     17.80s WALL (       1 calls)

     Called by init_run:
     wfcinit      :      5.98s CPU      6.27s WALL (       1 calls)
     wfcinit:wfcr :      5.64s CPU      5.83s WALL (       2 calls)
     potinit      :      0.75s CPU      0.95s WALL (       1 calls)
     hinit0       :      0.13s CPU      0.14s WALL (       1 calls)

     Called by electrons:
     c_bands      :    397.31s CPU    404.66s WALL (      15 calls)
     sum_band     :     27.44s CPU     28.49s WALL (      15 calls)
     v_of_rho     :      0.73s CPU      0.74s WALL (      16 calls)
     v_h          :      0.04s CPU      0.04s WALL (      16 calls)
     v_xc         :      0.77s CPU      0.79s WALL (      18 calls)
     newd         :      2.46s CPU      3.04s WALL (      16 calls)
     PAW_pot      :     13.13s CPU     13.40s WALL (      16 calls)
     mix_rho      :      0.48s CPU      0.48s WALL (      15 calls)

     Called by c_bands:
     init_us_2    :      6.12s CPU      6.23s WALL (      66 calls)
     cegterg      :    390.77s CPU    397.61s WALL (      30 calls)

     Called by sum_band:
     sum_band:wei :      0.00s CPU      0.00s WALL (      15 calls)
     sum_band:loo :     25.29s CPU     25.54s WALL (      15 calls)
     sum_band:buf :      1.05s CPU      1.06s WALL (      30 calls)
     sum_band:ini :      2.76s CPU      2.80s WALL (      30 calls)
     sum_band:cal :     13.75s CPU     13.84s WALL (      30 calls)
     sum_band:bec :      0.52s CPU      0.52s WALL (      30 calls)
     addusdens    :      1.87s CPU      2.39s WALL (      15 calls)
                                        0.00s GPU  (      15 calls)
     addusd:skk   :      0.43s CPU      0.92s WALL (      30 calls)
                                        0.00s GPU  (      30 calls)

     Called by *egterg:
     cdiaghg      :     62.68s CPU     63.63s WALL (     181 calls)
     cegterg:over :     47.96s CPU     48.30s WALL (     151 calls)
     cegterg:upda :     36.65s CPU     37.37s WALL (     151 calls)
     cegterg:last :     86.55s CPU     87.21s WALL (      70 calls)
     cdiaghg:chol :      3.73s CPU      3.75s WALL (     181 calls)
     cdiaghg:inve :      2.00s CPU      2.02s WALL (     181 calls)
     cdiaghg:para :     23.94s CPU     24.19s WALL (     362 calls)
     h_psi        :    107.63s CPU    110.20s WALL (     183 calls)
     s_psi        :     36.63s CPU     36.86s WALL (     183 calls)
     g_psi        :      0.95s CPU      0.97s WALL (     151 calls)

     Called by h_psi:
     h_psi:calbec :     36.97s CPU     37.21s WALL (     183 calls)
     vloc_psi     :     32.28s CPU     32.89s WALL (     183 calls)
     add_vuspsi   :     36.43s CPU     37.27s WALL (     183 calls)

     General routines
     calbec       :     66.27s CPU     66.69s WALL (     247 calls)
     fft          :      0.27s CPU      0.29s WALL (     378 calls)
     ffts         :      0.02s CPU      0.02s WALL (      30 calls)
     fftw         :     33.48s CPU     34.10s WALL (  155672 calls)
 
     Parallel routines

     PAW routines
     PAW_pot      :     13.13s CPU     13.40s WALL (      16 calls)
 
     PWSCF        :   7m51.13s CPU   8m12.61s WALL

 
   This run was terminated on:  21:55:56   4Aug2026            

=------------------------------------------------------------------------------=
   JOB DONE.
=------------------------------------------------------------------------------=
