B108 N108                               
   1.00000000000000     
    10.7937974929999996    0.0000000000000000    0.0000000000000000
     0.0000000000000000   10.7937974929999996    0.0000000000000000
     0.0000000000000000    0.0000000000000000   10.7937974929999996
   B    N    Si
   106   108     1
Direct
  0.0000806776463325  0.0001866882632856 -0.0000381571762225
  0.0000017374661089  0.0000735710429389  0.3332016528876670
  0.0000414698632287  0.0003526203838594  0.6666556398136926
 -0.0001180579674864  0.3334479122172636 -0.0002285529616977
  0.0000940188741948  0.3330455597744826  0.3329799824920022
 -0.0003206576115873  0.3331462608710827  0.6666593564588574
  0.0000128215299583  0.6668235949173270  0.0002252653472989
 -0.0002254139963463  0.6666702603668219  0.3332005055471036
 -0.0001689153860239  0.6666539811110254  0.6669220511079632
  0.3333752796519801  0.0000987011748555 -0.0001390517693876
  0.3332107464185341  0.0006706173044902  0.3331147849853485
  0.3330972546694559  0.0005009164447413  0.6669373164092760
  0.3332735107834988  0.3333096268592577  0.0000070206599828
  0.3336137652531246  0.3335063224643275  0.3335857080620958
  0.3331506506616985  0.3332631823451516  0.6651841480737600
  0.3338382252384505  0.6665946698943450 -0.0006131364371088
  0.3304133401676755  0.6663583242389230  0.3311564137512039
  0.3298754461346824  0.6649174494677930  0.6680409073429631
  0.6669307126034292  0.0004139831846403  0.0000452705901935
  0.6670100781297208  0.0002605761360991  0.3330631123810612
  0.6668882754219695  0.0008829312095583  0.6670286393493517
  0.6665128812762556  0.3339343765702300 -0.0009083765881718
  0.6674968200883812  0.3320173403792232  0.3330079647388489
  0.6649831996724734  0.3357204256534662  0.6636142806571220
  0.6672484761272006  0.6670992274601829 -0.0002918785211625
  0.6690791480241135  0.6658640852450642  0.3312358290021179
  0.6685241093901261  0.6642929158909863  0.6738663549759836
  0.1666712069509170  0.1667114118594482 -0.0000447448594469
  0.1667236839820164  0.1667640563456046  0.3332164370775446
  0.1663229106186228  0.1664980856124197  0.6665351362146671
  0.1663229106186228  0.5001315307853341  0.0001685813875814
  0.1656610722870482  0.5000578529781714  0.3325304196930086
  0.1658430596474580  0.4995433186742049  0.6671233483257963
  0.1667236839820164  0.8334502289224528 -0.0000973893456033
  0.1659821823114390  0.8336553023441148  0.3330113636558829
  0.1656610722870482  0.8341362463069889  0.6666088140218298
  0.5001567752069668  0.1667280600591080 -0.0000613930591068
  0.5006192497707026  0.1665191549494864  0.3328635397805356
  0.5000648413766471  0.1677351117401470  0.6666152650042603
  0.5000648413766471  0.5000514019957408 -0.0010684447401458
  0.4998752287774538  0.4965110363608050  0.3311317563762122
  0.5006192497707026  0.8338031262194623  0.0001475120505148
  0.4998586269117279  0.8353281300347902  0.3313385359652072
  0.4998752287774538  0.8355349096237857  0.6701556306391963
  0.8333027840658815  0.1670216491156932 -0.0003549821156920
  0.8336678360129229  0.1664402515882329  0.3329857228342138
  0.8336373958069795  0.1666628574526201  0.6661758582944072
  0.8336373958069795  0.5004908087055940  0.0000038095473812
  0.8343718736089606  0.4990321555885985  0.3327885949783300
  0.8329188259695938  0.4996137475706089  0.6670529194293924
  0.8336678360129229  0.8336809431657840  0.0002264154117683
  0.8335168069803292  0.8333830872468594  0.3332835787531383
  0.8343718736089606  0.8338780710216679  0.6676345114114027
  0.1666735948008445  0.0001404465509697  0.1665262204490316
  0.1660766792398140  0.0007057584555838  0.4999254264045767
  0.1666844644554576  0.0001178236047409  0.8333444015369694
  0.1666844644554576  0.3333222644630280  0.1665488433952602
  0.1656689561181198  0.3326058485858781  0.4999552549488239
  0.1663472411663571  0.3332478431937996  0.8334188228061983
  0.1660766792398140  0.6667412405954243  0.1659609085444174
  0.1658222305603774  0.6670044108781664  0.4996622561218350
  0.1656689561181198  0.6667114120511772  0.8340608174141192
  0.5002370632296443  0.0005984483449271  0.1660682186550742
  0.5000406243616006  0.0005896350497882  0.5001580316233636
  0.5000937677536104  0.0008097627824151  0.8339999072613137
  0.5000937677536104  0.3326667587386838  0.1658569042175861
  0.5034263115169774  0.3351873878974515  0.5016985147759100
  0.5013634994279663  0.3341081919064688  0.8325584740935289
  0.5000406243616006  0.6665086353766376  0.1660770319502131
  0.5034263115169774  0.6649681522240912  0.8314792781025460
  0.8334927119996692  0.0001226751604969  0.1665439918395042
  0.8339792465757948  0.0005619378861661  0.4999667740514460
  0.8334844338506374  0.0004709160775402  0.8334510839016006
  0.8334844338506374  0.3332155820983974  0.1661957509224611
  0.8341519423693999  0.3319974655131537  0.4996040941092281
  0.8325391860544171  0.3341902569850622  0.8324764090149355
  0.8339792465757948  0.6666998929485553  0.1661047291138351
  0.8331349705138480  0.6657361924010888  0.5009304745989124
  0.8341519423693999  0.6670625728907731  0.8346692004868439
  0.0000806776463325  0.1667048241762238  0.1664799787367156
  0.0000128215299583  0.1664414016527022  0.4998430720826743
 -0.0001180579674864  0.1668952199616989  0.8332187537827340
  0.0000414698632287  0.5000110271863086  0.1663140466161419
 -0.0001689153860239  0.4997446158920381  0.5000126858889758
 -0.0003206576115873  0.5000073105411436  0.8335204051289151
  0.0000017374661089  0.8334650131123306  0.1665930959570623
 -0.0002254139963463  0.8334661604528942  0.4999964066331797
  0.0000940188741948  0.8336866835079954  0.8336211062255149
  0.3333752796519801  0.1668057187693888  0.1665679658251457
  0.3338382252384505  0.1672798034371100  0.5000719971056562
  0.3332735107834988  0.1666596463400184  0.8333570391407397
  0.3330972546694559  0.4997293505907253  0.1661657505552599
  0.3298754461346824  0.4986257596570381  0.5017492175322082
  0.3331506506616985  0.5014825189262412  0.8334034836548457
  0.3332107464185341  0.8335518810146488  0.1659960496955111
  0.3304133401676755  0.8355102522487936  0.5003083427610782
  0.3336137652531246  0.8330809579379019  0.8331603435356699
  0.6669307126034292  0.1666213964098078  0.1662526838153609
  0.6672484761272006  0.1669585455211637  0.4995674395398184
  0.6665128812762556  0.1675750435881729  0.8327322894297676
  0.6668882754219695  0.4996380276506494  0.1657837357904430
  0.6685241093901261  0.4928003120240179  0.5023737511090149
  0.6649831996724734  0.5030523863428792  0.8309462403465312
  0.6670100781297208  0.8336035536189366  0.1664060908639021
  0.6690791480241135  0.8354308369978800  0.5008025817549370
  0.6674968200883812  0.8336587012611485  0.8346493256207742
  0.0834044750318340  0.0833942293447987  0.0832724366551989
  0.0832579568024960  0.0834216416308588  0.4163711596171802
  0.0833224318194161  0.0834019711004584  0.7500796392546167
  0.0833224318194161  0.4165870277453845  0.0832646948995392
  0.0828346817337564  0.4163334870593053  0.4161507665291992
  0.0827996643490659  0.4163236167629110  0.7503430502370901
  0.0832579568024960  0.7502955073828208  0.0832450243691388
  0.0826987419286863  0.7504466552471237  0.4162200117528777
  0.0828346817337564  0.7505159004708019  0.7503331799406961
  0.4166070298344395  0.0835293287130683  0.0831373372869292
  0.4166774172308148  0.0832969683752239  0.4164001407661351
  0.4165420105330495  0.0835666067383663  0.7501565533620365
  0.4165420105330495  0.4165101136379647  0.0831000592616313
  0.4164317802809820  0.4166631985271457  0.4164540675475524
  0.4070687805871325  0.4080348413043837  0.7586318256956176
  0.4166774172308148  0.7502665262338659  0.0833696976247736
  0.4121952420447342  0.7549782330706868  0.4116884339293145
  0.4164317802809820  0.7502125994524489  0.7500034684728557
  0.7502967583971374  0.0834632354268551  0.0832034305731424
  0.7505293555056034  0.0829035177502550  0.4161353645955670
  0.7502646431806199  0.0835904212278432  0.7501302227543792
  0.7502646431806199  0.4165364442456219  0.0830762447721544
  0.7534863659347452  0.4147165036458501  0.4144632566810926
  0.7502180265852900  0.4170670857123267  0.7495995812876742
  0.7505293555056034  0.7505313024044341  0.0837631482497425
  0.7501430264068829  0.7498323372393688  0.4168343297606323
  0.7534863659347452  0.7522034103189086  0.7519501633541512
  0.2498871463463771  0.2498837015961875  0.0833154997150157
  0.2498183624632581  0.2498256281155853  0.4164238947816473
  0.2490190208491163  0.2491144258026896  0.7502310540884178
  0.2498461410590965  0.5834732432844808  0.0831588494599147
  0.2471481622222172  0.5832386874168177  0.4145773787704614
  0.2470866283690130  0.5834892638715163  0.7520683775680644
  0.2499106473063371  0.9169154702749372  0.0832030685906045
  0.2488610611768780  0.9179022802664072  0.4163015412209078
  0.2497331013872532  0.9170572377026666  0.7500800191746025
  0.5834640628691962  0.2497446771979950  0.0828745159495812
  0.5837781088977794  0.2478794157496914  0.4143763380615240
  0.5832908847206765  0.2502191241735101  0.7496503547237853
  0.5834504642324700  0.5834092261591975  0.0831613023685463
  0.5895600947214176  0.5764069541275501  0.4106711531406346
  0.5900976337465265  0.5903025136012653  0.7574761755831424
  0.5835133251537646  0.9173489519289263  0.0836973722781828
  0.5835054943447396  0.9168479827614022  0.4167112570547067
  0.5835993898461745  0.9182062878915059  0.7515248454852400
  0.9168561890150156  0.2499325891900840  0.0830543963999792
  0.9175512603915003  0.2491421724097934  0.4160128054363665
  0.9167642478245274  0.2499012290208853  0.7500154628949317
  0.9173283744454973  0.5834584593957994  0.0835663458771929
  0.9168479028443277  0.5832694637902346  0.4164384589517556
  0.9171163595332491  0.5835009663041116  0.7504068115451642
  0.9169265487912528  0.9169674049211639  0.0834907267841154
  0.9167277576950035  0.9167353868179264  0.4164662992295903
  0.9173981981715795  0.9175725846464292  0.7503192797283735
  0.2499106473063371  0.0834635974093930  0.2497511967250639
  0.2498461410590965  0.0835078165400829  0.5831934227155168
  0.2498871463463771  0.0833511662849818  0.9167829654038138
  0.2497331013872532  0.4165866478253983  0.2496094292973346
  0.2470866283690130  0.4145982894319366  0.5831774021284812
  0.2490190208491163  0.4164356129115833  0.9175522411973116
  0.2488610611768780  0.7503651257790938  0.2487643867335939
  0.2471481622222172  0.7520892882295398  0.5834279785831799
  0.2498183624632581  0.7502427722183544  0.9168410388844158
  0.5835133251537646  0.0829692937218148  0.2493177150710751
  0.5834504642324700  0.0835053636314512  0.5832574398408000
  0.5834640628691962  0.0837921500504163  0.9169219898020062
  0.5835993898461745  0.4151418215147614  0.2484603791084952
  0.5900976337465265  0.4091904914168591  0.5763641523987323
  0.5832908847206765  0.4170163122762161  0.9164475428264912
  0.5835054943447396  0.7499554099452943  0.2498186842385988
  0.5895600947214176  0.7559955138593666  0.5902597118724474
  0.5837781088977794  0.7522903289384771  0.9187872512503098
  0.9169265487912528  0.0831759392158821  0.2496992620788373
  0.9173283744454973  0.0831003201228047  0.5832082066041981
  0.9168561890150156  0.0836122696000183  0.9167340778099174
  0.9173981981715795  0.4163473872716281  0.2490940823535719
  0.9171163595332491  0.4162598554548366  0.5831656996958859
  0.9167642478245274  0.4166512041050691  0.9167654379791154
  0.9167277576950035  0.7502003677704108  0.2499312801820746
  0.9168479028443277  0.7502282080482456  0.5833972022097630
  0.9175512603915003  0.7506538615636347  0.9175244945902078
  0.0834978131397788  0.2498404536968632  0.2496734417154882
  0.0827797488349704  0.2493082169110861  0.5831515515240417
  0.0832505251870249  0.2498840620122253  0.9167826049877761
  0.0827089398052651  0.5834015368658692  0.2492613647848600
  0.0830090087146751  0.5833686798821909  0.5832979861178067
  0.0827797488349704  0.5835151144759558  0.9173584500889151
  0.0832138897701782  0.9169087163802748  0.2497579506197263
  0.0827089398052651  0.9174053022151412  0.5832651291341284
  0.0834978131397788  0.9169932252845133  0.9168262133031380
  0.4166042460899179  0.2497604071502502  0.2495974994846476
  0.4167756598898840  0.2500693185864744  0.5831566745273771
  0.4164009237743906  0.2494216730000730  0.9172449939999281
  0.4164928971041795  0.5831984556140615  0.2495211158717808
  0.3989677941291395  0.5798960425431464  0.5867706234568512
  0.4167756598898840  0.5835099914726205  0.9165973484135267
  0.4166282114338677  0.9177640767106550  0.2489025902893463
  0.4164928971041795  0.9171455511282202  0.5834682103859361
  0.4166042460899179  0.9170691675153536  0.9169062598497512
  0.7506547063209386  0.2493617362270716  0.2491131581176419
  0.7521809144174075  0.2479129852720401  0.5828844162912930
  0.7500195373987306  0.2502459251594581  0.9164207418405430
  0.7513501054038124  0.5831543230981511  0.2486777096205315
  0.7507257123016852  0.5827491847511427  0.5839174812488549
  0.7521809144174075  0.5837822497087046  0.9187536817279610
  0.7501739795665721  0.9166799816434257  0.2499866853565756
  0.7513501054038124  0.9179889573794695  0.5835123429018465
  0.7506547063209386  0.9175535088823593  0.9173049307729297
  0.4984211846295020  0.6589695834883418  0.5076970835116594
 
  0.00000000E+00  0.00000000E+00  0.00000000E+00
  0.00000000E+00  0.00000000E+00  0.00000000E+00
  0.00000000E+00  0.00000000E+00  0.00000000E+00
  0.00000000E+00  0.00000000E+00  0.00000000E+00
  0.00000000E+00  0.00000000E+00  0.00000000E+00
  0.00000000E+00  0.00000000E+00  0.00000000E+00
  0.00000000E+00  0.00000000E+00  0.00000000E+00
  0.00000000E+00  0.00000000E+00  0.00000000E+00
  0.00000000E+00  0.00000000E+00  0.00000000E+00
  0.00000000E+00  0.00000000E+00  0.00000000E+00
  0.00000000E+00  0.00000000E+00  0.00000000E+00
  0.00000000E+00  0.00000000E+00  0.00000000E+00
  0.00000000E+00  0.00000000E+00  0.00000000E+00
  0.00000000E+00  0.00000000E+00  0.00000000E+00
  0.00000000E+00  0.00000000E+00  0.00000000E+00
  0.00000000E+00  0.00000000E+00  0.00000000E+00
  0.00000000E+00  0.00000000E+00  0.00000000E+00
  0.00000000E+00  0.00000000E+00  0.00000000E+00
  0.00000000E+00  0.00000000E+00  0.00000000E+00
  0.00000000E+00  0.00000000E+00  0.00000000E+00
  0.00000000E+00  0.00000000E+00  0.00000000E+00
  0.00000000E+00  0.00000000E+00  0.00000000E+00
  0.00000000E+00  0.00000000E+00  0.00000000E+00
  0.00000000E+00  0.00000000E+00  0.00000000E+00
  0.00000000E+00  0.00000000E+00  0.00000000E+00
  0.00000000E+00  0.00000000E+00  0.00000000E+00
  0.00000000E+00  0.00000000E+00  0.00000000E+00
  0.00000000E+00  0.00000000E+00  0.00000000E+00
  0.00000000E+00  0.00000000E+00  0.00000000E+00
  0.00000000E+00  0.00000000E+00  0.00000000E+00
  0.00000000E+00  0.00000000E+00  0.00000000E+00
  0.00000000E+00  0.00000000E+00  0.00000000E+00
  0.00000000E+00  0.00000000E+00  0.00000000E+00
  0.00000000E+00  0.00000000E+00  0.00000000E+00
  0.00000000E+00  0.00000000E+00  0.00000000E+00
  0.00000000E+00  0.00000000E+00  0.00000000E+00
  0.00000000E+00  0.00000000E+00  0.00000000E+00
  0.00000000E+00  0.00000000E+00  0.00000000E+00
  0.00000000E+00  0.00000000E+00  0.00000000E+00
  0.00000000E+00  0.00000000E+00  0.00000000E+00
  0.00000000E+00  0.00000000E+00  0.00000000E+00
  0.00000000E+00  0.00000000E+00  0.00000000E+00
  0.00000000E+00  0.00000000E+00  0.00000000E+00
  0.00000000E+00  0.00000000E+00  0.00000000E+00
  0.00000000E+00  0.00000000E+00  0.00000000E+00
  0.00000000E+00  0.00000000E+00  0.00000000E+00
  0.00000000E+00  0.00000000E+00  0.00000000E+00
  0.00000000E+00  0.00000000E+00  0.00000000E+00
  0.00000000E+00  0.00000000E+00  0.00000000E+00
  0.00000000E+00  0.00000000E+00  0.00000000E+00
  0.00000000E+00  0.00000000E+00  0.00000000E+00
  0.00000000E+00  0.00000000E+00  0.00000000E+00
  0.00000000E+00  0.00000000E+00  0.00000000E+00
  0.00000000E+00  0.00000000E+00  0.00000000E+00
  0.00000000E+00  0.00000000E+00  0.00000000E+00
  0.00000000E+00  0.00000000E+00  0.00000000E+00
  0.00000000E+00  0.00000000E+00  0.00000000E+00
  0.00000000E+00  0.00000000E+00  0.00000000E+00
  0.00000000E+00  0.00000000E+00  0.00000000E+00
  0.00000000E+00  0.00000000E+00  0.00000000E+00
  0.00000000E+00  0.00000000E+00  0.00000000E+00
  0.00000000E+00  0.00000000E+00  0.00000000E+00
  0.00000000E+00  0.00000000E+00  0.00000000E+00
  0.00000000E+00  0.00000000E+00  0.00000000E+00
  0.00000000E+00  0.00000000E+00  0.00000000E+00
  0.00000000E+00  0.00000000E+00  0.00000000E+00
  0.00000000E+00  0.00000000E+00  0.00000000E+00
  0.00000000E+00  0.00000000E+00  0.00000000E+00
  0.00000000E+00  0.00000000E+00  0.00000000E+00
  0.00000000E+00  0.00000000E+00  0.00000000E+00
  0.00000000E+00  0.00000000E+00  0.00000000E+00
  0.00000000E+00  0.00000000E+00  0.00000000E+00
  0.00000000E+00  0.00000000E+00  0.00000000E+00
  0.00000000E+00  0.00000000E+00  0.00000000E+00
  0.00000000E+00  0.00000000E+00  0.00000000E+00
  0.00000000E+00  0.00000000E+00  0.00000000E+00
  0.00000000E+00  0.00000000E+00  0.00000000E+00
  0.00000000E+00  0.00000000E+00  0.00000000E+00
  0.00000000E+00  0.00000000E+00  0.00000000E+00
  0.00000000E+00  0.00000000E+00  0.00000000E+00
  0.00000000E+00  0.00000000E+00  0.00000000E+00
  0.00000000E+00  0.00000000E+00  0.00000000E+00
  0.00000000E+00  0.00000000E+00  0.00000000E+00
  0.00000000E+00  0.00000000E+00  0.00000000E+00
  0.00000000E+00  0.00000000E+00  0.00000000E+00
  0.00000000E+00  0.00000000E+00  0.00000000E+00
  0.00000000E+00  0.00000000E+00  0.00000000E+00
  0.00000000E+00  0.00000000E+00  0.00000000E+00
  0.00000000E+00  0.00000000E+00  0.00000000E+00
  0.00000000E+00  0.00000000E+00  0.00000000E+00
  0.00000000E+00  0.00000000E+00  0.00000000E+00
  0.00000000E+00  0.00000000E+00  0.00000000E+00
  0.00000000E+00  0.00000000E+00  0.00000000E+00
  0.00000000E+00  0.00000000E+00  0.00000000E+00
  0.00000000E+00  0.00000000E+00  0.00000000E+00
  0.00000000E+00  0.00000000E+00  0.00000000E+00
  0.00000000E+00  0.00000000E+00  0.00000000E+00
  0.00000000E+00  0.00000000E+00  0.00000000E+00
  0.00000000E+00  0.00000000E+00  0.00000000E+00
  0.00000000E+00  0.00000000E+00  0.00000000E+00
  0.00000000E+00  0.00000000E+00  0.00000000E+00
  0.00000000E+00  0.00000000E+00  0.00000000E+00
  0.00000000E+00  0.00000000E+00  0.00000000E+00
  0.00000000E+00  0.00000000E+00  0.00000000E+00
  0.00000000E+00  0.00000000E+00  0.00000000E+00
  0.00000000E+00  0.00000000E+00  0.00000000E+00
  0.00000000E+00  0.00000000E+00  0.00000000E+00
  0.00000000E+00  0.00000000E+00  0.00000000E+00
  0.00000000E+00  0.00000000E+00  0.00000000E+00
  0.00000000E+00  0.00000000E+00  0.00000000E+00
  0.00000000E+00  0.00000000E+00  0.00000000E+00
  0.00000000E+00  0.00000000E+00  0.00000000E+00
  0.00000000E+00  0.00000000E+00  0.00000000E+00
  0.00000000E+00  0.00000000E+00  0.00000000E+00
  0.00000000E+00  0.00000000E+00  0.00000000E+00
  0.00000000E+00  0.00000000E+00  0.00000000E+00
  0.00000000E+00  0.00000000E+00  0.00000000E+00
  0.00000000E+00  0.00000000E+00  0.00000000E+00
  0.00000000E+00  0.00000000E+00  0.00000000E+00
  0.00000000E+00  0.00000000E+00  0.00000000E+00
  0.00000000E+00  0.00000000E+00  0.00000000E+00
  0.00000000E+00  0.00000000E+00  0.00000000E+00
  0.00000000E+00  0.00000000E+00  0.00000000E+00
  0.00000000E+00  0.00000000E+00  0.00000000E+00
  0.00000000E+00  0.00000000E+00  0.00000000E+00
  0.00000000E+00  0.00000000E+00  0.00000000E+00
  0.00000000E+00  0.00000000E+00  0.00000000E+00
  0.00000000E+00  0.00000000E+00  0.00000000E+00
  0.00000000E+00  0.00000000E+00  0.00000000E+00
  0.00000000E+00  0.00000000E+00  0.00000000E+00
  0.00000000E+00  0.00000000E+00  0.00000000E+00
  0.00000000E+00  0.00000000E+00  0.00000000E+00
  0.00000000E+00  0.00000000E+00  0.00000000E+00
  0.00000000E+00  0.00000000E+00  0.00000000E+00
  0.00000000E+00  0.00000000E+00  0.00000000E+00
  0.00000000E+00  0.00000000E+00  0.00000000E+00
  0.00000000E+00  0.00000000E+00  0.00000000E+00
  0.00000000E+00  0.00000000E+00  0.00000000E+00
  0.00000000E+00  0.00000000E+00  0.00000000E+00
  0.00000000E+00  0.00000000E+00  0.00000000E+00
  0.00000000E+00  0.00000000E+00  0.00000000E+00
  0.00000000E+00  0.00000000E+00  0.00000000E+00
  0.00000000E+00  0.00000000E+00  0.00000000E+00
  0.00000000E+00  0.00000000E+00  0.00000000E+00
  0.00000000E+00  0.00000000E+00  0.00000000E+00
  0.00000000E+00  0.00000000E+00  0.00000000E+00
  0.00000000E+00  0.00000000E+00  0.00000000E+00
  0.00000000E+00  0.00000000E+00  0.00000000E+00
  0.00000000E+00  0.00000000E+00  0.00000000E+00
  0.00000000E+00  0.00000000E+00  0.00000000E+00
  0.00000000E+00  0.00000000E+00  0.00000000E+00
  0.00000000E+00  0.00000000E+00  0.00000000E+00
  0.00000000E+00  0.00000000E+00  0.00000000E+00
  0.00000000E+00  0.00000000E+00  0.00000000E+00
  0.00000000E+00  0.00000000E+00  0.00000000E+00
  0.00000000E+00  0.00000000E+00  0.00000000E+00
  0.00000000E+00  0.00000000E+00  0.00000000E+00
  0.00000000E+00  0.00000000E+00  0.00000000E+00
  0.00000000E+00  0.00000000E+00  0.00000000E+00
  0.00000000E+00  0.00000000E+00  0.00000000E+00
  0.00000000E+00  0.00000000E+00  0.00000000E+00
  0.00000000E+00  0.00000000E+00  0.00000000E+00
  0.00000000E+00  0.00000000E+00  0.00000000E+00
  0.00000000E+00  0.00000000E+00  0.00000000E+00
  0.00000000E+00  0.00000000E+00  0.00000000E+00
  0.00000000E+00  0.00000000E+00  0.00000000E+00
  0.00000000E+00  0.00000000E+00  0.00000000E+00
  0.00000000E+00  0.00000000E+00  0.00000000E+00
  0.00000000E+00  0.00000000E+00  0.00000000E+00
  0.00000000E+00  0.00000000E+00  0.00000000E+00
  0.00000000E+00  0.00000000E+00  0.00000000E+00
  0.00000000E+00  0.00000000E+00  0.00000000E+00
  0.00000000E+00  0.00000000E+00  0.00000000E+00
  0.00000000E+00  0.00000000E+00  0.00000000E+00
  0.00000000E+00  0.00000000E+00  0.00000000E+00
  0.00000000E+00  0.00000000E+00  0.00000000E+00
  0.00000000E+00  0.00000000E+00  0.00000000E+00
  0.00000000E+00  0.00000000E+00  0.00000000E+00
  0.00000000E+00  0.00000000E+00  0.00000000E+00
  0.00000000E+00  0.00000000E+00  0.00000000E+00
  0.00000000E+00  0.00000000E+00  0.00000000E+00
  0.00000000E+00  0.00000000E+00  0.00000000E+00
  0.00000000E+00  0.00000000E+00  0.00000000E+00
  0.00000000E+00  0.00000000E+00  0.00000000E+00
  0.00000000E+00  0.00000000E+00  0.00000000E+00
  0.00000000E+00  0.00000000E+00  0.00000000E+00
  0.00000000E+00  0.00000000E+00  0.00000000E+00
  0.00000000E+00  0.00000000E+00  0.00000000E+00
  0.00000000E+00  0.00000000E+00  0.00000000E+00
  0.00000000E+00  0.00000000E+00  0.00000000E+00
  0.00000000E+00  0.00000000E+00  0.00000000E+00
  0.00000000E+00  0.00000000E+00  0.00000000E+00
  0.00000000E+00  0.00000000E+00  0.00000000E+00
  0.00000000E+00  0.00000000E+00  0.00000000E+00
  0.00000000E+00  0.00000000E+00  0.00000000E+00
  0.00000000E+00  0.00000000E+00  0.00000000E+00
  0.00000000E+00  0.00000000E+00  0.00000000E+00
  0.00000000E+00  0.00000000E+00  0.00000000E+00
  0.00000000E+00  0.00000000E+00  0.00000000E+00
  0.00000000E+00  0.00000000E+00  0.00000000E+00
  0.00000000E+00  0.00000000E+00  0.00000000E+00
  0.00000000E+00  0.00000000E+00  0.00000000E+00
  0.00000000E+00  0.00000000E+00  0.00000000E+00
  0.00000000E+00  0.00000000E+00  0.00000000E+00
  0.00000000E+00  0.00000000E+00  0.00000000E+00
  0.00000000E+00  0.00000000E+00  0.00000000E+00
  0.00000000E+00  0.00000000E+00  0.00000000E+00
  0.00000000E+00  0.00000000E+00  0.00000000E+00
  0.00000000E+00  0.00000000E+00  0.00000000E+00
  0.00000000E+00  0.00000000E+00  0.00000000E+00
  0.00000000E+00  0.00000000E+00  0.00000000E+00
  0.00000000E+00  0.00000000E+00  0.00000000E+00
  0.00000000E+00  0.00000000E+00  0.00000000E+00
  0.00000000E+00  0.00000000E+00  0.00000000E+00
  0.00000000E+00  0.00000000E+00  0.00000000E+00
