
     Program PWSCF v.7.4.1 starts on 23Aug2026 at  1: 3:47 

     This program is part of the open-source Quantum ESPRESSO suite
     for quantum simulation of materials; please cite
         "P. Giannozzi et al., J. Phys.:Condens. Matter 21 395502 (2009);
         "P. Giannozzi et al., J. Phys.:Condens. Matter 29 465901 (2017);
         "P. Giannozzi et al., J. Chem. Phys. 152 154105 (2020);
          URL http://www.quantum-espresso.org", 
     in publications or presentations arising from this work. More details at
     http://www.quantum-espresso.org/quote

     Parallel version (MPI), running on    36 processors

     MPI processes distributed on     1 nodes
     60787 MiB available memory on the printing compute node when the environment starts
 
     Reading input from scf.in

     Current dimensions of program PWSCF are:
     Max number of different atomic species (ntypx) = 10
     Max number of k-points (npk) =  40000
     Max angular momentum in pseudopotentials (lmaxx) =  4
     file C.pbe-n-kjpaw_psl.1.0.0.UPF: wavefunction(s)  2S 2P renormalized
     file N.pbe-n-kjpaw_psl.1.0.0.UPF: wavefunction(s)  2S renormalized
 
     R & G space division:  proc/nbgrp/npool/nimage =      36
     Subspace diagonalization in iterative solution of the eigenvalue problem:
     one sub-group per band group will be used
     scalapack distributed-memory algorithm (size of sub-group:  6*  6 procs)

 
     Parallelization info
     --------------------
     sticks:   dense  smooth     PW     G-vecs:    dense   smooth      PW
     Min         163     163     40                 9409     9409    1174
     Max         164     164     41                 9414     9414    1179
     Sum        5877    5877   1473               338755   338755   42379
 
     Using Slab Decomposition
 


     bravais-lattice index     =            0
     lattice parameter (alat)  =      20.2515  a.u.
     unit-cell volume          =    8305.5769 (a.u.)^3
     number of atoms/cell      =          215
     number of atomic types    =            2
     number of electrons       =       862.00 (up: 432.00, down: 430.00)
     number of Kohn-Sham states=          862
     kinetic-energy cutoff     =      45.0000  Ry
     charge density cutoff     =     180.0000  Ry
     scf convergence threshold =      1.0E-08
     mixing beta               =       0.7000
     number of iterations used =            8  plain     mixing
     Exchange-correlation= SLA  PW   PBX  PBC
                           (   1   4   3   4   0   0   0)

     celldm(1)=  20.251472  celldm(2)=   0.000000  celldm(3)=   0.000000
     celldm(4)=   0.000000  celldm(5)=   0.000000  celldm(6)=   0.000000

     crystal axes: (cart. coord. in units of alat)
               a(1) = (  -0.707107   0.000000   0.707107 )  
               a(2) = (   0.408248   0.816497   0.408248 )  
               a(3) = (  -0.577350   0.577350  -0.577350 )  

     reciprocal axes: (cart. coord. in units 2 pi/alat)
               b(1) = ( -0.707107  0.000000  0.707107 )  
               b(2) = (  0.408248  0.816497  0.408248 )  
               b(3) = ( -0.577350  0.577350 -0.577350 )  


     PseudoPot. # 1 for C  read from file:
     ../../pseudos/C.pbe-n-kjpaw_psl.1.0.0.UPF
     MD5 check sum: 5f16ad9a65e90284d1d834d4ab3b0f7d
     Pseudo is Projector augmented-wave + core cor, Zval =  4.0
     Generated using &quot;atomic&quot; code by A. Dal Corso  v.6.3
     Shape of augmentation charge: PSQ
     Using radial grid of 1073 points,  4 beta functions with: 
                l(1) =   0
                l(2) =   0
                l(3) =   1
                l(4) =   1
     Q(r) pseudized with 0 coefficients 


     PseudoPot. # 2 for N  read from file:
     ../../pseudos/N.pbe-n-kjpaw_psl.1.0.0.UPF
     MD5 check sum: a6186d50559fdcbe4b2d0187dd61a119
     Pseudo is Projector augmented-wave + core cor, Zval =  5.0
     Generated using &quot;atomic&quot; code by A. Dal Corso  v.6.3
     Shape of augmentation charge: PSQ
     Using radial grid of 1085 points,  4 beta functions with: 
                l(1) =   0
                l(2) =   0
                l(3) =   1
                l(4) =   1
     Q(r) pseudized with 0 coefficients 


     atomic species   valence    mass     pseudopotential
     C                 4.00    12.01070     C ( 1.00)
     N                 5.00    14.00670     N ( 1.00)

     Starting magnetic structure 
     atomic species   magnetization
     C               0.000
     N               0.000

     No symmetry found



   Cartesian axes

     site n.     atom                  positions (alat units)
         1        C      tau(   1) = (  -0.0000832   0.0000786   0.0000641  )
         2        C      tau(   2) = (  -0.1925045   0.1926678  -0.1922264  )
         3        C      tau(   3) = (  -0.3850323   0.3848486  -0.3849372  )
         4        C      tau(   4) = (   0.1358126   0.2723309   0.1360907  )
         5        C      tau(   5) = (  -0.0569060   0.4653231  -0.0560003  )
         6        C      tau(   6) = (  -0.2488294   0.6570246  -0.2489898  )
         7        C      tau(   7) = (   0.2722098   0.5443223   0.2723050  )
         8        C      tau(   8) = (   0.0798923   0.7367858   0.0797319  )
         9        C      tau(   9) = (  -0.1131037   0.9286586  -0.1122266  )
        10        C      tau(  10) = (  -0.2357451   0.0002862   0.2356757  )
        11        C      tau(  11) = (  -0.4282821   0.1925459   0.0432080  )
        12        C      tau(  12) = (  -0.6206080   0.3848685  -0.1490679  )
        13        C      tau(  13) = (  -0.0996029   0.2722969   0.3718873  )
        14        C      tau(  14) = (  -0.2939404   0.4660976   0.1808462  )
        15        C      tau(  15) = (  -0.4829597   0.6572192  -0.0137541  )
        16        C      tau(  16) = (   0.0363442   0.5442719   0.5078844  )
        17        C      tau(  17) = (  -0.1553577   0.7367087   0.3138479  )
        18        C      tau(  18) = (  -0.3491556   0.9279625   0.1239942  )
        19        C      tau(  19) = (  -0.4714245   0.0000590   0.4714102  )
        20        C      tau(  20) = (  -0.6638977   0.1924715   0.2788876  )
        21        C      tau(  21) = (  -0.8562715   0.3851259   0.0866016  )
        22        C      tau(  22) = (  -0.3352631   0.2722116   0.6075222  )
        23        C      tau(  23) = (  -0.5280269   0.4645266   0.4153138  )
        24        C      tau(  24) = (  -0.7191943   0.6569609   0.2225814  )
        25        C      tau(  25) = (  -0.1993857   0.5445131   0.7434874  )
        26        C      tau(  26) = (  -0.3916295   0.7364415   0.5501463  )
        27        C      tau(  27) = (  -0.5844985   0.9295307   0.3589566  )
        28        C      tau(  28) = (  -0.0499650   0.1362898   0.1858445  )
        29        C      tau(  29) = (  -0.2426510   0.3294255  -0.0058464  )
        30        C      tau(  30) = (  -0.4349074   0.5208404  -0.1993246  )
        31        C      tau(  31) = (   0.0861167   0.4082908   0.3221312  )
        32        C      tau(  32) = (  -0.1061837   0.6023637   0.1303292  )
        33        C      tau(  33) = (  -0.2992882   0.7917225  -0.0621160  )
        34        C      tau(  34) = (   0.2224017   0.6804017   0.4581928  )
        35        C      tau(  35) = (   0.0300338   0.8730008   0.2658043  )
        36        C      tau(  36) = (  -0.1628898   1.0646770   0.0735789  )
        37        C      tau(  37) = (  -0.2854745   0.1361878   0.4217098  )
        38        C      tau(  38) = (  -0.4781627   0.3282954   0.2292196  )
        39        C      tau(  39) = (  -0.6695432   0.5213111   0.0372790  )
        40        C      tau(  40) = (  -0.1493871   0.4083098   0.5576840  )
        41        C      tau(  41) = (  -0.3427566   0.5994642   0.3630247  )
        42        C      tau(  42) = (  -0.5331213   0.7942674   0.1734583  )
        43        C      tau(  43) = (  -0.0135887   0.6805033   0.6936634  )
        44        C      tau(  44) = (  -0.2060313   0.8727402   0.5005410  )
        45        C      tau(  45) = (  -0.3983639   1.0655612   0.3090811  )
        46        C      tau(  46) = (  -0.5212556   0.1361993   0.6573817  )
        47        C      tau(  47) = (  -0.7137600   0.3286977   0.4649759  )
        48        C      tau(  48) = (  -0.9060362   0.5210850   0.2723258  )
        49        C      tau(  49) = (  -0.3851493   0.4084643   0.7932576  )
        50        C      tau(  50) = (  -0.5777307   0.6008458   0.6009560  )
        51        C      tau(  51) = (  -0.7700408   0.7931246   0.4086212  )
        52        C      tau(  52) = (  -0.2491235   0.6804684   0.9294939  )
        53        C      tau(  53) = (  -0.4414600   0.8728264   0.7368877  )
        54        C      tau(  54) = (  -0.6341339   1.0654058   0.5447213  )
        55        C      tau(  55) = (  -0.2140828   0.0964681   0.0217268  )
        56        C      tau(  56) = (  -0.4066922   0.2887153  -0.1706778  )
        57        C      tau(  57) = (  -0.5991031   0.4810712  -0.3633120  )
        58        C      tau(  58) = (  -0.0789058   0.3691568   0.1578987  )
        59        C      tau(  59) = (  -0.2716172   0.5622228  -0.0351044  )
        60        C      tau(  60) = (  -0.4631129   0.7533433  -0.2273424  )
        61        C      tau(  61) = (   0.0584251   0.6405430   0.2940079  )
        62        C      tau(  62) = (  -0.1348293   0.8316269   0.1023429  )
        63        C      tau(  63) = (  -0.3270795   1.0248379  -0.0906109  )
        64        C      tau(  64) = (  -0.4499139   0.0962881   0.2572704  )
        65        C      tau(  65) = (  -0.6422481   0.2887217   0.0648230  )
        66        C      tau(  66) = (  -0.8346126   0.4812895  -0.1273604  )
        67        C      tau(  67) = (  -0.3137182   0.3681963   0.3936641  )
        68        C      tau(  68) = (  -0.5037402   0.5604030   0.2020411  )
        69        C      tau(  69) = (  -0.6978262   0.7534108   0.0087461  )
        70        C      tau(  70) = (  -0.1782331   0.6405229   0.5285891  )
        71        C      tau(  71) = (  -0.3709537   0.8336159   0.3356260  )
        72        C      tau(  72) = (  -0.5627894   1.0256649   0.1446556  )
        73        C      tau(  73) = (  -0.6855916   0.0963246   0.4930457  )
        74        C      tau(  74) = (  -0.8778635   0.2889117   0.3005434  )
        75        C      tau(  75) = (  -1.0704263   0.4811869   0.1081911  )
        76        C      tau(  76) = (  -0.5495648   0.3685381   0.6291711  )
        77        C      tau(  77) = (  -0.7419125   0.5610086   0.4367742  )
        78        C      tau(  78) = (  -0.9341669   0.7532756   0.2441807  )
        79        C      tau(  79) = (  -0.4132680   0.6406507   0.7650941  )
        80        C      tau(  80) = (  -0.6058974   0.8329525   0.5727646  )
        81        C      tau(  81) = (  -0.7983966   1.0255489   0.3804586  )
        82        C      tau(  82) = (  -0.0284257   0.2326720  -0.0280300  )
        83        C      tau(  83) = (  -0.2206361   0.4244181  -0.2213757  )
        84        C      tau(  84) = (  -0.4131470   0.6172785  -0.4130119  )
        85        C      tau(  85) = (   0.1086999   0.5043284   0.1079602  )
        86        C      tau(  86) = (  -0.0850226   0.6969649  -0.0840895  )
        87        C      tau(  87) = (  -0.2770707   0.8895828  -0.2776080  )
        88        C      tau(  88) = (   0.2438936   0.7767033   0.2440286  )
        89        C      tau(  89) = (   0.0520700   0.9694457   0.0515327  )
        90        C      tau(  90) = (  -0.1410921   1.1613293  -0.1406937  )
        91        C      tau(  91) = (  -0.2639449   0.2323321   0.2075717  )
        92        C      tau(  92) = (  -0.4562720   0.4250903   0.0152246  )
        93        C      tau(  93) = (  -0.6493270   0.6171114  -0.1780685  )
        94        C      tau(  94) = (  -0.1280313   0.5047348   0.3434653  )
        95        C      tau(  95) = (  -0.5124572   0.8890920  -0.0409097  )
        96        C      tau(  96) = (   0.0089542   0.7768372   0.4802127  )
        97        C      tau(  97) = (  -0.1844750   0.9686738   0.2870724  )
        98        C      tau(  98) = (  -0.3768739   1.1622512   0.0948645  )
        99        C      tau(  99) = (  -0.4996650   0.2323492   0.4432876  )
       100        C      tau( 100) = (  -0.6921401   0.4248026   0.2508287  )
       101        C      tau( 101) = (  -0.8842033   0.6173355   0.0584213  )
       102        C      tau( 102) = (  -0.3635751   0.5045258   0.5793937  )
       103        C      tau( 103) = (  -0.5558028   0.6970139   0.3866789  )
       104        C      tau( 104) = (  -0.7491897   0.8899414   0.1946249  )
       105        C      tau( 105) = (  -0.2275423   0.7766681   0.7150823  )
       106        C      tau( 106) = (  -0.4202442   0.9697570   0.5235704  )
       107        C      tau( 107) = (  -0.6123787   1.1615894   0.3305298  )
       108        C      tau( 108) = (  -0.0731302   0.1163896   0.0448893  )
       109        C      tau( 109) = (  -0.2656906   0.3089417  -0.1474294  )
       110        C      tau( 110) = (  -0.4580821   0.5009390  -0.3401760  )
       111        C      tau( 111) = (   0.0627978   0.3886463   0.1810590  )
       112        C      tau( 112) = (  -0.1301600   0.5815999  -0.0109598  )
       113        C      tau( 113) = (  -0.3217584   0.7738487  -0.2050241  )
       114        C      tau( 114) = (   0.1992770   0.6604411   0.3171830  )
       115        C      tau( 115) = (   0.0075626   0.8537553   0.1242969  )
       116        C      tau( 116) = (  -0.1860235   1.0449213  -0.0675170  )
       117        C      tau( 117) = (  -0.3088018   0.1162618   0.2805919  )
       118        C      tau( 118) = (  -0.5012534   0.3086497   0.0880612  )
       119        C      tau( 119) = (  -0.6933605   0.5011754  -0.1042256  )
       120        C      tau( 120) = (  -0.1726261   0.3883881   0.4166885  )
       121        C      tau( 121) = (  -0.5564874   0.7732304   0.0321083  )
       122        C      tau( 122) = (  -0.0367099   0.6605055   0.5524250  )
       123        C      tau( 123) = (  -0.2293553   0.8526060   0.3592404  )
       124        C      tau( 124) = (  -0.4216176   1.0466672   0.1676535  )
       125        C      tau( 125) = (  -0.5445004   0.1161891   0.5163082  )
       126        C      tau( 126) = (  -0.7368965   0.3086866   0.3238377  )
       127        C      tau( 127) = (  -0.9292319   0.5011989   0.1313730  )
       128        C      tau( 128) = (  -0.4084075   0.3883914   0.6523268  )
       129        C      tau( 129) = (  -0.6009015   0.5808941   0.4599530  )
       130        C      tau( 130) = (  -0.7929660   0.7733040   0.2675085  )
       131        C      tau( 131) = (  -0.2723219   0.6605920   0.7882830  )
       132        C      tau( 132) = (  -0.4648037   0.8529295   0.5956708  )
       133        C      tau( 133) = (  -0.6574099   1.0455134   0.4037258  )
       134        C      tau( 134) = (  -0.1229953   0.2525369   0.2308039  )
       135        C      tau( 135) = (  -0.3161136   0.4463256   0.0389015  )
       136        C      tau( 136) = (  -0.5092495   0.6367534  -0.1552073  )
       137        C      tau( 137) = (   0.0132182   0.5244799   0.3668591  )
       138        C      tau( 138) = (  -0.1650862   0.7181743   0.1772829  )
       139        C      tau( 139) = (  -0.3718629   0.9083333  -0.0173238  )
       140        C      tau( 140) = (   0.1495373   0.7967514   0.5033174  )
       141        C      tau( 141) = (  -0.0432687   0.9890163   0.3104459  )
       142        C      tau( 142) = (  -0.2356952   1.1813942   0.1180895  )
       143        C      tau( 143) = (  -0.3585885   0.2521254   0.4666112  )
       144        C      tau( 144) = (  -0.5513795   0.4441863   0.2743541  )
       145        C      tau( 145) = (  -0.7428304   0.6373108   0.0816785  )
       146        C      tau( 146) = (  -0.2225398   0.5244973   0.6023080  )
       147        C      tau( 147) = (  -0.4150888   0.7167300   0.4082791  )
       148        C      tau( 148) = (  -0.6092093   0.9098507   0.2178499  )
       149        C      tau( 149) = (  -0.0864931   0.7966171   0.7384632  )
       150        C      tau( 150) = (  -0.2789214   0.9890602   0.5460613  )
       151        C      tau( 151) = (  -0.4712623   1.1816613   0.3538318  )
       152        C      tau( 152) = (  -0.5944194   0.2524472   0.7022200  )
       153        C      tau( 153) = (  -0.7868352   0.4448565   0.5097722  )
       154        C      tau( 154) = (  -0.9790758   0.6371830   0.3171673  )
       155        C      tau( 155) = (  -0.4578192   0.5242307   0.8381537  )
       156        C      tau( 156) = (  -0.6507799   0.7169165   0.6458575  )
       157        C      tau( 157) = (  -0.8431948   0.9092630   0.4534578  )
       158        C      tau( 158) = (  -0.3221597   0.7966344   0.9743391  )
       159        C      tau( 159) = (  -0.5142705   0.9893756   0.7817666  )
       160        C      tau( 160) = (  -0.7071471   1.1814058   0.5895099  )
       161        C      tau( 161) = (  -0.2872446   0.2126833   0.0665546  )
       162        C      tau( 162) = (  -0.4796117   0.4048994  -0.1259708  )
       163        C      tau( 163) = (  -0.6724448   0.5973051  -0.3186647  )
       164        C      tau( 164) = (  -0.1520285   0.4861393   0.2029867  )
       165        C      tau( 165) = (  -0.3462094   0.6742264  -0.0038403  )
       166        C      tau( 166) = (  -0.5359192   0.8694792  -0.1822046  )
       167        C      tau( 167) = (  -0.0138774   0.7569508   0.3401648  )
       168        C      tau( 168) = (  -0.2079014   0.9481171   0.1466377  )
       169        C      tau( 169) = (  -0.3999098   1.1415491  -0.0461250  )
       170        C      tau( 170) = (  -0.5229488   0.2122449   0.3022509  )
       171        C      tau( 171) = (  -0.7150735   0.4049886   0.1097743  )
       172        C      tau( 172) = (  -0.9075843   0.5973869  -0.0826279  )
       173        C      tau( 173) = (  -0.3869714   0.4840784   0.4387622  )
       174        C      tau( 174) = (  -0.5774087   0.6773446   0.2459592  )
       175        C      tau( 175) = (  -0.7715460   0.8695294   0.0534367  )
       176        C      tau( 176) = (  -0.2508000   0.7566973   0.5737088  )
       177        C      tau( 177) = (  -0.4434949   0.9500598   0.3835643  )
       178        C      tau( 178) = (  -0.6357100   1.1417596   0.1893841  )
       179        C      tau( 179) = (  -0.7586397   0.2126006   0.5379997  )
       180        C      tau( 180) = (  -0.9508403   0.4046037   0.3451327  )
       181        C      tau( 181) = (  -1.1434583   0.5973539   0.1530406  )
       182        C      tau( 182) = (  -0.6225486   0.4847191   0.6740588  )
       183        C      tau( 183) = (  -0.8149772   0.6770756   0.4816603  )
       184        C      tau( 184) = (  -1.0073155   0.8697428   0.2887216  )
       185        C      tau( 185) = (  -0.4862803   0.7567553   0.8099627  )
       186        C      tau( 186) = (  -0.6789179   0.9491232   0.6177347  )
       187        C      tau( 187) = (  -0.8713338   1.1415674   0.4253232  )
       188        C      tau( 188) = (  -0.1016037   0.3490857   0.0169013  )
       189        C      tau( 189) = (  -0.2932846   0.5396789  -0.1770245  )
       190        C      tau( 190) = (  -0.4862815   0.7335140  -0.3682892  )
       191        C      tau( 191) = (   0.0363723   0.6196670   0.1526324  )
       192        C      tau( 192) = (  -0.1581841   0.8122865  -0.0389097  )
       193        C      tau( 193) = (  -0.3500967   1.0054577  -0.2320293  )
       194        C      tau( 194) = (   0.1709614   0.8929879   0.2889537  )
       195        C      tau( 195) = (  -0.0216055   1.0851630   0.0964619  )
       196        C      tau( 196) = (  -0.2140128   1.2775842  -0.0959811  )
       197        C      tau( 197) = (  -0.3371187   0.3478772   0.2527095  )
       198        C      tau( 198) = (  -0.5276538   0.5414119   0.0602720  )
       199        C      tau( 199) = (  -0.7217301   0.7334296  -0.1324788  )
       200        C      tau( 200) = (  -0.2012490   0.6206109   0.3866768  )
       201        C      tau( 201) = (  -0.4011314   0.8242737   0.2011291  )
       202        C      tau( 202) = (  -0.5857082   1.0055050   0.0036097  )
       203        C      tau( 203) = (  -0.0648187   0.8928230   0.5244325  )
       204        C      tau( 204) = (  -0.2572549   1.0852012   0.3320631  )
       205        C      tau( 205) = (  -0.4497131   1.2781947   0.1395711  )
       206        C      tau( 206) = (  -0.5727866   0.3484056   0.4882492  )
       207        C      tau( 207) = (  -0.7648778   0.5410573   0.2956469  )
       208        C      tau( 208) = (  -0.9573798   0.7334315   0.1032120  )
       209        C      tau( 209) = (  -0.4365932   0.6207125   0.6239316  )
       210        C      tau( 210) = (  -0.6290504   0.8131737   0.4317414  )
       211        C      tau( 211) = (  -0.8219407   1.0057370   0.2392631  )
       212        C      tau( 212) = (  -0.3005088   0.8928151   0.7600830  )
       213        C      tau( 213) = (  -0.4929795   1.0855563   0.5682243  )
       214        C      tau( 214) = (  -0.6853901   1.2777399   0.3753584  )
       215        N      tau( 215) = (  -0.3677650   0.5740586   0.2284750  )

     number of k points=     1
                       cart. coord. in units 2pi/alat
        k(    1) = (   0.0000000   0.0000000   0.0000000), wk =   1.0000000

     Dense  grid:   338755 G-vectors     FFT dimensions: (  90,  90,  90)

     Estimated max dynamical RAM per process >     206.76 MB

     Estimated total dynamical RAM >       7.27 GB

     Check: negative core charge=   -0.000075
     Generating pointlists ...
     new r_m :   0.0570 (alat units)  1.1541 (a.u.) for type    1
     new r_m :   0.0574 (alat units)  1.1628 (a.u.) for type    2

     Initial potential from superposition of free atoms

     starting charge     860.9911, renormalised to     862.0000
     Starting wfcs are random
     Checking if some PAW data can be deallocated... 

     total cpu time spent up to now is        6.3 secs

     per-process dynamical memory:   193.2 Mb

     Self-consistent Calculation

     iteration #  1     ecut=    45.00 Ry     beta= 0.70
     Davidson diagonalization with overlap
     ethr =  1.00E-02,  avg # of iterations =  9.0

     total cpu time spent up to now is       79.6 secs

     total energy              =   -3970.27645824 Ry
     estimated scf accuracy    <      12.63353700 Ry

     total magnetization       =     2.00 Bohr mag/cell
     absolute magnetization    =     2.16 Bohr mag/cell

     iteration #  2     ecut=    45.00 Ry     beta= 0.70
     Davidson diagonalization with overlap
     ethr =  1.47E-03,  avg # of iterations =  3.0

     total cpu time spent up to now is       98.4 secs

     total energy              =   -3970.76370090 Ry
     estimated scf accuracy    <       1.05015529 Ry

     total magnetization       =     2.00 Bohr mag/cell
     absolute magnetization    =     2.13 Bohr mag/cell

     iteration #  3     ecut=    45.00 Ry     beta= 0.70
     Davidson diagonalization with overlap
     ethr =  1.22E-04,  avg # of iterations = 12.0

     total cpu time spent up to now is      140.7 secs

     total energy              =   -3970.11609605 Ry
     estimated scf accuracy    <       7.00053125 Ry

     total magnetization       =     2.00 Bohr mag/cell
     absolute magnetization    =     2.19 Bohr mag/cell

     iteration #  4     ecut=    45.00 Ry     beta= 0.70
     Davidson diagonalization with overlap
     ethr =  1.22E-04,  avg # of iterations =  9.0

     total cpu time spent up to now is      169.3 secs

     total energy              =   -3971.31719464 Ry
     estimated scf accuracy    <       0.10887284 Ry

     total magnetization       =     2.00 Bohr mag/cell
     absolute magnetization    =     2.16 Bohr mag/cell

     iteration #  5     ecut=    45.00 Ry     beta= 0.70
     Davidson diagonalization with overlap
     ethr =  1.26E-05,  avg # of iterations =  5.0

     total cpu time spent up to now is      189.8 secs

     total energy              =   -3971.33367943 Ry
     estimated scf accuracy    <       0.02409553 Ry

     total magnetization       =     2.00 Bohr mag/cell
     absolute magnetization    =     2.18 Bohr mag/cell

     iteration #  6     ecut=    45.00 Ry     beta= 0.70
     Davidson diagonalization with overlap
     c_bands:  1 eigenvalues not converged
     c_bands:  1 eigenvalues not converged
     ethr =  2.80E-06,  avg # of iterations = 20.0

     total cpu time spent up to now is      220.8 secs

     total energy              =   -3971.33788227 Ry
     estimated scf accuracy    <       0.00519539 Ry

     total magnetization       =     2.00 Bohr mag/cell
     absolute magnetization    =     2.21 Bohr mag/cell

     iteration #  7     ecut=    45.00 Ry     beta= 0.70
     Davidson diagonalization with overlap
     ethr =  6.03E-07,  avg # of iterations = 12.0

     total cpu time spent up to now is      244.1 secs

     total energy              =   -3971.33901864 Ry
     estimated scf accuracy    <       0.00067308 Ry

     total magnetization       =     2.00 Bohr mag/cell
     absolute magnetization    =     2.23 Bohr mag/cell

     iteration #  8     ecut=    45.00 Ry     beta= 0.70
     Davidson diagonalization with overlap
     ethr =  7.81E-08,  avg # of iterations =  2.5

     total cpu time spent up to now is      262.8 secs

     total energy              =   -3971.33919540 Ry
     estimated scf accuracy    <       0.00040366 Ry

     total magnetization       =     2.00 Bohr mag/cell
     absolute magnetization    =     2.24 Bohr mag/cell

     iteration #  9     ecut=    45.00 Ry     beta= 0.70
     Davidson diagonalization with overlap
     ethr =  4.68E-08,  avg # of iterations =  2.0

     total cpu time spent up to now is      281.0 secs

     total energy              =   -3971.33928427 Ry
     estimated scf accuracy    <       0.00008748 Ry

     total magnetization       =     2.00 Bohr mag/cell
     absolute magnetization    =     2.25 Bohr mag/cell

     iteration # 10     ecut=    45.00 Ry     beta= 0.70
     Davidson diagonalization with overlap
     ethr =  1.01E-08,  avg # of iterations =  2.0

     total cpu time spent up to now is      299.3 secs

     total energy              =   -3971.33930574 Ry
     estimated scf accuracy    <       0.00001045 Ry

     total magnetization       =     2.00 Bohr mag/cell
     absolute magnetization    =     2.26 Bohr mag/cell

     iteration # 11     ecut=    45.00 Ry     beta= 0.70
     Davidson diagonalization with overlap
     ethr =  1.21E-09,  avg # of iterations =  3.0

     total cpu time spent up to now is      318.6 secs

     total energy              =   -3971.33930886 Ry
     estimated scf accuracy    <       0.00000674 Ry

     total magnetization       =     2.00 Bohr mag/cell
     absolute magnetization    =     2.26 Bohr mag/cell

     iteration # 12     ecut=    45.00 Ry     beta= 0.70
     Davidson diagonalization with overlap
     ethr =  7.82E-10,  avg # of iterations =  2.0

     total cpu time spent up to now is      336.9 secs

     total energy              =   -3971.33931039 Ry
     estimated scf accuracy    <       0.00000091 Ry

     total magnetization       =     2.00 Bohr mag/cell
     absolute magnetization    =     2.26 Bohr mag/cell

     iteration # 13     ecut=    45.00 Ry     beta= 0.70
     Davidson diagonalization with overlap
     ethr =  1.05E-10,  avg # of iterations =  2.5

     total cpu time spent up to now is      355.5 secs

     total energy              =   -3971.33931067 Ry
     estimated scf accuracy    <       0.00000011 Ry

     total magnetization       =     2.00 Bohr mag/cell
     absolute magnetization    =     2.26 Bohr mag/cell

     iteration # 14     ecut=    45.00 Ry     beta= 0.70
     Davidson diagonalization with overlap
     ethr =  1.30E-11,  avg # of iterations =  3.0

     total cpu time spent up to now is      375.1 secs

     total energy              =   -3971.33931071 Ry
     estimated scf accuracy    <       0.00000003 Ry

     total magnetization       =     2.00 Bohr mag/cell
     absolute magnetization    =     2.26 Bohr mag/cell

     iteration # 15     ecut=    45.00 Ry     beta= 0.70
     Davidson diagonalization with overlap
     ethr =  3.72E-12,  avg # of iterations =  2.5
 
     Magnetic moment per site  (integrated on atomic sphere of radius R)
     atom   1 (R=0.057)  charge=  1.8294  magn= -0.0000
     atom   2 (R=0.057)  charge=  1.8301  magn= -0.0001
     atom   3 (R=0.057)  charge=  1.8306  magn= -0.0001
     atom   4 (R=0.057)  charge=  1.8301  magn= -0.0001
     atom   5 (R=0.057)  charge=  1.8279  magn= -0.0007
     atom   6 (R=0.057)  charge=  1.8293  magn= -0.0010
     atom   7 (R=0.057)  charge=  1.8306  magn= -0.0001
     atom   8 (R=0.057)  charge=  1.8293  magn= -0.0010
     atom   9 (R=0.057)  charge=  1.8276  magn= -0.0005
     atom  10 (R=0.057)  charge=  1.8357  magn=  0.0014
     atom  11 (R=0.057)  charge=  1.8307  magn= -0.0001
     atom  12 (R=0.057)  charge=  1.8307  magn= -0.0001
     atom  13 (R=0.057)  charge=  1.8307  magn= -0.0001
     atom  14 (R=0.057)  charge=  1.7963  magn=  0.0009
     atom  15 (R=0.057)  charge=  1.8370  magn= -0.0040
     atom  16 (R=0.057)  charge=  1.8307  magn= -0.0001
     atom  17 (R=0.057)  charge=  1.8370  magn= -0.0040
     atom  18 (R=0.057)  charge=  1.8322  magn= -0.0072
     atom  19 (R=0.057)  charge=  1.8293  magn=  0.0000
     atom  20 (R=0.057)  charge=  1.8309  magn= -0.0000
     atom  21 (R=0.057)  charge=  1.8305  magn= -0.0001
     atom  22 (R=0.057)  charge=  1.8309  magn= -0.0000
     atom  23 (R=0.057)  charge=  1.8315  magn= -0.0001
     atom  24 (R=0.057)  charge=  1.8255  magn= -0.0002
     atom  25 (R=0.057)  charge=  1.8305  magn= -0.0001
     atom  26 (R=0.057)  charge=  1.8255  magn= -0.0002
     atom  27 (R=0.057)  charge=  1.8305  magn= -0.0010
     atom  28 (R=0.057)  charge=  1.8305  magn= -0.0001
     atom  29 (R=0.057)  charge=  1.8253  magn= -0.0002
     atom  30 (R=0.057)  charge=  1.8304  magn= -0.0010
     atom  31 (R=0.057)  charge=  1.8308  magn= -0.0001
     atom  32 (R=0.057)  charge=  1.8367  magn= -0.0040
     atom  33 (R=0.057)  charge=  1.8323  magn= -0.0072
     atom  34 (R=0.057)  charge=  1.8306  magn= -0.0001
     atom  35 (R=0.057)  charge=  1.8295  magn= -0.0010
     atom  36 (R=0.057)  charge=  1.8276  magn= -0.0005
     atom  37 (R=0.057)  charge=  1.8309  magn= -0.0000
     atom  38 (R=0.057)  charge=  1.8314  magn= -0.0001
     atom  39 (R=0.057)  charge=  1.8255  magn= -0.0002
     atom  40 (R=0.057)  charge=  1.8307  magn= -0.0001
     atom  41 (R=0.057)  charge=  1.7966  magn=  0.0009
     atom  42 (R=0.057)  charge=  1.8369  magn= -0.0040
     atom  43 (R=0.057)  charge=  1.8300  magn= -0.0001
     atom  44 (R=0.057)  charge=  1.8280  magn= -0.0007
     atom  45 (R=0.057)  charge=  1.8297  magn= -0.0010
     atom  46 (R=0.057)  charge=  1.8293  magn=  0.0000
     atom  47 (R=0.057)  charge=  1.8311  magn= -0.0000
     atom  48 (R=0.057)  charge=  1.8303  magn= -0.0001
     atom  49 (R=0.057)  charge=  1.8356  magn=  0.0014
     atom  50 (R=0.057)  charge=  1.8308  magn= -0.0001
     atom  51 (R=0.057)  charge=  1.8307  magn= -0.0001
     atom  52 (R=0.057)  charge=  1.8294  magn= -0.0000
     atom  53 (R=0.057)  charge=  1.8297  magn= -0.0001
     atom  54 (R=0.057)  charge=  1.8308  magn= -0.0001
     atom  55 (R=0.057)  charge=  1.8305  magn= -0.0001
     atom  56 (R=0.057)  charge=  1.8308  magn= -0.0001
     atom  57 (R=0.057)  charge=  1.8306  magn= -0.0001
     atom  58 (R=0.057)  charge=  1.8253  magn= -0.0002
     atom  59 (R=0.057)  charge=  1.8367  magn= -0.0040
     atom  60 (R=0.057)  charge=  1.8295  magn= -0.0010
     atom  61 (R=0.057)  charge=  1.8304  magn= -0.0010
     atom  62 (R=0.057)  charge=  1.8323  magn= -0.0072
     atom  63 (R=0.057)  charge=  1.8276  magn= -0.0005
     atom  64 (R=0.057)  charge=  1.8309  magn= -0.0000
     atom  65 (R=0.057)  charge=  1.8307  magn= -0.0001
     atom  66 (R=0.057)  charge=  1.8300  magn= -0.0001
     atom  67 (R=0.057)  charge=  1.8314  magn= -0.0001
     atom  68 (R=0.057)  charge=  1.7966  magn=  0.0009
     atom  69 (R=0.057)  charge=  1.8280  magn= -0.0007
     atom  70 (R=0.057)  charge=  1.8255  magn= -0.0002
     atom  71 (R=0.057)  charge=  1.8369  magn= -0.0040
     atom  72 (R=0.057)  charge=  1.8297  magn= -0.0010
     atom  73 (R=0.057)  charge=  1.8293  magn=  0.0000
     atom  74 (R=0.057)  charge=  1.8356  magn=  0.0014
     atom  75 (R=0.057)  charge=  1.8294  magn= -0.0000
     atom  76 (R=0.057)  charge=  1.8311  magn= -0.0000
     atom  77 (R=0.057)  charge=  1.8308  magn= -0.0001
     atom  78 (R=0.057)  charge=  1.8297  magn= -0.0001
     atom  79 (R=0.057)  charge=  1.8303  magn= -0.0001
     atom  80 (R=0.057)  charge=  1.8307  magn= -0.0001
     atom  81 (R=0.057)  charge=  1.8308  magn= -0.0001
     atom  82 (R=0.057)  charge=  1.8299  magn=  0.0001
     atom  83 (R=0.057)  charge=  1.8368  magn=  0.0034
     atom  84 (R=0.057)  charge=  1.8297  magn= -0.0000
     atom  85 (R=0.057)  charge=  1.8368  magn=  0.0034
     atom  86 (R=0.057)  charge=  1.8323  magn= -0.0009
     atom  87 (R=0.057)  charge=  1.8348  magn=  0.0021
     atom  88 (R=0.057)  charge=  1.8297  magn= -0.0000
     atom  89 (R=0.057)  charge=  1.8348  magn=  0.0021
     atom  90 (R=0.057)  charge=  1.8301  magn= -0.0001
     atom  91 (R=0.057)  charge=  1.8325  magn=  0.0002
     atom  92 (R=0.057)  charge=  1.8338  magn= -0.0006
     atom  93 (R=0.057)  charge=  1.8368  magn=  0.0034
     atom  94 (R=0.057)  charge=  1.8338  magn= -0.0006
     atom  95 (R=0.057)  charge=  1.8323  magn= -0.0009
     atom  96 (R=0.057)  charge=  1.8368  magn=  0.0034
     atom  97 (R=0.057)  charge=  1.8323  magn= -0.0009
     atom  98 (R=0.057)  charge=  1.8348  magn=  0.0021
     atom  99 (R=0.057)  charge=  1.8306  magn=  0.0000
     atom 100 (R=0.057)  charge=  1.8325  magn=  0.0002
     atom 101 (R=0.057)  charge=  1.8297  magn=  0.0001
     atom 102 (R=0.057)  charge=  1.8325  magn=  0.0002
     atom 103 (R=0.057)  charge=  1.8335  magn= -0.0006
     atom 104 (R=0.057)  charge=  1.8367  magn=  0.0034
     atom 105 (R=0.057)  charge=  1.8297  magn=  0.0001
     atom 106 (R=0.057)  charge=  1.8367  magn=  0.0034
     atom 107 (R=0.057)  charge=  1.8297  magn= -0.0000
     atom 108 (R=0.057)  charge=  1.8296  magn=  0.0002
     atom 109 (R=0.057)  charge=  1.8265  magn=  0.0002
     atom 110 (R=0.057)  charge=  1.8303  magn=  0.0010
     atom 111 (R=0.057)  charge=  1.8265  magn=  0.0002
     atom 112 (R=0.057)  charge=  1.8236  magn=  0.0063
     atom 113 (R=0.057)  charge=  1.8253  magn=  0.0170
     atom 114 (R=0.057)  charge=  1.8303  magn=  0.0010
     atom 115 (R=0.057)  charge=  1.8253  magn=  0.0170
     atom 116 (R=0.057)  charge=  1.8276  magn=  0.0002
     atom 117 (R=0.057)  charge=  1.8297  magn=  0.0002
     atom 118 (R=0.057)  charge=  1.8292  magn=  0.0009
     atom 119 (R=0.057)  charge=  1.8265  magn=  0.0002
     atom 120 (R=0.057)  charge=  1.8292  magn=  0.0009
     atom 121 (R=0.057)  charge=  1.8238  magn=  0.0063
     atom 122 (R=0.057)  charge=  1.8265  magn=  0.0002
     atom 123 (R=0.057)  charge=  1.8238  magn=  0.0063
     atom 124 (R=0.057)  charge=  1.8252  magn=  0.0170
     atom 125 (R=0.057)  charge=  1.8290  magn=  0.0001
     atom 126 (R=0.057)  charge=  1.8296  magn=  0.0002
     atom 127 (R=0.057)  charge=  1.8296  magn=  0.0002
     atom 128 (R=0.057)  charge=  1.8296  magn=  0.0002
     atom 129 (R=0.057)  charge=  1.8292  magn=  0.0009
     atom 130 (R=0.057)  charge=  1.8265  magn=  0.0002
     atom 131 (R=0.057)  charge=  1.8296  magn=  0.0002
     atom 132 (R=0.057)  charge=  1.8265  magn=  0.0002
     atom 133 (R=0.057)  charge=  1.8302  magn=  0.0010
     atom 134 (R=0.057)  charge=  1.8286  magn=  0.0002
     atom 135 (R=0.057)  charge=  1.8238  magn=  0.0042
     atom 136 (R=0.057)  charge=  1.8283  magn=  0.0184
     atom 137 (R=0.057)  charge=  1.8293  magn=  0.0009
     atom 138 (R=0.057)  charge=  1.8452  magn=  0.2382
     atom 139 (R=0.057)  charge=  1.8251  magn=  0.0069
     atom 140 (R=0.057)  charge=  1.8318  magn=  0.0017
     atom 141 (R=0.057)  charge=  1.8289  magn=  0.0016
     atom 142 (R=0.057)  charge=  1.8277  magn=  0.0001
     atom 143 (R=0.057)  charge=  1.8306  magn=  0.0000
     atom 144 (R=0.057)  charge=  1.8325  magn=  0.0002
     atom 145 (R=0.057)  charge=  1.8287  magn=  0.0004
     atom 146 (R=0.057)  charge=  1.8286  magn=  0.0002
     atom 147 (R=0.057)  charge=  1.8238  magn=  0.0042
     atom 148 (R=0.057)  charge=  1.8283  magn=  0.0184
     atom 149 (R=0.057)  charge=  1.8292  magn=  0.0001
     atom 150 (R=0.057)  charge=  1.8278  magn=  0.0001
     atom 151 (R=0.057)  charge=  1.8298  magn=  0.0011
     atom 152 (R=0.057)  charge=  1.8292  magn=  0.0001
     atom 153 (R=0.057)  charge=  1.8278  magn=  0.0001
     atom 154 (R=0.057)  charge=  1.8298  magn=  0.0011
     atom 155 (R=0.057)  charge=  1.8318  magn=  0.0017
     atom 156 (R=0.057)  charge=  1.8289  magn=  0.0016
     atom 157 (R=0.057)  charge=  1.8277  magn=  0.0001
     atom 158 (R=0.057)  charge=  1.8290  magn=  0.0005
     atom 159 (R=0.057)  charge=  1.8295  magn=  0.0013
     atom 160 (R=0.057)  charge=  1.8298  magn=  0.0001
     atom 161 (R=0.057)  charge=  1.8286  magn=  0.0002
     atom 162 (R=0.057)  charge=  1.8293  magn=  0.0009
     atom 163 (R=0.057)  charge=  1.8318  magn=  0.0017
     atom 164 (R=0.057)  charge=  1.8238  magn=  0.0042
     atom 165 (R=0.057)  charge=  1.8452  magn=  0.2382
     atom 166 (R=0.057)  charge=  1.8289  magn=  0.0016
     atom 167 (R=0.057)  charge=  1.8283  magn=  0.0184
     atom 168 (R=0.057)  charge=  1.8251  magn=  0.0069
     atom 169 (R=0.057)  charge=  1.8277  magn=  0.0001
     atom 170 (R=0.057)  charge=  1.8306  magn=  0.0000
     atom 171 (R=0.057)  charge=  1.8286  magn=  0.0002
     atom 172 (R=0.057)  charge=  1.8292  magn=  0.0001
     atom 173 (R=0.057)  charge=  1.8325  magn=  0.0002
     atom 174 (R=0.057)  charge=  1.8238  magn=  0.0042
     atom 175 (R=0.057)  charge=  1.8278  magn=  0.0001
     atom 176 (R=0.057)  charge=  1.8287  magn=  0.0004
     atom 177 (R=0.057)  charge=  1.8283  magn=  0.0184
     atom 178 (R=0.057)  charge=  1.8298  magn=  0.0011
     atom 179 (R=0.057)  charge=  1.8292  magn=  0.0001
     atom 180 (R=0.057)  charge=  1.8318  magn=  0.0017
     atom 181 (R=0.057)  charge=  1.8290  magn=  0.0005
     atom 182 (R=0.057)  charge=  1.8278  magn=  0.0001
     atom 183 (R=0.057)  charge=  1.8289  magn=  0.0016
     atom 184 (R=0.057)  charge=  1.8295  magn=  0.0013
     atom 185 (R=0.057)  charge=  1.8298  magn=  0.0011
     atom 186 (R=0.057)  charge=  1.8277  magn=  0.0001
     atom 187 (R=0.057)  charge=  1.8298  magn=  0.0001
     atom 188 (R=0.057)  charge=  1.8284  magn=  0.0004
     atom 189 (R=0.057)  charge=  1.8283  magn=  0.0184
     atom 190 (R=0.057)  charge=  1.8298  magn=  0.0011
     atom 191 (R=0.057)  charge=  1.8283  magn=  0.0184
     atom 192 (R=0.057)  charge=  1.8251  magn=  0.0069
     atom 193 (R=0.057)  charge=  1.8277  magn=  0.0001
     atom 194 (R=0.057)  charge=  1.8298  magn=  0.0011
     atom 195 (R=0.057)  charge=  1.8277  magn=  0.0001
     atom 196 (R=0.057)  charge=  1.8298  magn=  0.0001
     atom 197 (R=0.057)  charge=  1.8326  magn=  0.0002
     atom 198 (R=0.057)  charge=  1.8238  magn=  0.0042
     atom 199 (R=0.057)  charge=  1.8278  magn=  0.0001
     atom 200 (R=0.057)  charge=  1.8238  magn=  0.0042
     atom 201 (R=0.057)  charge=  1.8453  magn=  0.2382
     atom 202 (R=0.057)  charge=  1.8289  magn=  0.0016
     atom 203 (R=0.057)  charge=  1.8278  magn=  0.0001
     atom 204 (R=0.057)  charge=  1.8289  magn=  0.0016
     atom 205 (R=0.057)  charge=  1.8295  magn=  0.0013
     atom 206 (R=0.057)  charge=  1.8306  magn=  0.0000
     atom 207 (R=0.057)  charge=  1.8286  magn=  0.0002
     atom 208 (R=0.057)  charge=  1.8292  magn=  0.0001
     atom 209 (R=0.057)  charge=  1.8286  magn=  0.0002
     atom 210 (R=0.057)  charge=  1.8293  magn=  0.0009
     atom 211 (R=0.057)  charge=  1.8317  magn=  0.0017
     atom 212 (R=0.057)  charge=  1.8292  magn=  0.0001
     atom 213 (R=0.057)  charge=  1.8317  magn=  0.0017
     atom 214 (R=0.057)  charge=  1.8290  magn=  0.0005
     atom 215 (R=0.057)  charge=  2.9426  magn= -0.0003

     total cpu time spent up to now is      393.9 secs

     End of self-consistent calculation

 ------ SPIN UP ------------


          k = 0.0000 0.0000 0.0000 ( 42379 PWs)   bands (ev):

    -8.2881  -7.4084  -7.2896  -7.2896  -7.2492  -7.2492  -7.1533  -6.5707
    -6.2869  -6.2869  -6.2799  -6.2799  -6.2764  -6.2432  -6.2432  -6.2236
    -6.1947  -6.1947  -6.0109  -5.4924  -5.2666  -5.2576  -5.2576  -5.2410
    -5.2410  -5.2371  -5.0740  -4.4473  -4.2735  -4.2735  -4.2544  -4.2544
    -4.1931  -3.8491  -3.3802  -3.3777  -3.3777  -3.3697  -3.3696  -3.3696
    -3.3628  -3.3627  -3.3456  -3.3396  -3.3385  -3.3385  -3.3340  -3.3340
    -3.3200  -3.3199  -3.3132  -3.2950  -3.2949  -3.2652  -3.2130  -3.2130
    -3.0292  -2.8241  -2.6039  -2.6039  -2.5853  -2.5845  -2.5845  -2.5689
    -2.5666  -2.5652  -2.5652  -2.5597  -2.5597  -2.5311  -2.5244  -2.5244
    -2.5119  -2.5119  -2.5048  -2.4760  -2.4760  -2.4244  -2.3500  -2.3500
    -1.6565  -1.0641  -0.9019  -0.9019  -0.8820  -0.8820  -0.8661  -0.8642
    -0.8560  -0.8560  -0.8127  -0.8127  -0.4636   0.3438   0.4009   0.4009
     0.4114   0.4114   0.4512   0.6818   0.8766   0.8766   0.8907   0.8973
     0.8973   0.9050   0.9050   0.9074   0.9181   0.9211   0.9211   0.9370
     0.9370   0.9610   0.9729   1.0063   1.0063   1.0148   1.0379   1.0380
     1.0434   1.0434   1.0897   1.1115   1.1115   1.1167   1.1308   1.1308
     1.1315   1.1368   1.1376   1.1376   1.1459   1.1704   1.1705   1.1825
     1.1859   1.1860   1.1938   1.1938   1.1983   1.1983   1.2020   1.4458
     1.5466   1.5467   1.9378   2.1994   2.2003   2.2003   2.2202   2.2371
     2.2371   2.2461   2.2717   2.2718   2.3891   2.3892   3.3768   3.7333
     3.7438   3.7438   3.7867   3.7905   3.7937   3.7937   3.7994   3.8009
     3.8010   3.8160   3.8205   3.8206   3.8216   3.8283   3.8284   3.9609
     3.9609   3.9743   4.0066   4.3700   4.3700   4.3860   4.4362   4.4487
     4.4497   4.4497   4.4565   4.4565   4.4667   4.4684   4.4684   4.4781
     4.4782   4.4898   4.4927   4.4927   4.4969   4.4969   4.5033   4.5106
     4.7156   4.7157   5.2633   5.2718   5.2719   5.3160   5.3162   5.3169
     5.3169   5.3246   5.3246   5.3330   5.3330   5.3399   5.3557   5.3558
     5.3867   5.4035   5.4035   5.4186   5.4268   5.4651   5.4651   5.5361
     5.5404   5.5404   5.6127   5.7542   5.7542   5.8198   5.8372   5.8395
     5.8395   5.8514   5.8514   5.8552   5.8552   5.8553   5.8588   5.8692
     5.8833   5.8833   5.9041   5.9067   5.9067   5.9111   5.9289   5.9289
     5.9403   5.9641   5.9641   6.0031   6.0032   6.3278   6.3417   6.3417
     6.8592   6.8592   6.8955   6.9260   6.9280   6.9280   7.0593   7.3811
     7.3812   7.4522   7.4522   7.4526   7.4623   7.4657   7.4658   7.5058
     7.5501   7.5501   7.7373   7.7373   7.8317   7.8534   7.8579   7.8580
     7.8629   7.8726   7.8726   7.8899   7.9220   7.9220   7.9288   8.0653
     8.0653   8.0973   8.1171   8.1171   8.1176   8.1392   8.1395   8.1395
     8.1401   8.1437   8.1438   8.1525   8.1543   8.1544   8.1826   8.1826
     8.1916   8.1990   8.1990   8.2047   8.2047   8.2143   8.2686   8.2686
     8.2957   8.3106   8.3237   8.3259   8.3286   8.3286   8.3310   8.3310
     8.3375   8.3375   8.3393   8.3487   8.3487   8.3490   8.3558   8.3564
     8.3564   8.3574   8.3602   8.3602   8.3706   8.3706   8.3747   8.3767
     8.3817   8.3817   8.4138   8.4138   8.4212   8.4212   8.4423   8.4476
     8.4476   8.4616   8.4693   8.4694   8.5011   8.5235   8.5359   8.5359
     8.5417   8.6409   8.6410   8.9156   8.9156   8.9204   9.0934   9.0934
     9.1464   9.1583   9.1583   9.1635   9.1818   9.1894   9.1894   9.1984
     9.1985   9.2031   9.2095   9.2151   9.2151   9.2245   9.2245   9.2466
     9.3198   9.3198   9.3272  10.0415  10.1193  10.1193  10.5000  10.5219
    10.5219  10.5652  10.5754  10.5754  10.5875  10.5906  10.5906  10.6030
    10.6676  10.6677  10.6783  10.7681  10.7681  10.8253  10.8253  10.8298
    10.8299  10.8308  10.8350  10.8350  10.8355  10.8716  10.8716  10.8804
    10.8879  10.8880  10.8950  10.9327  10.9327  11.5008  11.5160  11.5161
    11.7406  11.7407  11.7487  11.7689  11.7756  11.7811  11.7812  11.8465
    11.8465  11.9163  12.9584  13.0013  13.0014  14.0525  14.9964  14.9965
    17.2994  17.2994  17.3162  17.3603  17.3603  17.3730  17.8526  17.9507
    17.9508  17.9530  17.9530  18.0189  18.0791  18.0791  18.1382  18.1955
    18.1975  18.1975  18.8159  18.8160  18.8249  19.3786  19.4720  19.4720
    19.4846  19.5152  19.5152  19.5342  19.5428  19.5428  19.5485  19.5485
    19.5929  19.9868  20.1935  20.1935  20.2144  20.2145  20.2181  20.2263
    20.2264  20.2291  20.2291  20.2296  20.2493  20.2508  20.2508  20.2575
    20.2875  20.2876  20.2934  20.3310  20.3311  20.3460  20.3734  20.3737
    20.3737  20.6153  20.6868  20.6868  20.7106  20.7215  20.7250  20.7250
    20.7320  20.7321  20.7403  20.7521  20.7522  20.7542  20.7854  20.7854
    20.8103  20.8104  20.8170  20.8246  20.8253  20.8253  20.8352  20.8399
    20.8399  20.8519  20.8519  20.8565  20.8694  20.8694  20.8887  20.8887
    20.9036  20.9118  20.9118  20.9386  20.9524  21.0071  21.0190  21.0190
    21.0798  21.0798  21.0852  21.1874  21.2979  21.2979  21.3157  21.3278
    21.3278  21.3330  21.3365  21.3365  21.3478  21.3527  21.3527  21.3637
    21.3804  21.3804  21.3939  21.3945  21.3946  21.4064  21.4064  21.4144
    21.4145  21.4148  21.4245  21.4245  21.4293  21.4461  21.4526  21.4526
    21.4658  21.4658  21.4928  21.4928  21.5061  21.5091  21.6031  21.6330
    21.6330  21.6372  21.6533  21.6533  21.6542  21.6614  21.6840  21.6840
    21.6935  21.6935  21.7119  21.7481  21.7482  21.7626  21.7925  21.8184
    21.8185  21.9567  21.9567  21.9756  22.0160  22.0160  22.1101  22.1101
    22.1254  22.1793  22.1793  22.1902  22.1903  22.2017  22.2017  22.3431
    22.3493  22.3494  22.4083  22.4567  22.4567  22.4765  22.4832  22.4832
    22.6478  22.6756  22.6756  22.8085  22.9517  22.9517  22.9838  23.1017
    23.1017  23.1082  23.1203  23.1203  23.1333  23.1333  23.1352  23.1394
    23.1394  23.1499  23.1546  23.1808  23.2033  23.2033  23.2171  23.2834
    23.3013  23.3013  23.3559  23.3559  23.4167  23.4506  23.4506  23.7811
    23.7811  23.7901  23.8038  23.8128  23.8128  23.8140  23.8272  23.8279
    23.8279  23.8460  23.8478  23.8478  23.8571  23.8572  23.8867  23.9017
    23.9546  23.9547  23.9784  24.1064  24.1064  24.1886  24.1886  24.2303
    24.2303  24.2321  24.2587  24.2747  24.2747  24.2760  24.2838  24.2838
    24.2970  24.3277  24.3278  24.3441  24.3750  24.3750  24.3930  24.3931
    24.3989  24.4022  24.4022  24.4146  24.4679  24.4729  24.4819  24.4819
    24.4837  24.4971  24.4971  24.5048  24.5052  24.5052  24.5219  24.5219
    24.5278  24.5578  24.5579  24.5579  24.6548  24.6549  24.7094  24.7524
    24.7524  24.9144  24.9144  25.5249  25.5293  25.5293  25.6128  25.7493
    25.7975  25.7975  25.8003  25.8003  26.0031  26.0050  26.0050  26.0140
    26.0473  26.0473  26.1084  26.1305  26.1477  26.1478  26.2442  26.2770
    26.2771  26.4400  26.5797  26.5833  26.5833  26.6230  26.6436  26.6436
    26.6519  26.6685  26.6685  26.6973  26.6993  26.6993  26.7475  26.7476
    26.7536  26.7777  26.7797  26.7797  26.8276  26.8441  26.8441  26.9341
    26.9342  27.0673  27.0673  27.0899  27.0987  27.1060  27.1061  27.1258
    27.1267  27.1267  27.1285  27.1361  27.1361  27.1618  27.1619  27.1809
    27.2028  27.2204  27.2205  27.2423  27.2432  27.2432  27.2612  27.2613
    27.2714  27.2756  27.2756  27.2760  27.2900  27.3017  27.3017  27.3099
    27.3100  27.3150  27.3180  27.3332  27.3332  27.3345  27.3608  27.3608
    27.3637  27.3704  27.3757  27.3757  27.3883  27.3883  27.4006  27.4178
    27.4374  27.4374  27.4658  27.4814  27.4814  27.4877  27.4877  27.5163
    27.5205  27.5205  27.5444  27.5502  27.5502  27.5601  27.5788  27.5875
    27.5875  27.5924  27.5925  27.5968  27.5971  27.5971  27.5975  27.6396
    27.6396  27.7042  27.7139  27.7139  27.7707  27.8753  27.8753  27.8859
    27.9152  27.9268  27.9268  27.9811  28.0432  28.0432  28.0841  28.0841
    28.1092  28.1522  28.1523  28.2621  28.3219  28.3220  28.3223  28.3361
    28.3484  28.3484  28.5643  28.6435  28.6437  28.7717  29.7252  29.8010
    29.8011  29.8421  29.9304  29.9304  30.0075  30.0549

 ------ SPIN DOWN ----------


          k = 0.0000 0.0000 0.0000 ( 42379 PWs)   bands (ev):

    -8.2826  -7.4052  -7.2866  -7.2866  -7.2416  -7.2416  -7.1410  -6.5670
    -6.2846  -6.2846  -6.2766  -6.2766  -6.2716  -6.2353  -6.2353  -6.2201
    -6.1785  -6.1785  -5.9880  -5.4876  -5.2603  -5.2491  -5.2491  -5.2305
    -5.2263  -5.2263  -5.0506  -4.4360  -4.2670  -4.2670  -4.2444  -4.2444
    -4.1857  -3.8359  -3.3774  -3.3756  -3.3756  -3.3672  -3.3644  -3.3644
    -3.3585  -3.3585  -3.3440  -3.3373  -3.3356  -3.3356  -3.3296  -3.3296
    -3.3019  -3.2999  -3.2999  -3.2874  -3.2874  -3.2623  -3.1901  -3.1901
    -3.0175  -2.8203  -2.6012  -2.6012  -2.5824  -2.5799  -2.5799  -2.5665
    -2.5622  -2.5622  -2.5577  -2.5484  -2.5484  -2.5230  -2.5187  -2.5187
    -2.5084  -2.5083  -2.4933  -2.4642  -2.4641  -2.4145  -2.2888  -2.2888
    -1.5989  -1.0558  -0.8962  -0.8962  -0.8716  -0.8716  -0.8598  -0.8598
    -0.8505  -0.8505  -0.7829  -0.7829  -0.4030   0.3557   0.4042   0.4043
     0.4193   0.4193   0.4568   0.7013   0.8801   0.8801   0.8910   0.9005
     0.9005   0.9074   0.9074   0.9097   0.9199   0.9263   0.9263   0.9404
     0.9404   0.9687   0.9859   1.0167   1.0167   1.0206   1.0452   1.0452
     1.0669   1.0669   1.0953   1.1157   1.1157   1.1258   1.1349   1.1361
     1.1361   1.1409   1.1409   1.1417   1.1547   1.1747   1.1747   1.1886
     1.1922   1.1923   1.2027   1.2027   1.2158   1.2158   1.2292   1.4611
     1.5957   1.5958   1.9574   2.2063   2.2063   2.2165   2.2305   2.2414
     2.2414   2.2488   2.2779   2.2779   2.4479   2.4480   3.4397   3.7457
     3.7498   3.7498   3.7898   3.7975   3.7975   3.7984   3.8053   3.8053
     3.8093   3.8189   3.8257   3.8257   3.8262   3.8400   3.8400   3.9762
     3.9762   3.9849   4.0249   4.3772   4.3772   4.4068   4.4409   4.4495
     4.4556   4.4556   4.4611   4.4612   4.4706   4.4743   4.4743   4.4839
     4.4839   4.4988   4.4988   4.5016   4.5076   4.5076   4.5139   4.5236
     4.7732   4.7732   5.2767   5.2767   5.2782   5.3178   5.3188   5.3188
     5.3198   5.3274   5.3274   5.3374   5.3374   5.3425   5.3589   5.3589
     5.3999   5.4116   5.4116   5.4274   5.4321   5.4775   5.4775   5.5385
     5.5509   5.5509   5.6467   5.7602   5.7602   5.8316   5.8428   5.8428
     5.8431   5.8562   5.8562   5.8623   5.8623   5.8635   5.8640   5.8778
     5.8893   5.8893   5.9087   5.9182   5.9182   5.9199   5.9400   5.9400
     5.9612   5.9837   5.9837   6.0135   6.0135   6.3481   6.3862   6.3862
     6.8658   6.8658   6.9050   6.9349   6.9458   6.9459   7.1288   7.3944
     7.3944   7.4552   7.4553   7.4618   7.4678   7.4734   7.4734   7.5212
     7.5655   7.5655   7.7423   7.7423   7.8435   7.8606   7.8675   7.8675
     7.8802   7.8802   7.8856   7.8999   7.9320   7.9321   7.9436   8.0746
     8.0746   8.1005   8.1193   8.1194   8.1203   8.1413   8.1413   8.1421
     8.1428   8.1470   8.1470   8.1573   8.1574   8.1586   8.1895   8.1895
     8.1983   8.2066   8.2066   8.2155   8.2156   8.2191   8.2743   8.2744
     8.3027   8.3252   8.3268   8.3307   8.3307   8.3318   8.3365   8.3365
     8.3401   8.3401   8.3453   8.3519   8.3543   8.3543   8.3592   8.3600
     8.3600   8.3634   8.3634   8.3638   8.3768   8.3768   8.3814   8.3934
     8.3938   8.3938   8.4246   8.4246   8.4299   8.4299   8.4461   8.4534
     8.4534   8.4763   8.4809   8.4810   8.5281   8.5332   8.5470   8.5596
     8.5596   8.6769   8.6770   8.9315   8.9345   8.9346   9.0995   9.0995
     9.1504   9.1610   9.1610   9.1655   9.1921   9.1978   9.1978   9.2111
     9.2112   9.2123   9.2150   9.2248   9.2248   9.2368   9.2368   9.2509
     9.3487   9.3488   9.3595  10.0567  10.1886  10.1887  10.5367  10.5368
    10.5714  10.5780  10.5781  10.5907  10.5994  10.6042  10.6042  10.6361
    10.6727  10.6728  10.6868  10.7736  10.7737  10.8317  10.8318  10.8372
    10.8373  10.8379  10.8407  10.8453  10.8453  10.8821  10.8821  10.8993
    10.8993  10.8994  10.9067  10.9423  10.9423  11.5134  11.5441  11.5442
    11.7479  11.7480  11.7511  11.7735  11.7862  11.7862  11.7882  11.8634
    11.8635  12.1806  13.0383  13.0384  13.0520  14.6460  16.1639  16.1640
    17.3033  17.3033  17.3264  17.3722  17.3722  17.3846  17.8579  17.9577
    17.9577  17.9606  17.9606  18.0280  18.0842  18.0842  18.1687  18.2045
    18.2154  18.2154  18.8340  18.8341  18.8361  19.3872  19.4757  19.4757
    19.4875  19.5253  19.5253  19.5380  19.5481  19.5482  19.5543  19.5543
    19.6000  19.9916  20.1959  20.1959  20.2175  20.2176  20.2199  20.2297
    20.2298  20.2318  20.2383  20.2383  20.2531  20.2578  20.2579  20.2639
    20.2967  20.2967  20.2994  20.3375  20.3375  20.3536  20.3817  20.3817
    20.3822  20.6203  20.6921  20.6922  20.7126  20.7238  20.7274  20.7275
    20.7341  20.7341  20.7435  20.7551  20.7552  20.7561  20.7884  20.7884
    20.8140  20.8140  20.8209  20.8297  20.8297  20.8351  20.8397  20.8546
    20.8546  20.8593  20.8593  20.8606  20.8811  20.8811  20.8946  20.8946
    20.9070  20.9221  20.9221  20.9494  20.9591  21.0185  21.0244  21.0244
    21.0880  21.0880  21.0921  21.1919  21.3018  21.3018  21.3199  21.3318
    21.3318  21.3384  21.3401  21.3401  21.3489  21.3577  21.3577  21.3756
    21.3838  21.3839  21.3975  21.4039  21.4039  21.4128  21.4129  21.4213
    21.4214  21.4215  21.4312  21.4313  21.4351  21.4568  21.4655  21.4656
    21.4798  21.4798  21.5150  21.5150  21.5225  21.5377  21.6106  21.6406
    21.6453  21.6454  21.6586  21.6586  21.6608  21.6662  21.6913  21.6913
    21.7021  21.7022  21.7238  21.7530  21.7530  21.7686  21.8141  21.8410
    21.8410  21.9756  21.9756  21.9809  22.0341  22.0341  22.1127  22.1127
    22.1287  22.1947  22.1947  22.1956  22.2007  22.2102  22.2102  22.3502
    22.3594  22.3594  22.4245  22.4646  22.4647  22.4857  22.4872  22.4872
    22.6608  22.7151  22.7151  22.8763  22.9668  22.9668  23.0013  23.1077
    23.1078  23.1109  23.1233  23.1233  23.1389  23.1389  23.1408  23.1419
    23.1419  23.1558  23.1608  23.1937  23.2220  23.2221  23.2317  23.3187
    23.3433  23.3433  23.3737  23.3737  23.4348  23.4871  23.4872  23.7870
    23.7870  23.7918  23.8111  23.8167  23.8168  23.8169  23.8319  23.8319
    23.8539  23.8559  23.8559  23.8621  23.8673  23.8674  23.8936  23.9193
    23.9733  23.9733  23.9901  24.1183  24.1183  24.2056  24.2056  24.2358
    24.2358  24.2374  24.2619  24.2789  24.2789  24.2832  24.2877  24.2878
    24.3017  24.3337  24.3338  24.3499  24.3862  24.3862  24.4033  24.4055
    24.4055  24.4183  24.4183  24.4227  24.4702  24.4866  24.4866  24.4883
    24.4888  24.5102  24.5102  24.5105  24.5148  24.5148  24.5334  24.5363
    24.5363  24.5625  24.5625  24.5832  24.7034  24.7034  24.7380  24.8792
    24.8793  24.9774  24.9774  25.5675  25.5706  25.5707  25.6454  25.7566
    25.8099  25.8099  25.8178  25.8178  26.0050  26.0104  26.0104  26.0199
    26.0565  26.0565  26.1270  26.1410  26.1658  26.1659  26.2636  26.3076
    26.3076  26.4547  26.5888  26.5888  26.5959  26.6292  26.6504  26.6504
    26.6591  26.6748  26.6748  26.7083  26.7083  26.7089  26.7582  26.7582
    26.7694  26.7845  26.7857  26.7857  26.8320  26.8567  26.8567  26.9625
    26.9626  27.0732  27.0732  27.0967  27.1016  27.1096  27.1096  27.1303
    27.1303  27.1309  27.1315  27.1400  27.1400  27.1675  27.1675  27.1904
    27.2072  27.2256  27.2256  27.2488  27.2502  27.2502  27.2650  27.2650
    27.2751  27.2814  27.2826  27.2826  27.2958  27.3088  27.3088  27.3186
    27.3200  27.3200  27.3303  27.3411  27.3467  27.3467  27.3673  27.3674
    27.3709  27.3799  27.3818  27.3818  27.3959  27.3960  27.4238  27.4396
    27.4434  27.4435  27.4729  27.4883  27.4884  27.5108  27.5108  27.5258
    27.5258  27.5330  27.5478  27.5560  27.5560  27.5654  27.5858  27.5939
    27.5939  27.5986  27.5986  27.6021  27.6045  27.6045  27.6058  27.6743
    27.6743  27.7424  27.7424  27.7721  27.8051  27.8967  27.9108  27.9108
    27.9255  27.9488  27.9488  28.0146  28.0647  28.0647  28.1232  28.1233
    28.1252  28.1803  28.1803  28.2993  28.3347  28.3654  28.3655  28.3768
    28.4162  28.4163  28.6398  28.7567  28.7569  28.8871  29.7662  29.8172
    29.8172  29.9099  29.9566  29.9566  30.0219  30.0623

     highest occupied, lowest unoccupied level (ev):    14.99650113   16.16394181

!    total energy              =   -3971.33931072 Ry
     total all-electron energy =    -16414.154913 Ry
     estimated scf accuracy    <          6.7E-09 Ry

     The total energy is the sum of the following terms:
     one-electron contribution =     884.83261377 Ry
     hartree contribution      =     218.57313136 Ry
     xc contribution           =   -1009.09982818 Ry
     ewald contribution        =   -2738.87255203 Ry
     one-center paw contrib.   =   -1326.77267564 Ry

     total magnetization       =     2.00 Bohr mag/cell
     absolute magnetization    =     2.27 Bohr mag/cell

     convergence has been achieved in  15 iterations

     Forces acting on atoms (cartesian axes, Ry/au):

     atom    1 type  1   force =    -0.00007929   -0.00022700    0.00013433
     atom    2 type  1   force =     0.00024880   -0.00008060   -0.00019005
     atom    3 type  1   force =    -0.00033483   -0.00050686    0.00018148
     atom    4 type  1   force =     0.00021075   -0.00008985   -0.00022820
     atom    5 type  1   force =     0.00021895   -0.00008360   -0.00019848
     atom    6 type  1   force =    -0.00043415   -0.00006514   -0.00071418
     atom    7 type  1   force =    -0.00006652   -0.00044185    0.00044995
     atom    8 type  1   force =     0.00069659    0.00020929    0.00041672
     atom    9 type  1   force =    -0.00097720    0.00021154    0.00092604
     atom   10 type  1   force =    -0.00123016   -0.00038030    0.00132228
     atom   11 type  1   force =    -0.00001981   -0.00002302   -0.00002078
     atom   12 type  1   force =    -0.00011312    0.00028727   -0.00061481
     atom   13 type  1   force =     0.00002514   -0.00001212    0.00002403
     atom   14 type  1   force =    -0.01091939   -0.00072507    0.01109525
     atom   15 type  1   force =    -0.00940711   -0.00088431    0.00588473
     atom   16 type  1   force =     0.00052627    0.00044243    0.00002461
     atom   17 type  1   force =    -0.00577664   -0.00000347    0.00951350
     atom   18 type  1   force =    -0.00895891    0.01007270    0.00651488
     atom   19 type  1   force =    -0.00022847   -0.00022423    0.00028287
     atom   20 type  1   force =     0.00000374   -0.00041049    0.00052072
     atom   21 type  1   force =     0.00003400   -0.00001384   -0.00008192
     atom   22 type  1   force =    -0.00040894   -0.00051057    0.00010811
     atom   23 type  1   force =     0.00044453   -0.00086910   -0.00023373
     atom   24 type  1   force =    -0.00021458    0.00102963    0.00003960
     atom   25 type  1   force =     0.00008390   -0.00000172   -0.00003205
     atom   26 type  1   force =    -0.00028725    0.00101201   -0.00003316
     atom   27 type  1   force =    -0.00075824    0.00026776    0.00069322
     atom   28 type  1   force =     0.00006440    0.00002311    0.00000351
     atom   29 type  1   force =    -0.00002862    0.00028792   -0.00102892
     atom   30 type  1   force =    -0.00038836   -0.00075196   -0.00068352
     atom   31 type  1   force =     0.00060060    0.00024362   -0.00024844
     atom   32 type  1   force =    -0.00205734   -0.01015860   -0.00432030
     atom   33 type  1   force =    -0.00350697   -0.00480466   -0.01375541
     atom   34 type  1   force =    -0.00002095   -0.00059595    0.00024495
     atom   35 type  1   force =     0.00083679   -0.00016574   -0.00008859
     atom   36 type  1   force =    -0.00053030   -0.00102749   -0.00078201
     atom   37 type  1   force =    -0.00046434   -0.00039247    0.00028113
     atom   38 type  1   force =     0.00011644    0.00001093    0.00096443
     atom   39 type  1   force =     0.00007889    0.00022051   -0.00103667
     atom   40 type  1   force =     0.00003054   -0.00003051    0.00000074
     atom   41 type  1   force =    -0.00640507   -0.01302704   -0.00571148
     atom   42 type  1   force =    -0.00685535   -0.00796113   -0.00381185
     atom   43 type  1   force =     0.00009426    0.00019919    0.00018142
     atom   44 type  1   force =     0.00011367    0.00019609    0.00018824
     atom   45 type  1   force =    -0.00065578    0.00050695    0.00006705
     atom   46 type  1   force =    -0.00015208   -0.00040930    0.00002145
     atom   47 type  1   force =     0.00009566   -0.00064030    0.00020675
     atom   48 type  1   force =     0.00001662    0.00005240   -0.00000820
     atom   49 type  1   force =    -0.00074050   -0.00164903   -0.00042699
     atom   50 type  1   force =    -0.00001205   -0.00000502   -0.00000814
     atom   51 type  1   force =    -0.00021943    0.00062029   -0.00017930
     atom   52 type  1   force =    -0.00006602   -0.00023944    0.00010960
     atom   53 type  1   force =     0.00015986    0.00018452    0.00015858
     atom   54 type  1   force =    -0.00034514   -0.00044782    0.00025863
     atom   55 type  1   force =    -0.00000712    0.00000576   -0.00006779
     atom   56 type  1   force =     0.00020110    0.00014663   -0.00064793
     atom   57 type  1   force =    -0.00009795   -0.00061469    0.00016771
     atom   58 type  1   force =     0.00093097    0.00052080   -0.00006954
     atom   59 type  1   force =     0.00653303   -0.00807531    0.00426952
     atom   60 type  1   force =     0.00014887   -0.00033265   -0.00077650
     atom   61 type  1   force =     0.00082986   -0.00045626    0.00053481
     atom   62 type  1   force =     0.01439453   -0.00046197    0.00414658
     atom   63 type  1   force =     0.00098658   -0.00065932    0.00073502
     atom   64 type  1   force =    -0.00019389   -0.00032678    0.00055171
     atom   65 type  1   force =     0.00000744   -0.00003625   -0.00002233
     atom   66 type  1   force =    -0.00022040    0.00012278   -0.00013337
     atom   67 type  1   force =    -0.00093606   -0.00024445   -0.00008815
     atom   68 type  1   force =     0.00843546   -0.00942620    0.00912908
     atom   69 type  1   force =    -0.00022582    0.00011384   -0.00015125
     atom   70 type  1   force =     0.00095736    0.00043380   -0.00015831
     atom   71 type  1   force =     0.00538329   -0.00499150    0.00842660
     atom   72 type  1   force =    -0.00020346    0.00061672    0.00051949
     atom   73 type  1   force =     0.00007128   -0.00035513    0.00024484
     atom   74 type  1   force =     0.00078220   -0.00127944    0.00109564
     atom   75 type  1   force =    -0.00005188   -0.00023604    0.00012370
     atom   76 type  1   force =    -0.00004718   -0.00067492    0.00006392
     atom   77 type  1   force =     0.00000884    0.00000002    0.00001268
     atom   78 type  1   force =    -0.00019301    0.00009897   -0.00019423
     atom   79 type  1   force =    -0.00000402    0.00004734   -0.00002871
     atom   80 type  1   force =     0.00002180    0.00067877    0.00006185
     atom   81 type  1   force =    -0.00015549   -0.00040188    0.00044831
     atom   82 type  1   force =     0.00015042   -0.00021480   -0.00009827
     atom   83 type  1   force =     0.00027473    0.00022043    0.00198563
     atom   84 type  1   force =    -0.00010379   -0.00020592   -0.00032949
     atom   85 type  1   force =    -0.00197304   -0.00032494   -0.00026205
     atom   86 type  1   force =     0.00082859    0.00037574   -0.00091963
     atom   87 type  1   force =    -0.00071372   -0.00160495   -0.00020297
     atom   88 type  1   force =     0.00036561   -0.00009201    0.00013988
     atom   89 type  1   force =     0.00055495   -0.00129712    0.00106585
     atom   90 type  1   force =    -0.00000064   -0.00005466    0.00001395
     atom   91 type  1   force =    -0.00216513   -0.00195332    0.00263906
     atom   92 type  1   force =    -0.00001264   -0.00001591   -0.00030228
     atom   93 type  1   force =     0.00034251    0.00017898    0.00197331
     atom   94 type  1   force =     0.00029716    0.00005933    0.00000733
     atom   95 type  1   force =    -0.00037853    0.00093444   -0.00079681
     atom   96 type  1   force =    -0.00194924   -0.00037711   -0.00031848
     atom   97 type  1   force =     0.00054305    0.00115791    0.00012467
     atom   98 type  1   force =    -0.00111396   -0.00054675    0.00124663
     atom   99 type  1   force =    -0.00034966   -0.00095959    0.00058239
     atom  100 type  1   force =     0.00042572   -0.00311994    0.00236389
     atom  101 type  1   force =    -0.00023660   -0.00003977   -0.00005958
     atom  102 type  1   force =    -0.00154875   -0.00359905    0.00038941
     atom  103 type  1   force =    -0.00011697    0.00025744    0.00005451
     atom  104 type  1   force =     0.00102674   -0.00166852   -0.00056309
     atom  105 type  1   force =     0.00006054    0.00003232    0.00023759
     atom  106 type  1   force =     0.00096961   -0.00168233   -0.00062014
     atom  107 type  1   force =    -0.00024345    0.00017683    0.00020047
     atom  108 type  1   force =    -0.00000448    0.00020003   -0.00004399
     atom  109 type  1   force =     0.00027318   -0.00037768    0.00048849
     atom  110 type  1   force =     0.00019034    0.00054271   -0.00035785
     atom  111 type  1   force =    -0.00037775   -0.00053556   -0.00016233
     atom  112 type  1   force =     0.00069980   -0.00124368   -0.00039812
     atom  113 type  1   force =     0.00168857    0.00359712    0.00096303
     atom  114 type  1   force =     0.00022522    0.00055119   -0.00032307
     atom  115 type  1   force =    -0.00173528    0.00276638   -0.00246055
     atom  116 type  1   force =     0.00037352    0.00101424   -0.00061959
     atom  117 type  1   force =     0.00114382   -0.00038198   -0.00105118
     atom  118 type  1   force =     0.00030626    0.00047412    0.00106255
     atom  119 type  1   force =    -0.00040043   -0.00006730    0.00055710
     atom  120 type  1   force =    -0.00113527    0.00012435   -0.00037881
     atom  121 type  1   force =    -0.00147329   -0.00027721   -0.00017524
     atom  122 type  1   force =    -0.00053679   -0.00010042    0.00042073
     atom  123 type  1   force =     0.00019341    0.00012713    0.00149151
     atom  124 type  1   force =     0.00274559    0.00074291   -0.00292567
     atom  125 type  1   force =     0.00012152    0.00038662   -0.00021527
     atom  126 type  1   force =    -0.00124009    0.00068584   -0.00079335
     atom  127 type  1   force =     0.00009679    0.00015086   -0.00004382
     atom  128 type  1   force =     0.00057356    0.00112597    0.00102029
     atom  129 type  1   force =     0.00073812   -0.00072222   -0.00056285
     atom  130 type  1   force =    -0.00020706   -0.00061876   -0.00017174
     atom  131 type  1   force =     0.00000985    0.00012979   -0.00013077
     atom  132 type  1   force =     0.00030678   -0.00049411    0.00034205
     atom  133 type  1   force =     0.00016992    0.00057229   -0.00030879
     atom  134 type  1   force =    -0.00059327    0.00022927   -0.00026598
     atom  135 type  1   force =     0.00017440    0.00183188    0.00147828
     atom  136 type  1   force =     0.00400996    0.00226526   -0.00031769
     atom  137 type  1   force =     0.00021678   -0.00041260    0.00037643
     atom  138 type  1   force =    -0.03434318    0.02278340   -0.02577455
     atom  139 type  1   force =     0.00233408   -0.00073816    0.00118576
     atom  140 type  1   force =     0.00040213    0.00024260   -0.00104505
     atom  141 type  1   force =    -0.00019211   -0.00033829    0.00057319
     atom  142 type  1   force =     0.00003465    0.00009713   -0.00000644
     atom  143 type  1   force =     0.00050925    0.00084869   -0.00046433
     atom  144 type  1   force =    -0.00560985    0.00372490   -0.00420225
     atom  145 type  1   force =    -0.00001500   -0.00042256    0.00032696
     atom  146 type  1   force =    -0.00058257    0.00019787   -0.00032087
     atom  147 type  1   force =     0.00110025   -0.00068156   -0.00195268
     atom  148 type  1   force =     0.00409846    0.00202948   -0.00062240
     atom  149 type  1   force =     0.00005539    0.00016018   -0.00006913
     atom  150 type  1   force =     0.00007549    0.00022842    0.00035076
     atom  151 type  1   force =    -0.00010073    0.00047027    0.00003906
     atom  152 type  1   force =     0.00004842    0.00015191   -0.00006930
     atom  153 type  1   force =     0.00022666   -0.00021101   -0.00024842
     atom  154 type  1   force =     0.00001958    0.00011197   -0.00043640
     atom  155 type  1   force =     0.00005732    0.00115227    0.00020807
     atom  156 type  1   force =    -0.00007541   -0.00066509    0.00012739
     atom  157 type  1   force =     0.00003398    0.00006712   -0.00004762
     atom  158 type  1   force =     0.00020267    0.00029369   -0.00012521
     atom  159 type  1   force =    -0.00039198    0.00029739   -0.00028436
     atom  160 type  1   force =     0.00029089    0.00045141   -0.00021137
     atom  161 type  1   force =     0.00018741    0.00041867    0.00051462
     atom  162 type  1   force =    -0.00026224   -0.00052883   -0.00010263
     atom  163 type  1   force =     0.00096943    0.00038027   -0.00047764
     atom  164 type  1   force =    -0.00186285    0.00133770   -0.00055880
     atom  165 type  1   force =     0.01868557    0.03564988    0.02725307
     atom  166 type  1   force =    -0.00048254   -0.00040877    0.00028274
     atom  167 type  1   force =    -0.00011083    0.00126532   -0.00443837
     atom  168 type  1   force =    -0.00091117   -0.00152574   -0.00205937
     atom  169 type  1   force =    -0.00001555    0.00008493   -0.00005679
     atom  170 type  1   force =     0.00026560    0.00078955   -0.00070795
     atom  171 type  1   force =     0.00024826    0.00039954    0.00051005
     atom  172 type  1   force =     0.00003095    0.00015429   -0.00009362
     atom  173 type  1   force =     0.00304380    0.00582449    0.00445133
     atom  174 type  1   force =     0.00208907   -0.00044160   -0.00096391
     atom  175 type  1   force =    -0.00039244    0.00011485   -0.00011715
     atom  176 type  1   force =    -0.00021851   -0.00047195    0.00012348
     atom  177 type  1   force =     0.00024353    0.00109416   -0.00447736
     atom  178 type  1   force =    -0.00015172    0.00045795   -0.00001186
     atom  179 type  1   force =     0.00003293    0.00014810   -0.00008484
     atom  180 type  1   force =    -0.00047202    0.00102372   -0.00032132
     atom  181 type  1   force =     0.00005825    0.00025865   -0.00026956
     atom  182 type  1   force =     0.00029750   -0.00019380   -0.00017763
     atom  183 type  1   force =     0.00003081   -0.00063928    0.00023358
     atom  184 type  1   force =     0.00019500    0.00043995    0.00030251
     atom  185 type  1   force =     0.00039811    0.00020383   -0.00005784
     atom  186 type  1   force =     0.00003135    0.00006653   -0.00005019
     atom  187 type  1   force =     0.00010730    0.00040695   -0.00039501
     atom  188 type  1   force =    -0.00027113   -0.00031886    0.00034848
     atom  189 type  1   force =    -0.00101821    0.00451601    0.00017367
     atom  190 type  1   force =    -0.00004091    0.00014732   -0.00043728
     atom  191 type  1   force =    -0.00126241    0.00445687   -0.00007024
     atom  192 type  1   force =    -0.00189867    0.00119004    0.00160988
     atom  193 type  1   force =    -0.00002306    0.00009103   -0.00005182
     atom  194 type  1   force =     0.00038900    0.00025160   -0.00000758
     atom  195 type  1   force =     0.00002823    0.00010339   -0.00000048
     atom  196 type  1   force =     0.00006549    0.00055290   -0.00019960
     atom  197 type  1   force =     0.00567967   -0.00135644   -0.00535039
     atom  198 type  1   force =     0.00145026    0.00126726    0.00135368
     atom  199 type  1   force =    -0.00037300    0.00006560   -0.00019429
     atom  200 type  1   force =    -0.00157221    0.00053387   -0.00166884
     atom  201 type  1   force =     0.03484876   -0.00838051   -0.03281483
     atom  202 type  1   force =    -0.00044357   -0.00050466    0.00015718
     atom  203 type  1   force =     0.00016260    0.00019568    0.00034129
     atom  204 type  1   force =    -0.00004657   -0.00040822    0.00055432
     atom  205 type  1   force =     0.00038900   -0.00004700   -0.00037765
     atom  206 type  1   force =     0.00018015    0.00099618   -0.00042183
     atom  207 type  1   force =     0.00048025   -0.00025378   -0.00036184
     atom  208 type  1   force =     0.00001849    0.00016275   -0.00006663
     atom  209 type  1   force =     0.00042505   -0.00026718   -0.00041707
     atom  210 type  1   force =    -0.00040764   -0.00014360    0.00044249
     atom  211 type  1   force =     0.00079376    0.00082090    0.00013388
     atom  212 type  1   force =     0.00002693    0.00016471   -0.00005820
     atom  213 type  1   force =    -0.00030090    0.00055536   -0.00096070
     atom  214 type  1   force =     0.00001132    0.00038328   -0.00010431
     atom  215 type  2   force =    -0.00838510   -0.02169026    0.01364779

     Total force =     0.102807     Total SCF correction =     0.000287


     Computing stress (Cartesian axis) and pressure

          total   stress  (Ry/bohr**3)                   (kbar)     P=       27.03
   0.00017160   0.00001281  -0.00000806           25.24        1.88       -1.19
   0.00001281   0.00019985  -0.00002087            1.88       29.40       -3.07
  -0.00000806  -0.00002087   0.00017977           -1.19       -3.07       26.45


     Writing all to output data dir ./tmp/diamond_pd.save/ :
     XML data file, charge density
     init_run     :      5.81s CPU      6.22s WALL (       1 calls)
     electrons    :    381.35s CPU    387.76s WALL (       1 calls)
     forces       :      4.05s CPU      4.18s WALL (       1 calls)
     stress       :     14.14s CPU     14.26s WALL (       1 calls)

     Called by init_run:
     wfcinit      :      4.90s CPU      5.09s WALL (       1 calls)
     potinit      :      0.62s CPU      0.76s WALL (       1 calls)
     hinit0       :      0.10s CPU      0.11s WALL (       1 calls)

     Called by electrons:
     c_bands      :    345.16s CPU    350.95s WALL (      15 calls)
     sum_band     :     23.09s CPU     23.35s WALL (      15 calls)
     v_of_rho     :      0.57s CPU      0.58s WALL (      16 calls)
     newd         :      2.17s CPU      2.24s WALL (      16 calls)
     PAW_pot      :     10.60s CPU     10.82s WALL (      16 calls)
     mix_rho      :      0.41s CPU      0.41s WALL (      15 calls)

     Called by c_bands:
     init_us_2    :      4.76s CPU      4.87s WALL (      66 calls)
     cegterg      :    339.67s CPU    345.35s WALL (      30 calls)

     Called by *egterg:
     cdiaghg      :     66.82s CPU     67.87s WALL (     209 calls)
     h_psi        :     93.53s CPU     95.92s WALL (     211 calls)
     s_psi        :     29.64s CPU     29.84s WALL (     211 calls)
     g_psi        :      0.78s CPU      0.80s WALL (     179 calls)

     Called by h_psi:
     h_psi:calbec :     31.11s CPU     31.36s WALL (     211 calls)
     vloc_psi     :     30.41s CPU     30.96s WALL (     211 calls)
     add_vuspsi   :     30.42s CPU     31.26s WALL (     211 calls)

     General routines
     calbec       :     54.89s CPU     55.32s WALL (     275 calls)
     fft          :      0.23s CPU      0.24s WALL (     378 calls)
     ffts         :      0.02s CPU      0.02s WALL (      30 calls)
     fftw         :     32.17s CPU     32.75s WALL (  158280 calls)
 
     Parallel routines
 
     PWSCF        :   6m45.47s CPU   6m52.82s WALL

 
   This run was terminated on:   1:10:40  23Aug2026            

=------------------------------------------------------------------------------=
   JOB DONE.
=------------------------------------------------------------------------------=
