
     Program PWSCF v.7.4.1 starts on 23Aug2026 at  0:43:59 

     This program is part of the open-source Quantum ESPRESSO suite
     for quantum simulation of materials; please cite
         "P. Giannozzi et al., J. Phys.:Condens. Matter 21 395502 (2009);
         "P. Giannozzi et al., J. Phys.:Condens. Matter 29 465901 (2017);
         "P. Giannozzi et al., J. Chem. Phys. 152 154105 (2020);
          URL http://www.quantum-espresso.org", 
     in publications or presentations arising from this work. More details at
     http://www.quantum-espresso.org/quote

     Parallel version (MPI), running on    24 processors

     MPI processes distributed on     1 nodes
     124568 MiB available memory on the printing compute node when the environment starts
 
     Reading input from scf.in

     Current dimensions of program PWSCF are:
     Max number of different atomic species (ntypx) = 10
     Max number of k-points (npk) =  40000
     Max angular momentum in pseudopotentials (lmaxx) =  4
     file C.pbe-n-kjpaw_psl.1.0.0.UPF: wavefunction(s)  2S 2P renormalized
     file N.pbe-n-kjpaw_psl.1.0.0.UPF: wavefunction(s)  2S renormalized
 
     R & G space division:  proc/nbgrp/npool/nimage =      24
     Subspace diagonalization in iterative solution of the eigenvalue problem:
     one sub-group per band group will be used
     scalapack distributed-memory algorithm (size of sub-group:  4*  4 procs)

 
     Parallelization info
     --------------------
     sticks:   dense  smooth     PW     G-vecs:    dense   smooth      PW
     Min         244     244     61                14112    14112    1765
     Max         245     245     62                14117    14117    1768
     Sum        5877    5877   1473               338755   338755   42379
 
     Using Slab Decomposition
 


     bravais-lattice index     =            0
     lattice parameter (alat)  =      20.2515  a.u.
     unit-cell volume          =    8305.5769 (a.u.)^3
     number of atoms/cell      =          215
     number of atomic types    =            2
     number of electrons       =       862.00 (up: 432.00, down: 430.00)
     number of Kohn-Sham states=          862
     kinetic-energy cutoff     =      45.0000  Ry
     charge density cutoff     =     180.0000  Ry
     scf convergence threshold =      1.0E-08
     mixing beta               =       0.7000
     number of iterations used =            8  plain     mixing
     Exchange-correlation= SLA  PW   PBX  PBC
                           (   1   4   3   4   0   0   0)

     celldm(1)=  20.251472  celldm(2)=   0.000000  celldm(3)=   0.000000
     celldm(4)=   0.000000  celldm(5)=   0.000000  celldm(6)=   0.000000

     crystal axes: (cart. coord. in units of alat)
               a(1) = (  -0.707107   0.000000   0.707107 )  
               a(2) = (   0.408248   0.816497   0.408248 )  
               a(3) = (  -0.577350   0.577350  -0.577350 )  

     reciprocal axes: (cart. coord. in units 2 pi/alat)
               b(1) = ( -0.707107  0.000000  0.707107 )  
               b(2) = (  0.408248  0.816497  0.408248 )  
               b(3) = ( -0.577350  0.577350 -0.577350 )  


     PseudoPot. # 1 for C  read from file:
     ../../pseudos/C.pbe-n-kjpaw_psl.1.0.0.UPF
     MD5 check sum: 5f16ad9a65e90284d1d834d4ab3b0f7d
     Pseudo is Projector augmented-wave + core cor, Zval =  4.0
     Generated using &quot;atomic&quot; code by A. Dal Corso  v.6.3
     Shape of augmentation charge: PSQ
     Using radial grid of 1073 points,  4 beta functions with: 
                l(1) =   0
                l(2) =   0
                l(3) =   1
                l(4) =   1
     Q(r) pseudized with 0 coefficients 


     PseudoPot. # 2 for N  read from file:
     ../../pseudos/N.pbe-n-kjpaw_psl.1.0.0.UPF
     MD5 check sum: a6186d50559fdcbe4b2d0187dd61a119
     Pseudo is Projector augmented-wave + core cor, Zval =  5.0
     Generated using &quot;atomic&quot; code by A. Dal Corso  v.6.3
     Shape of augmentation charge: PSQ
     Using radial grid of 1085 points,  4 beta functions with: 
                l(1) =   0
                l(2) =   0
                l(3) =   1
                l(4) =   1
     Q(r) pseudized with 0 coefficients 


     atomic species   valence    mass     pseudopotential
     C                 4.00    12.01070     C ( 1.00)
     N                 5.00    14.00670     N ( 1.00)

     Starting magnetic structure 
     atomic species   magnetization
     C               0.000
     N               0.000

     No symmetry found



   Cartesian axes

     site n.     atom                  positions (alat units)
         1        C      tau(   1) = (  -0.0000989   0.0001241   0.0000688  )
         2        C      tau(   2) = (  -0.1925473   0.1927319  -0.1921952  )
         3        C      tau(   3) = (  -0.3849596   0.3849869  -0.3848947  )
         4        C      tau(   4) = (   0.1357660   0.2723940   0.1361181  )
         5        C      tau(   5) = (  -0.0569083   0.4653451  -0.0560034  )
         6        C      tau(   6) = (  -0.2488204   0.6572132  -0.2489149  )
         7        C      tau(   7) = (   0.2721380   0.5444255   0.2722030  )
         8        C      tau(   8) = (   0.0797753   0.7369439   0.0796807  )
         9        C      tau(   9) = (  -0.1129316   0.9289605  -0.1124720  )
        10        C      tau(  10) = (  -0.2357642   0.0001774   0.2357211  )
        11        C      tau(  11) = (  -0.4282982   0.1925403   0.0432230  )
        12        C      tau(  12) = (  -0.6205295   0.3850010  -0.1490440  )
        13        C      tau(  13) = (  -0.0996166   0.2722918   0.3719046  )
        14        C      tau(  14) = (  -0.2946093   0.4652778   0.1817140  )
        15        C      tau(  15) = (  -0.4825367   0.6576537  -0.0128367  )
        16        C      tau(  16) = (   0.0362921   0.5443727   0.5077776  )
        17        C      tau(  17) = (  -0.1563392   0.7368025   0.3133608  )
        18        C      tau(  18) = (  -0.3489487   0.9286713   0.1236152  )
        19        C      tau(  19) = (  -0.4714240   0.0000056   0.4714227  )
        20        C      tau(  20) = (  -0.6640117   0.1923124   0.2789136  )
        21        C      tau(  21) = (  -0.8562138   0.3850985   0.0865669  )
        22        C      tau(  22) = (  -0.3352542   0.2720823   0.6076711  )
        23        C      tau(  23) = (  -0.5282055   0.4641819   0.4155761  )
        24        C      tau(  24) = (  -0.7189884   0.6568775   0.2225780  )
        25        C      tau(  25) = (  -0.1993439   0.5444819   0.7434368  )
        26        C      tau(  26) = (  -0.3916006   0.7363151   0.5499658  )
        27        C      tau(  27) = (  -0.5842439   0.9294121   0.3587307  )
        28        C      tau(  28) = (  -0.0499518   0.1363353   0.1858991  )
        29        C      tau(  29) = (  -0.2427156   0.3295538  -0.0056786  )
        30        C      tau(  30) = (  -0.4347800   0.5210684  -0.1990768  )
        31        C      tau(  31) = (   0.0860583   0.4084095   0.3220486  )
        32        C      tau(  32) = (  -0.1072160   0.6025960   0.1300332  )
        33        C      tau(  33) = (  -0.2990529   0.7923525  -0.0625997  )
        34        C      tau(  34) = (   0.2223271   0.6805114   0.4581000  )
        35        C      tau(  35) = (   0.0299488   0.8730712   0.2656337  )
        36        C      tau(  36) = (  -0.1627415   1.0650431   0.0734209  )
        37        C      tau(  37) = (  -0.2854486   0.1360109   0.4217943  )
        38        C      tau(  38) = (  -0.4783220   0.3278970   0.2294090  )
        39        C      tau(  39) = (  -0.6693773   0.5213357   0.0374238  )
        40        C      tau(  40) = (  -0.1493952   0.4082894   0.5576803  )
        41        C      tau(  41) = (  -0.3432752   0.5982358   0.3633348  )
        42        C      tau(  42) = (  -0.5323245   0.7936792   0.1729781  )
        43        C      tau(  43) = (  -0.0136069   0.6804875   0.6935837  )
        44        C      tau(  44) = (  -0.2060294   0.8727496   0.5005207  )
        45        C      tau(  45) = (  -0.3982850   1.0655576   0.3088939  )
        46        C      tau(  46) = (  -0.5212637   0.1361702   0.6574271  )
        47        C      tau(  47) = (  -0.7138934   0.3285927   0.4650756  )
        48        C      tau(  48) = (  -0.9060014   0.5211213   0.2723775  )
        49        C      tau(  49) = (  -0.3851771   0.4083822   0.7933385  )
        50        C      tau(  50) = (  -0.5777409   0.6008265   0.6009517  )
        51        C      tau(  51) = (  -0.7699281   0.7931667   0.4085205  )
        52        C      tau(  52) = (  -0.2491249   0.6804754   0.9294459  )
        53        C      tau(  53) = (  -0.4414726   0.8728085   0.7368065  )
        54        C      tau(  54) = (  -0.6340192   1.0654306   0.5446085  )
        55        C      tau(  55) = (  -0.2141461   0.0964951   0.0217048  )
        56        C      tau(  56) = (  -0.4066416   0.2888605  -0.1706513  )
        57        C      tau(  57) = (  -0.5990410   0.4812141  -0.3632680  )
        58        C      tau(  58) = (  -0.0791010   0.3692534   0.1579360  )
        59        C      tau(  59) = (  -0.2714140   0.5627549  -0.0341648  )
        60        C      tau(  60) = (  -0.4629662   0.7534700  -0.2272814  )
        61        C      tau(  61) = (   0.0581343   0.6406695   0.2938376  )
        62        C      tau(  62) = (  -0.1345012   0.8322794   0.1019519  )
        63        C      tau(  63) = (  -0.3270081   1.0251853  -0.0908458  )
        64        C      tau(  64) = (  -0.4499535   0.0960953   0.2572894  )
        65        C      tau(  65) = (  -0.6422399   0.2887052   0.0648356  )
        66        C      tau(  66) = (  -0.8345318   0.4812977  -0.1273413  )
        67        C      tau(  67) = (  -0.3138129   0.3678137   0.3939182  )
        68        C      tau(  68) = (  -0.5037667   0.5592941   0.2028433  )
        69        C      tau(  69) = (  -0.6978086   0.7534239   0.0087414  )
        70        C      tau(  70) = (  -0.1783748   0.6404729   0.5284263  )
        71        C      tau(  71) = (  -0.3703258   0.8329867   0.3349768  )
        72        C      tau(  72) = (  -0.5626044   1.0256870   0.1445745  )
        73        C      tau(  73) = (  -0.6856291   0.0962884   0.4930618  )
        74        C      tau(  74) = (  -0.8779236   0.2888219   0.3005921  )
        75        C      tau(  75) = (  -1.0703814   0.4812051   0.1081894  )
        76        C      tau(  76) = (  -0.5496407   0.3684471   0.6293283  )
        77        C      tau(  77) = (  -0.7419041   0.5609939   0.4367884  )
        78        C      tau(  78) = (  -0.9340842   0.7532809   0.2441948  )
        79        C      tau(  79) = (  -0.4133257   0.6406644   0.7650532  )
        80        C      tau(  80) = (  -0.6058063   0.8329893   0.5726423  )
        81        C      tau(  81) = (  -0.7982896   1.0255719   0.3803381  )
        82        C      tau(  82) = (  -0.0285011   0.2326907  -0.0279592  )
        83        C      tau(  83) = (  -0.2206945   0.4247212  -0.2210055  )
        84        C      tau(  84) = (  -0.4131156   0.6173481  -0.4130121  )
        85        C      tau(  85) = (   0.1082672   0.5045407   0.1079561  )
        86        C      tau(  86) = (  -0.0849394   0.6971575  -0.0842193  )
        87        C      tau(  87) = (  -0.2770337   0.8896763  -0.2776619  )
        88        C      tau(  88) = (   0.2438782   0.7767615   0.2439818  )
        89        C      tau(  89) = (   0.0521014   0.9695379   0.0514732  )
        90        C      tau(  90) = (  -0.1410350   1.1614771  -0.1407866  )
        91        C      tau(  91) = (  -0.2640319   0.2318869   0.2077668  )
        92        C      tau(  92) = (  -0.4562274   0.4251532   0.0153766  )
        93        C      tau(  93) = (  -0.6490030   0.6172421  -0.1777369  )
        94        C      tau(  94) = (  -0.1281925   0.5047478   0.3434115  )
        95        C      tau(  95) = (  -0.5123894   0.8892920  -0.0410377  )
        96        C      tau(  96) = (   0.0086106   0.7768059   0.4798766  )
        97        C      tau(  97) = (  -0.1843959   0.9688766   0.2869558  )
        98        C      tau(  98) = (  -0.3768359   1.1623400   0.0948049  )
        99        C      tau(  99) = (  -0.4997311   0.2321773   0.4433955  )
       100        C      tau( 100) = (  -0.6923804   0.4244266   0.2510388  )
       101        C      tau( 101) = (  -0.8841281   0.6172866   0.0584770  )
       102        C      tau( 102) = (  -0.3636975   0.5041785   0.5797217  )
       103        C      tau( 103) = (  -0.5556957   0.6969067   0.3865978  )
       104        C      tau( 104) = (  -0.7487516   0.8897623   0.1945328  )
       105        C      tau( 105) = (  -0.2275828   0.7765912   0.7150223  )
       106        C      tau( 106) = (  -0.4201000   0.9695066   0.5231845  )
       107        C      tau( 107) = (  -0.6123331   1.1616201   0.3304768  )
       108        C      tau( 108) = (  -0.0731741   0.1164254   0.0449246  )
       109        C      tau( 109) = (  -0.2657125   0.3090938  -0.1472732  )
       110        C      tau( 110) = (  -0.4579971   0.5011093  -0.3400864  )
       111        C      tau( 111) = (   0.0626096   0.3887581   0.1810489  )
       112        C      tau( 112) = (  -0.1301119   0.5816162  -0.0110118  )
       113        C      tau( 113) = (  -0.3216453   0.7741047  -0.2050380  )
       114        C      tau( 114) = (   0.1991522   0.6605605   0.3170629  )
       115        C      tau( 115) = (   0.0075190   0.8539734   0.1241263  )
       116        C      tau( 116) = (  -0.1859057   1.0452278  -0.0677091  )
       117        C      tau( 117) = (  -0.3087899   0.1159646   0.2806522  )
       118        C      tau( 118) = (  -0.5012661   0.3085956   0.0881779  )
       119        C      tau( 119) = (  -0.6932078   0.5012495  -0.1040867  )
       120        C      tau( 120) = (  -0.1727270   0.3883125   0.4167170  )
       121        C      tau( 121) = (  -0.5565149   0.7732805   0.0320641  )
       122        C      tau( 122) = (  -0.0368579   0.6605067   0.5522631  )
       123        C      tau( 123) = (  -0.2293250   0.8526701   0.3592541  )
       124        C      tau( 124) = (  -0.4214562   1.0467925   0.1674617  )
       125        C      tau( 125) = (  -0.5445242   0.1161297   0.5163464  )
       126        C      tau( 126) = (  -0.7371154   0.3084931   0.3239218  )
       127        C      tau( 127) = (  -0.9291723   0.5011881   0.1313982  )
       128        C      tau( 128) = (  -0.4084498   0.3882408   0.6525874  )
       129        C      tau( 129) = (  -0.6008873   0.5807668   0.4599697  )
       130        C      tau( 130) = (  -0.7927625   0.7732394   0.2674590  )
       131        C      tau( 131) = (  -0.2723421   0.6605618   0.7882284  )
       132        C      tau( 132) = (  -0.4647346   0.8528323   0.5954869  )
       133        C      tau( 133) = (  -0.6572615   1.0455098   0.4035783  )
       134        C      tau( 134) = (  -0.1230830   0.2524968   0.2308552  )
       135        C      tau( 135) = (  -0.3162086   0.4465037   0.0394041  )
       136        C      tau( 136) = (  -0.5086337   0.6370384  -0.1546897  )
       137        C      tau( 137) = (   0.0130726   0.5245577   0.3667635  )
       138        C      tau( 138) = (  -0.1683524   0.7191967   0.1756603  )
       139        C      tau( 139) = (  -0.3716474   0.9089210  -0.0176962  )
       140        C      tau( 140) = (   0.1494053   0.7967649   0.5031461  )
       141        C      tau( 141) = (  -0.0432520   0.9891102   0.3104265  )
       142        C      tau( 142) = (  -0.2356173   1.1816170   0.1180605  )
       143        C      tau( 143) = (  -0.3585858   0.2519147   0.4667666  )
       144        C      tau( 144) = (  -0.5519305   0.4436716   0.2745830  )
       145        C      tau( 145) = (  -0.7427224   0.6372816   0.0817292  )
       146        C      tau( 146) = (  -0.2226129   0.5244166   0.6023029  )
       147        C      tau( 147) = (  -0.4149636   0.7163073   0.4079608  )
       148        C      tau( 148) = (  -0.6084064   0.9096240   0.2176701  )
       149        C      tau( 149) = (  -0.0865276   0.7965243   0.7384340  )
       150        C      tau( 150) = (  -0.2789236   0.9889959   0.5460064  )
       151        C      tau( 151) = (  -0.4712056   1.1816606   0.3537920  )
       152        C      tau( 152) = (  -0.5944836   0.2524349   0.7023013  )
       153        C      tau( 153) = (  -0.7868714   0.4448847   0.5098436  )
       154        C      tau( 154) = (  -0.9790379   0.6372333   0.3171974  )
       155        C      tau( 155) = (  -0.4579939   0.5243596   0.8381406  )
       156        C      tau( 156) = (  -0.6507483   0.7169699   0.6457828  )
       157        C      tau( 157) = (  -0.8430795   0.9093832   0.4532888  )
       158        C      tau( 158) = (  -0.3221704   0.7966508   0.9743255  )
       159        C      tau( 159) = (  -0.5143150   0.9893846   0.7817490  )
       160        C      tau( 160) = (  -0.7070603   1.1814890   0.5894736  )
       161        C      tau( 161) = (  -0.2872874   0.2126541   0.0666507  )
       162        C      tau( 162) = (  -0.4795414   0.4050295  -0.1258504  )
       163        C      tau( 163) = (  -0.6722853   0.5973893  -0.3185446  )
       164        C      tau( 164) = (  -0.1525614   0.4862111   0.2030513  )
       165        C      tau( 165) = (  -0.3449676   0.6763427  -0.0009549  )
       166        C      tau( 166) = (  -0.5359220   0.8695684  -0.1822435  )
       167        C      tau( 167) = (  -0.0144297   0.7569524   0.3395143  )
       168        C      tau( 168) = (  -0.2076721   0.9487081   0.1462792  )
       169        C      tau( 169) = (  -0.3999319   1.1417476  -0.0462541  )
       170        C      tau( 170) = (  -0.5230500   0.2120090   0.3023024  )
       171        C      tau( 171) = (  -0.7150517   0.4049309   0.1098641  )
       172        C      tau( 172) = (  -0.9075350   0.5973145  -0.0825734  )
       173        C      tau( 173) = (  -0.3870883   0.4836690   0.4394252  )
       174        C      tau( 174) = (  -0.5769963   0.6769916   0.2459281  )
       175        C      tau( 175) = (  -0.7714776   0.8694822   0.0534524  )
       176        C      tau( 176) = (  -0.2508393   0.7566325   0.5736123  )
       177        C      tau( 177) = (  -0.4432439   0.9496992   0.3828326  )
       178        C      tau( 178) = (  -0.6356696   1.1417550   0.1893280  )
       179        C      tau( 179) = (  -0.7587177   0.2125851   0.5380673  )
       180        C      tau( 180) = (  -0.9508629   0.4047695   0.3452716  )
       181        C      tau( 181) = (  -1.1434492   0.5973751   0.1530467  )
       182        C      tau( 182) = (  -0.6226257   0.4847374   0.6740893  )
       183        C      tau( 183) = (  -0.8149162   0.6771361   0.4816149  )
       184        C      tau( 184) = (  -1.0073018   0.8697659   0.2887622  )
       185        C      tau( 185) = (  -0.4863204   0.7567867   0.8099149  )
       186        C      tau( 186) = (  -0.6787787   0.9492492   0.6175896  )
       187        C      tau( 187) = (  -0.8713157   1.1416339   0.4252183  )
       188        C      tau( 188) = (  -0.1016869   0.3491417   0.0169709  )
       189        C      tau( 189) = (  -0.2933885   0.5402872  -0.1764344  )
       190        C      tau( 190) = (  -0.4862648   0.7335741  -0.3682571  )
       191        C      tau( 191) = (   0.0356527   0.6201259   0.1526067  )
       192        C      tau( 192) = (  -0.1579509   0.8128668  -0.0392837  )
       193        C      tau( 193) = (  -0.3501117   1.0056364  -0.2321855  )
       194        C      tau( 194) = (   0.1709166   0.8930331   0.2889243  )
       195        C      tau( 195) = (  -0.0214963   1.0853719   0.0964299  )
       196        C      tau( 196) = (  -0.2140151   1.2777075  -0.0960087  )
       197        C      tau( 197) = (  -0.3371034   0.3471074   0.2528811  )
       198        C      tau( 198) = (  -0.5273754   0.5414228   0.0607373  )
       199        C      tau( 199) = (  -0.7216742   0.7334168  -0.1324166  )
       200        C      tau( 200) = (  -0.2016956   0.6204460   0.3864171  )
       201        C      tau( 201) = (  -0.3985205   0.8226539   0.1989112  )
       202        C      tau( 202) = (  -0.5857020   1.0055695   0.0035375  )
       203        C      tau( 203) = (  -0.0648746   0.8927831   0.5243831  )
       204        C      tau( 204) = (  -0.2571997   1.0852775   0.3320397  )
       205        C      tau( 205) = (  -0.4496815   1.2781697   0.1395455  )
       206        C      tau( 206) = (  -0.5729196   0.3482560   0.4884185  )
       207        C      tau( 207) = (  -0.7648422   0.5409620   0.2956860  )
       208        C      tau( 208) = (  -0.9573349   0.7333702   0.1032824  )
       209        C      tau( 209) = (  -0.4366077   0.6206050   0.6239205  )
       210        C      tau( 210) = (  -0.6289141   0.8131242   0.4316171  )
       211        C      tau( 211) = (  -0.8217354   1.0056951   0.2392116  )
       212        C      tau( 212) = (  -0.3005615   0.8927302   0.7600559  )
       213        C      tau( 213) = (  -0.4929138   1.0854806   0.5680333  )
       214        C      tau( 214) = (  -0.6853752   1.2777451   0.3753422  )
       215        N      tau( 215) = (  -0.3687968   0.5713833   0.2301560  )

     number of k points=     1
                       cart. coord. in units 2pi/alat
        k(    1) = (   0.0000000   0.0000000   0.0000000), wk =   1.0000000

     Dense  grid:   338755 G-vectors     FFT dimensions: (  90,  90,  90)

     Occupations read from input 

      Spin-up

        1.0000   1.0000   1.0000   1.0000   1.0000   1.0000   1.0000   1.0000
        1.0000   1.0000   1.0000   1.0000   1.0000   1.0000   1.0000   1.0000
        1.0000   1.0000   1.0000   1.0000   1.0000   1.0000   1.0000   1.0000
        1.0000   1.0000   1.0000   1.0000   1.0000   1.0000   1.0000   1.0000
        1.0000   1.0000   1.0000   1.0000   1.0000   1.0000   1.0000   1.0000
        1.0000   1.0000   1.0000   1.0000   1.0000   1.0000   1.0000   1.0000
        1.0000   1.0000   1.0000   1.0000   1.0000   1.0000   1.0000   1.0000
        1.0000   1.0000   1.0000   1.0000   1.0000   1.0000   1.0000   1.0000
        1.0000   1.0000   1.0000   1.0000   1.0000   1.0000   1.0000   1.0000
        1.0000   1.0000   1.0000   1.0000   1.0000   1.0000   1.0000   1.0000
        1.0000   1.0000   1.0000   1.0000   1.0000   1.0000   1.0000   1.0000
        1.0000   1.0000   1.0000   1.0000   1.0000   1.0000   1.0000   1.0000
        1.0000   1.0000   1.0000   1.0000   1.0000   1.0000   1.0000   1.0000
        1.0000   1.0000   1.0000   1.0000   1.0000   1.0000   1.0000   1.0000
        1.0000   1.0000   1.0000   1.0000   1.0000   1.0000   1.0000   1.0000
        1.0000   1.0000   1.0000   1.0000   1.0000   1.0000   1.0000   1.0000
        1.0000   1.0000   1.0000   1.0000   1.0000   1.0000   1.0000   1.0000
        1.0000   1.0000   1.0000   1.0000   1.0000   1.0000   1.0000   1.0000
        1.0000   1.0000   1.0000   1.0000   1.0000   1.0000   1.0000   1.0000
        1.0000   1.0000   1.0000   1.0000   1.0000   1.0000   1.0000   1.0000
        1.0000   1.0000   1.0000   1.0000   1.0000   1.0000   1.0000   1.0000
        1.0000   1.0000   1.0000   1.0000   1.0000   1.0000   1.0000   1.0000
        1.0000   1.0000   1.0000   1.0000   1.0000   1.0000   1.0000   1.0000
        1.0000   1.0000   1.0000   1.0000   1.0000   1.0000   1.0000   1.0000
        1.0000   1.0000   1.0000   1.0000   1.0000   1.0000   1.0000   1.0000
        1.0000   1.0000   1.0000   1.0000   1.0000   1.0000   1.0000   1.0000
        1.0000   1.0000   1.0000   1.0000   1.0000   1.0000   1.0000   1.0000
        1.0000   1.0000   1.0000   1.0000   1.0000   1.0000   1.0000   1.0000
        1.0000   1.0000   1.0000   1.0000   1.0000   1.0000   1.0000   1.0000
        1.0000   1.0000   1.0000   1.0000   1.0000   1.0000   1.0000   1.0000
        1.0000   1.0000   1.0000   1.0000   1.0000   1.0000   1.0000   1.0000
        1.0000   1.0000   1.0000   1.0000   1.0000   1.0000   1.0000   1.0000
        1.0000   1.0000   1.0000   1.0000   1.0000   1.0000   1.0000   1.0000
        1.0000   1.0000   1.0000   1.0000   1.0000   1.0000   1.0000   1.0000
        1.0000   1.0000   1.0000   1.0000   1.0000   1.0000   1.0000   1.0000
        1.0000   1.0000   1.0000   1.0000   1.0000   1.0000   1.0000   1.0000
        1.0000   1.0000   1.0000   1.0000   1.0000   1.0000   1.0000   1.0000
        1.0000   1.0000   1.0000   1.0000   1.0000   1.0000   1.0000   1.0000
        1.0000   1.0000   1.0000   1.0000   1.0000   1.0000   1.0000   1.0000
        1.0000   1.0000   1.0000   1.0000   1.0000   1.0000   1.0000   1.0000
        1.0000   1.0000   1.0000   1.0000   1.0000   1.0000   1.0000   1.0000
        1.0000   1.0000   1.0000   1.0000   1.0000   1.0000   1.0000   1.0000
        1.0000   1.0000   1.0000   1.0000   1.0000   1.0000   1.0000   1.0000
        1.0000   1.0000   1.0000   1.0000   1.0000   1.0000   1.0000   1.0000
        1.0000   1.0000   1.0000   1.0000   1.0000   1.0000   1.0000   1.0000
        1.0000   1.0000   1.0000   1.0000   1.0000   1.0000   1.0000   1.0000
        1.0000   1.0000   1.0000   1.0000   1.0000   1.0000   1.0000   1.0000
        1.0000   1.0000   1.0000   1.0000   1.0000   1.0000   1.0000   1.0000
        1.0000   1.0000   1.0000   1.0000   1.0000   1.0000   1.0000   1.0000
        1.0000   1.0000   1.0000   1.0000   1.0000   1.0000   1.0000   1.0000
        1.0000   1.0000   1.0000   1.0000   1.0000   1.0000   1.0000   1.0000
        1.0000   1.0000   1.0000   1.0000   1.0000   1.0000   1.0000   1.0000
        1.0000   1.0000   1.0000   1.0000   1.0000   1.0000   1.0000   1.0000
        1.0000   1.0000   1.0000   1.0000   1.0000   1.0000   1.0000   1.0000
        0.0000   0.0000   0.0000   0.0000   0.0000   0.0000   0.0000   0.0000
        0.0000   0.0000   0.0000   0.0000   0.0000   0.0000   0.0000   0.0000
        0.0000   0.0000   0.0000   0.0000   0.0000   0.0000   0.0000   0.0000
        0.0000   0.0000   0.0000   0.0000   0.0000   0.0000   0.0000   0.0000
        0.0000   0.0000   0.0000   0.0000   0.0000   0.0000   0.0000   0.0000
        0.0000   0.0000   0.0000   0.0000   0.0000   0.0000   0.0000   0.0000
        0.0000   0.0000   0.0000   0.0000   0.0000   0.0000   0.0000   0.0000
        0.0000   0.0000   0.0000   0.0000   0.0000   0.0000   0.0000   0.0000
        0.0000   0.0000   0.0000   0.0000   0.0000   0.0000   0.0000   0.0000
        0.0000   0.0000   0.0000   0.0000   0.0000   0.0000   0.0000   0.0000
        0.0000   0.0000   0.0000   0.0000   0.0000   0.0000   0.0000   0.0000
        0.0000   0.0000   0.0000   0.0000   0.0000   0.0000   0.0000   0.0000
        0.0000   0.0000   0.0000   0.0000   0.0000   0.0000   0.0000   0.0000
        0.0000   0.0000   0.0000   0.0000   0.0000   0.0000   0.0000   0.0000
        0.0000   0.0000   0.0000   0.0000   0.0000   0.0000   0.0000   0.0000
        0.0000   0.0000   0.0000   0.0000   0.0000   0.0000   0.0000   0.0000
        0.0000   0.0000   0.0000   0.0000   0.0000   0.0000   0.0000   0.0000
        0.0000   0.0000   0.0000   0.0000   0.0000   0.0000   0.0000   0.0000
        0.0000   0.0000   0.0000   0.0000   0.0000   0.0000   0.0000   0.0000
        0.0000   0.0000   0.0000   0.0000   0.0000   0.0000   0.0000   0.0000
        0.0000   0.0000   0.0000   0.0000   0.0000   0.0000   0.0000   0.0000
        0.0000   0.0000   0.0000   0.0000   0.0000   0.0000   0.0000   0.0000
        0.0000   0.0000   0.0000   0.0000   0.0000   0.0000   0.0000   0.0000
        0.0000   0.0000   0.0000   0.0000   0.0000   0.0000   0.0000   0.0000
        0.0000   0.0000   0.0000   0.0000   0.0000   0.0000   0.0000   0.0000
        0.0000   0.0000   0.0000   0.0000   0.0000   0.0000   0.0000   0.0000
        0.0000   0.0000   0.0000   0.0000   0.0000   0.0000   0.0000   0.0000
        0.0000   0.0000   0.0000   0.0000   0.0000   0.0000   0.0000   0.0000
        0.0000   0.0000   0.0000   0.0000   0.0000   0.0000   0.0000   0.0000
        0.0000   0.0000   0.0000   0.0000   0.0000   0.0000   0.0000   0.0000
        0.0000   0.0000   0.0000   0.0000   0.0000   0.0000   0.0000   0.0000
        0.0000   0.0000   0.0000   0.0000   0.0000   0.0000   0.0000   0.0000
        0.0000   0.0000   0.0000   0.0000   0.0000   0.0000   0.0000   0.0000
        0.0000   0.0000   0.0000   0.0000   0.0000   0.0000   0.0000   0.0000
        0.0000   0.0000   0.0000   0.0000   0.0000   0.0000   0.0000   0.0000
        0.0000   0.0000   0.0000   0.0000   0.0000   0.0000   0.0000   0.0000
        0.0000   0.0000   0.0000   0.0000   0.0000   0.0000   0.0000   0.0000
        0.0000   0.0000   0.0000   0.0000   0.0000   0.0000   0.0000   0.0000
        0.0000   0.0000   0.0000   0.0000   0.0000   0.0000   0.0000   0.0000
        0.0000   0.0000   0.0000   0.0000   0.0000   0.0000   0.0000   0.0000
        0.0000   0.0000   0.0000   0.0000   0.0000   0.0000   0.0000   0.0000
        0.0000   0.0000   0.0000   0.0000   0.0000   0.0000   0.0000   0.0000
        0.0000   0.0000   0.0000   0.0000   0.0000   0.0000   0.0000   0.0000
        0.0000   0.0000   0.0000   0.0000   0.0000   0.0000   0.0000   0.0000
        0.0000   0.0000   0.0000   0.0000   0.0000   0.0000   0.0000   0.0000
        0.0000   0.0000   0.0000   0.0000   0.0000   0.0000   0.0000   0.0000
        0.0000   0.0000   0.0000   0.0000   0.0000   0.0000   0.0000   0.0000
        0.0000   0.0000   0.0000   0.0000   0.0000   0.0000   0.0000   0.0000
        0.0000   0.0000   0.0000   0.0000   0.0000   0.0000   0.0000   0.0000
        0.0000   0.0000   0.0000   0.0000   0.0000   0.0000   0.0000   0.0000
        0.0000   0.0000   0.0000   0.0000   0.0000   0.0000   0.0000   0.0000
        0.0000   0.0000   0.0000   0.0000   0.0000   0.0000   0.0000   0.0000
        0.0000   0.0000   0.0000   0.0000   0.0000   0.0000   0.0000   0.0000
        0.0000   0.0000   0.0000   0.0000   0.0000   0.0000

      Spin-down

        1.0000   1.0000   1.0000   1.0000   1.0000   1.0000   1.0000   1.0000
        1.0000   1.0000   1.0000   1.0000   1.0000   1.0000   1.0000   1.0000
        1.0000   1.0000   1.0000   1.0000   1.0000   1.0000   1.0000   1.0000
        1.0000   1.0000   1.0000   1.0000   1.0000   1.0000   1.0000   1.0000
        1.0000   1.0000   1.0000   1.0000   1.0000   1.0000   1.0000   1.0000
        1.0000   1.0000   1.0000   1.0000   1.0000   1.0000   1.0000   1.0000
        1.0000   1.0000   1.0000   1.0000   1.0000   1.0000   1.0000   1.0000
        1.0000   1.0000   1.0000   1.0000   1.0000   1.0000   1.0000   1.0000
        1.0000   1.0000   1.0000   1.0000   1.0000   1.0000   1.0000   1.0000
        1.0000   1.0000   1.0000   1.0000   1.0000   1.0000   1.0000   1.0000
        1.0000   1.0000   1.0000   1.0000   1.0000   1.0000   1.0000   1.0000
        1.0000   1.0000   1.0000   1.0000   1.0000   1.0000   1.0000   1.0000
        1.0000   1.0000   1.0000   1.0000   1.0000   1.0000   1.0000   1.0000
        1.0000   1.0000   1.0000   1.0000   1.0000   1.0000   1.0000   1.0000
        1.0000   1.0000   1.0000   1.0000   1.0000   1.0000   1.0000   1.0000
        1.0000   1.0000   1.0000   1.0000   1.0000   1.0000   1.0000   1.0000
        1.0000   1.0000   1.0000   1.0000   1.0000   1.0000   1.0000   1.0000
        1.0000   1.0000   1.0000   1.0000   1.0000   1.0000   1.0000   1.0000
        1.0000   1.0000   1.0000   1.0000   1.0000   1.0000   1.0000   1.0000
        1.0000   1.0000   1.0000   1.0000   1.0000   1.0000   1.0000   1.0000
        1.0000   1.0000   1.0000   1.0000   1.0000   1.0000   1.0000   1.0000
        1.0000   1.0000   1.0000   1.0000   1.0000   1.0000   1.0000   1.0000
        1.0000   1.0000   1.0000   1.0000   1.0000   1.0000   1.0000   1.0000
        1.0000   1.0000   1.0000   1.0000   1.0000   1.0000   1.0000   1.0000
        1.0000   1.0000   1.0000   1.0000   1.0000   1.0000   1.0000   1.0000
        1.0000   1.0000   1.0000   1.0000   1.0000   1.0000   1.0000   1.0000
        1.0000   1.0000   1.0000   1.0000   1.0000   1.0000   1.0000   1.0000
        1.0000   1.0000   1.0000   1.0000   1.0000   1.0000   1.0000   1.0000
        1.0000   1.0000   1.0000   1.0000   1.0000   1.0000   1.0000   1.0000
        1.0000   1.0000   1.0000   1.0000   1.0000   1.0000   1.0000   1.0000
        1.0000   1.0000   1.0000   1.0000   1.0000   1.0000   1.0000   1.0000
        1.0000   1.0000   1.0000   1.0000   1.0000   1.0000   1.0000   1.0000
        1.0000   1.0000   1.0000   1.0000   1.0000   1.0000   1.0000   1.0000
        1.0000   1.0000   1.0000   1.0000   1.0000   1.0000   1.0000   1.0000
        1.0000   1.0000   1.0000   1.0000   1.0000   1.0000   1.0000   1.0000
        1.0000   1.0000   1.0000   1.0000   1.0000   1.0000   1.0000   1.0000
        1.0000   1.0000   1.0000   1.0000   1.0000   1.0000   1.0000   1.0000
        1.0000   1.0000   1.0000   1.0000   1.0000   1.0000   1.0000   1.0000
        1.0000   1.0000   1.0000   1.0000   1.0000   1.0000   1.0000   1.0000
        1.0000   1.0000   1.0000   1.0000   1.0000   1.0000   1.0000   1.0000
        1.0000   1.0000   1.0000   1.0000   1.0000   1.0000   1.0000   1.0000
        1.0000   1.0000   1.0000   1.0000   1.0000   1.0000   1.0000   1.0000
        1.0000   1.0000   1.0000   1.0000   1.0000   1.0000   1.0000   1.0000
        1.0000   1.0000   1.0000   1.0000   1.0000   1.0000   1.0000   1.0000
        1.0000   1.0000   1.0000   1.0000   1.0000   1.0000   1.0000   1.0000
        1.0000   1.0000   1.0000   1.0000   1.0000   1.0000   1.0000   1.0000
        1.0000   1.0000   1.0000   1.0000   1.0000   1.0000   1.0000   1.0000
        1.0000   1.0000   1.0000   1.0000   1.0000   1.0000   1.0000   1.0000
        1.0000   1.0000   1.0000   1.0000   1.0000   1.0000   1.0000   1.0000
        1.0000   1.0000   1.0000   1.0000   1.0000   1.0000   1.0000   1.0000
        1.0000   1.0000   1.0000   1.0000   1.0000   1.0000   1.0000   1.0000
        1.0000   1.0000   1.0000   1.0000   1.0000   1.0000   1.0000   1.0000
        1.0000   1.0000   1.0000   1.0000   1.0000   1.0000   1.0000   1.0000
        1.0000   1.0000   1.0000   1.0000   1.0000   0.0000   0.5000   0.5000
        0.0000   0.0000   0.0000   0.0000   0.0000   0.0000   0.0000   0.0000
        0.0000   0.0000   0.0000   0.0000   0.0000   0.0000   0.0000   0.0000
        0.0000   0.0000   0.0000   0.0000   0.0000   0.0000   0.0000   0.0000
        0.0000   0.0000   0.0000   0.0000   0.0000   0.0000   0.0000   0.0000
        0.0000   0.0000   0.0000   0.0000   0.0000   0.0000   0.0000   0.0000
        0.0000   0.0000   0.0000   0.0000   0.0000   0.0000   0.0000   0.0000
        0.0000   0.0000   0.0000   0.0000   0.0000   0.0000   0.0000   0.0000
        0.0000   0.0000   0.0000   0.0000   0.0000   0.0000   0.0000   0.0000
        0.0000   0.0000   0.0000   0.0000   0.0000   0.0000   0.0000   0.0000
        0.0000   0.0000   0.0000   0.0000   0.0000   0.0000   0.0000   0.0000
        0.0000   0.0000   0.0000   0.0000   0.0000   0.0000   0.0000   0.0000
        0.0000   0.0000   0.0000   0.0000   0.0000   0.0000   0.0000   0.0000
        0.0000   0.0000   0.0000   0.0000   0.0000   0.0000   0.0000   0.0000
        0.0000   0.0000   0.0000   0.0000   0.0000   0.0000   0.0000   0.0000
        0.0000   0.0000   0.0000   0.0000   0.0000   0.0000   0.0000   0.0000
        0.0000   0.0000   0.0000   0.0000   0.0000   0.0000   0.0000   0.0000
        0.0000   0.0000   0.0000   0.0000   0.0000   0.0000   0.0000   0.0000
        0.0000   0.0000   0.0000   0.0000   0.0000   0.0000   0.0000   0.0000
        0.0000   0.0000   0.0000   0.0000   0.0000   0.0000   0.0000   0.0000
        0.0000   0.0000   0.0000   0.0000   0.0000   0.0000   0.0000   0.0000
        0.0000   0.0000   0.0000   0.0000   0.0000   0.0000   0.0000   0.0000
        0.0000   0.0000   0.0000   0.0000   0.0000   0.0000   0.0000   0.0000
        0.0000   0.0000   0.0000   0.0000   0.0000   0.0000   0.0000   0.0000
        0.0000   0.0000   0.0000   0.0000   0.0000   0.0000   0.0000   0.0000
        0.0000   0.0000   0.0000   0.0000   0.0000   0.0000   0.0000   0.0000
        0.0000   0.0000   0.0000   0.0000   0.0000   0.0000   0.0000   0.0000
        0.0000   0.0000   0.0000   0.0000   0.0000   0.0000   0.0000   0.0000
        0.0000   0.0000   0.0000   0.0000   0.0000   0.0000   0.0000   0.0000
        0.0000   0.0000   0.0000   0.0000   0.0000   0.0000   0.0000   0.0000
        0.0000   0.0000   0.0000   0.0000   0.0000   0.0000   0.0000   0.0000
        0.0000   0.0000   0.0000   0.0000   0.0000   0.0000   0.0000   0.0000
        0.0000   0.0000   0.0000   0.0000   0.0000   0.0000   0.0000   0.0000
        0.0000   0.0000   0.0000   0.0000   0.0000   0.0000   0.0000   0.0000
        0.0000   0.0000   0.0000   0.0000   0.0000   0.0000   0.0000   0.0000
        0.0000   0.0000   0.0000   0.0000   0.0000   0.0000   0.0000   0.0000
        0.0000   0.0000   0.0000   0.0000   0.0000   0.0000   0.0000   0.0000
        0.0000   0.0000   0.0000   0.0000   0.0000   0.0000   0.0000   0.0000
        0.0000   0.0000   0.0000   0.0000   0.0000   0.0000   0.0000   0.0000
        0.0000   0.0000   0.0000   0.0000   0.0000   0.0000   0.0000   0.0000
        0.0000   0.0000   0.0000   0.0000   0.0000   0.0000   0.0000   0.0000
        0.0000   0.0000   0.0000   0.0000   0.0000   0.0000   0.0000   0.0000
        0.0000   0.0000   0.0000   0.0000   0.0000   0.0000   0.0000   0.0000
        0.0000   0.0000   0.0000   0.0000   0.0000   0.0000   0.0000   0.0000
        0.0000   0.0000   0.0000   0.0000   0.0000   0.0000   0.0000   0.0000
        0.0000   0.0000   0.0000   0.0000   0.0000   0.0000   0.0000   0.0000
        0.0000   0.0000   0.0000   0.0000   0.0000   0.0000   0.0000   0.0000
        0.0000   0.0000   0.0000   0.0000   0.0000   0.0000   0.0000   0.0000
        0.0000   0.0000   0.0000   0.0000   0.0000   0.0000   0.0000   0.0000
        0.0000   0.0000   0.0000   0.0000   0.0000   0.0000   0.0000   0.0000
        0.0000   0.0000   0.0000   0.0000   0.0000   0.0000   0.0000   0.0000
        0.0000   0.0000   0.0000   0.0000   0.0000   0.0000   0.0000   0.0000
        0.0000   0.0000   0.0000   0.0000   0.0000   0.0000   0.0000   0.0000
        0.0000   0.0000   0.0000   0.0000   0.0000   0.0000   0.0000   0.0000
        0.0000   0.0000   0.0000   0.0000   0.0000   0.0000

     Estimated max dynamical RAM per process >     300.93 MB

     Estimated total dynamical RAM >       7.05 GB

     Check: negative core charge=   -0.000075
     Generating pointlists ...
     new r_m :   0.0570 (alat units)  1.1548 (a.u.) for type    1
     new r_m :   0.0570 (alat units)  1.1548 (a.u.) for type    2

     Initial potential from superposition of free atoms

     starting charge     860.9911, renormalised to     862.0000
     Starting wfcs are random
     Checking if some PAW data can be deallocated... 

     total cpu time spent up to now is       11.7 secs

     per-process dynamical memory:   204.2 Mb

     Self-consistent Calculation

     iteration #  1     ecut=    45.00 Ry     beta= 0.70
     Davidson diagonalization with overlap
     ethr =  1.00E-02,  avg # of iterations =  9.0

     total cpu time spent up to now is      152.7 secs

     total energy              =   -3970.07103759 Ry
     estimated scf accuracy    <      12.72171823 Ry

     total magnetization       =     2.00 Bohr mag/cell
     absolute magnetization    =     2.13 Bohr mag/cell

     iteration #  2     ecut=    45.00 Ry     beta= 0.70
     Davidson diagonalization with overlap
     ethr =  1.48E-03,  avg # of iterations =  4.0

     total cpu time spent up to now is      189.9 secs

     total energy              =   -3967.99120026 Ry
     estimated scf accuracy    <       5.41514798 Ry

     total magnetization       =     2.00 Bohr mag/cell
     absolute magnetization    =     2.35 Bohr mag/cell

     iteration #  3     ecut=    45.00 Ry     beta= 0.70
     Davidson diagonalization with overlap
     ethr =  6.28E-04,  avg # of iterations =  5.0

     total cpu time spent up to now is      244.2 secs

     total energy              =   -3969.12392663 Ry
     estimated scf accuracy    <      20.42726397 Ry

     total magnetization       =     2.00 Bohr mag/cell
     absolute magnetization    =     2.12 Bohr mag/cell

     iteration #  4     ecut=    45.00 Ry     beta= 0.70
     Davidson diagonalization with overlap
     ethr =  6.28E-04,  avg # of iterations =  6.0

     total cpu time spent up to now is      288.0 secs

     total energy              =   -3971.11269529 Ry
     estimated scf accuracy    <       1.31330895 Ry

     total magnetization       =     2.00 Bohr mag/cell
     absolute magnetization    =     2.08 Bohr mag/cell

     iteration #  5     ecut=    45.00 Ry     beta= 0.70
     Davidson diagonalization with overlap
     ethr =  1.52E-04,  avg # of iterations =  3.0

     total cpu time spent up to now is      324.7 secs

     total energy              =   -3971.22067732 Ry
     estimated scf accuracy    <       0.33496042 Ry

     total magnetization       =     2.00 Bohr mag/cell
     absolute magnetization    =     2.07 Bohr mag/cell

     iteration #  6     ecut=    45.00 Ry     beta= 0.70
     Davidson diagonalization with overlap
     ethr =  3.89E-05,  avg # of iterations = 11.0

     total cpu time spent up to now is      369.3 secs

     total energy              =   -3971.20990325 Ry
     estimated scf accuracy    <       0.12612340 Ry

     total magnetization       =     2.00 Bohr mag/cell
     absolute magnetization    =     2.09 Bohr mag/cell

     iteration #  7     ecut=    45.00 Ry     beta= 0.70
     Davidson diagonalization with overlap
     ethr =  1.46E-05,  avg # of iterations =  4.5

     total cpu time spent up to now is      407.6 secs

     total energy              =   -3971.21599747 Ry
     estimated scf accuracy    <       0.02313906 Ry

     total magnetization       =     2.00 Bohr mag/cell
     absolute magnetization    =     2.13 Bohr mag/cell

     iteration #  8     ecut=    45.00 Ry     beta= 0.70
     Davidson diagonalization with overlap
     ethr =  2.68E-06,  avg # of iterations = 10.5

     total cpu time spent up to now is      455.1 secs

     total energy              =   -3971.21993992 Ry
     estimated scf accuracy    <       0.00267757 Ry

     total magnetization       =     2.00 Bohr mag/cell
     absolute magnetization    =     2.16 Bohr mag/cell

     iteration #  9     ecut=    45.00 Ry     beta= 0.70
     Davidson diagonalization with overlap
     ethr =  3.11E-07,  avg # of iterations =  2.5

     total cpu time spent up to now is      491.1 secs

     total energy              =   -3971.22056506 Ry
     estimated scf accuracy    <       0.00046041 Ry

     total magnetization       =     2.00 Bohr mag/cell
     absolute magnetization    =     2.18 Bohr mag/cell

     iteration # 10     ecut=    45.00 Ry     beta= 0.70
     Davidson diagonalization with overlap
     ethr =  5.34E-08,  avg # of iterations =  2.0

     total cpu time spent up to now is      526.8 secs

     total energy              =   -3971.22070321 Ry
     estimated scf accuracy    <       0.00010621 Ry

     total magnetization       =     2.00 Bohr mag/cell
     absolute magnetization    =     2.19 Bohr mag/cell

     iteration # 11     ecut=    45.00 Ry     beta= 0.70
     Davidson diagonalization with overlap
     ethr =  1.23E-08,  avg # of iterations =  2.5

     total cpu time spent up to now is      563.1 secs

     total energy              =   -3971.22073508 Ry
     estimated scf accuracy    <       0.00003059 Ry

     total magnetization       =     2.00 Bohr mag/cell
     absolute magnetization    =     2.20 Bohr mag/cell

     iteration # 12     ecut=    45.00 Ry     beta= 0.70
     Davidson diagonalization with overlap
     ethr =  3.55E-09,  avg # of iterations =  2.0

     total cpu time spent up to now is      598.5 secs

     total energy              =   -3971.22074381 Ry
     estimated scf accuracy    <       0.00000474 Ry

     total magnetization       =     2.00 Bohr mag/cell
     absolute magnetization    =     2.20 Bohr mag/cell

     iteration # 13     ecut=    45.00 Ry     beta= 0.70
     Davidson diagonalization with overlap
     ethr =  5.49E-10,  avg # of iterations =  3.0

     total cpu time spent up to now is      635.5 secs

     total energy              =   -3971.22074526 Ry
     estimated scf accuracy    <       0.00000153 Ry

     total magnetization       =     2.00 Bohr mag/cell
     absolute magnetization    =     2.20 Bohr mag/cell

     iteration # 14     ecut=    45.00 Ry     beta= 0.70
     Davidson diagonalization with overlap
     ethr =  1.77E-10,  avg # of iterations =  2.5

     total cpu time spent up to now is      671.5 secs

     total energy              =   -3971.22074566 Ry
     estimated scf accuracy    <       0.00000022 Ry

     total magnetization       =     2.00 Bohr mag/cell
     absolute magnetization    =     2.20 Bohr mag/cell

     iteration # 15     ecut=    45.00 Ry     beta= 0.70
     Davidson diagonalization with overlap
     ethr =  2.53E-11,  avg # of iterations =  3.0

     total cpu time spent up to now is      708.6 secs

     total energy              =   -3971.22074573 Ry
     estimated scf accuracy    <       0.00000011 Ry

     total magnetization       =     2.00 Bohr mag/cell
     absolute magnetization    =     2.20 Bohr mag/cell

     iteration # 16     ecut=    45.00 Ry     beta= 0.70
     Davidson diagonalization with overlap
     ethr =  1.26E-11,  avg # of iterations =  2.0

     total cpu time spent up to now is      744.0 secs

     total energy              =   -3971.22074576 Ry
     estimated scf accuracy    <       0.00000001 Ry

     total magnetization       =     2.00 Bohr mag/cell
     absolute magnetization    =     2.20 Bohr mag/cell

     iteration # 17     ecut=    45.00 Ry     beta= 0.70
     Davidson diagonalization with overlap
     ethr =  1.24E-12,  avg # of iterations =  2.0
 
     Magnetic moment per site  (integrated on atomic sphere of radius R)
     atom   1 (R=0.057)  charge=  1.8318  magn=  0.0001
     atom   2 (R=0.057)  charge=  1.8322  magn= -0.0000
     atom   3 (R=0.057)  charge=  1.8330  magn=  0.0000
     atom   4 (R=0.057)  charge=  1.8322  magn= -0.0000
     atom   5 (R=0.057)  charge=  1.8309  magn= -0.0002
     atom   6 (R=0.057)  charge=  1.8314  magn= -0.0009
     atom   7 (R=0.057)  charge=  1.8330  magn=  0.0000
     atom   8 (R=0.057)  charge=  1.8314  magn= -0.0009
     atom   9 (R=0.057)  charge=  1.8314  magn= -0.0002
     atom  10 (R=0.057)  charge=  1.8372  magn=  0.0015
     atom  11 (R=0.057)  charge=  1.8330  magn= -0.0001
     atom  12 (R=0.057)  charge=  1.8330  magn= -0.0001
     atom  13 (R=0.057)  charge=  1.8330  magn= -0.0001
     atom  14 (R=0.057)  charge=  1.8039  magn=  0.0003
     atom  15 (R=0.057)  charge=  1.8326  magn= -0.0028
     atom  16 (R=0.057)  charge=  1.8330  magn= -0.0001
     atom  17 (R=0.057)  charge=  1.8326  magn= -0.0028
     atom  18 (R=0.057)  charge=  1.8364  magn=  0.0014
     atom  19 (R=0.057)  charge=  1.8313  magn=  0.0001
     atom  20 (R=0.057)  charge=  1.8335  magn=  0.0000
     atom  21 (R=0.057)  charge=  1.8328  magn= -0.0001
     atom  22 (R=0.057)  charge=  1.8335  magn=  0.0000
     atom  23 (R=0.057)  charge=  1.8346  magn= -0.0002
     atom  24 (R=0.057)  charge=  1.8269  magn= -0.0002
     atom  25 (R=0.057)  charge=  1.8328  magn= -0.0001
     atom  26 (R=0.057)  charge=  1.8269  magn= -0.0002
     atom  27 (R=0.057)  charge=  1.8321  magn= -0.0009
     atom  28 (R=0.057)  charge=  1.8330  magn= -0.0001
     atom  29 (R=0.057)  charge=  1.8266  magn= -0.0002
     atom  30 (R=0.057)  charge=  1.8319  magn= -0.0009
     atom  31 (R=0.057)  charge=  1.8332  magn= -0.0001
     atom  32 (R=0.057)  charge=  1.8323  magn= -0.0028
     atom  33 (R=0.057)  charge=  1.8364  magn=  0.0014
     atom  34 (R=0.057)  charge=  1.8330  magn=  0.0000
     atom  35 (R=0.057)  charge=  1.8315  magn= -0.0009
     atom  36 (R=0.057)  charge=  1.8314  magn= -0.0002
     atom  37 (R=0.057)  charge=  1.8335  magn=  0.0000
     atom  38 (R=0.057)  charge=  1.8347  magn= -0.0002
     atom  39 (R=0.057)  charge=  1.8267  magn= -0.0002
     atom  40 (R=0.057)  charge=  1.8328  magn= -0.0001
     atom  41 (R=0.057)  charge=  1.8041  magn=  0.0003
     atom  42 (R=0.057)  charge=  1.8326  magn= -0.0028
     atom  43 (R=0.057)  charge=  1.8320  magn= -0.0000
     atom  44 (R=0.057)  charge=  1.8310  magn= -0.0002
     atom  45 (R=0.057)  charge=  1.8316  magn= -0.0009
     atom  46 (R=0.057)  charge=  1.8315  magn=  0.0001
     atom  47 (R=0.057)  charge=  1.8337  magn=  0.0000
     atom  48 (R=0.057)  charge=  1.8327  magn= -0.0001
     atom  49 (R=0.057)  charge=  1.8371  magn=  0.0015
     atom  50 (R=0.057)  charge=  1.8331  magn= -0.0001
     atom  51 (R=0.057)  charge=  1.8328  magn= -0.0001
     atom  52 (R=0.057)  charge=  1.8316  magn=  0.0001
     atom  53 (R=0.057)  charge=  1.8317  magn= -0.0000
     atom  54 (R=0.057)  charge=  1.8331  magn=  0.0000
     atom  55 (R=0.057)  charge=  1.8330  magn= -0.0001
     atom  56 (R=0.057)  charge=  1.8332  magn= -0.0001
     atom  57 (R=0.057)  charge=  1.8330  magn=  0.0000
     atom  58 (R=0.057)  charge=  1.8266  magn= -0.0002
     atom  59 (R=0.057)  charge=  1.8323  magn= -0.0028
     atom  60 (R=0.057)  charge=  1.8315  magn= -0.0009
     atom  61 (R=0.057)  charge=  1.8319  magn= -0.0009
     atom  62 (R=0.057)  charge=  1.8364  magn=  0.0014
     atom  63 (R=0.057)  charge=  1.8314  magn= -0.0002
     atom  64 (R=0.057)  charge=  1.8335  magn=  0.0000
     atom  65 (R=0.057)  charge=  1.8328  magn= -0.0001
     atom  66 (R=0.057)  charge=  1.8320  magn= -0.0000
     atom  67 (R=0.057)  charge=  1.8347  magn= -0.0002
     atom  68 (R=0.057)  charge=  1.8041  magn=  0.0003
     atom  69 (R=0.057)  charge=  1.8310  magn= -0.0002
     atom  70 (R=0.057)  charge=  1.8267  magn= -0.0002
     atom  71 (R=0.057)  charge=  1.8326  magn= -0.0028
     atom  72 (R=0.057)  charge=  1.8316  magn= -0.0009
     atom  73 (R=0.057)  charge=  1.8315  magn=  0.0001
     atom  74 (R=0.057)  charge=  1.8371  magn=  0.0015
     atom  75 (R=0.057)  charge=  1.8316  magn=  0.0001
     atom  76 (R=0.057)  charge=  1.8337  magn=  0.0000
     atom  77 (R=0.057)  charge=  1.8331  magn= -0.0001
     atom  78 (R=0.057)  charge=  1.8317  magn= -0.0000
     atom  79 (R=0.057)  charge=  1.8327  magn= -0.0001
     atom  80 (R=0.057)  charge=  1.8328  magn= -0.0001
     atom  81 (R=0.057)  charge=  1.8331  magn=  0.0000
     atom  82 (R=0.057)  charge=  1.8324  magn=  0.0000
     atom  83 (R=0.057)  charge=  1.8375  magn=  0.0019
     atom  84 (R=0.057)  charge=  1.8321  magn=  0.0000
     atom  85 (R=0.057)  charge=  1.8375  magn=  0.0019
     atom  86 (R=0.057)  charge=  1.8337  magn= -0.0007
     atom  87 (R=0.057)  charge=  1.8372  magn=  0.0036
     atom  88 (R=0.057)  charge=  1.8321  magn=  0.0000
     atom  89 (R=0.057)  charge=  1.8372  magn=  0.0036
     atom  90 (R=0.057)  charge=  1.8323  magn=  0.0005
     atom  91 (R=0.057)  charge=  1.8370  magn=  0.0011
     atom  92 (R=0.057)  charge=  1.8365  magn= -0.0006
     atom  93 (R=0.057)  charge=  1.8376  magn=  0.0019
     atom  94 (R=0.057)  charge=  1.8365  magn= -0.0006
     atom  95 (R=0.057)  charge=  1.8336  magn= -0.0007
     atom  96 (R=0.057)  charge=  1.8376  magn=  0.0019
     atom  97 (R=0.057)  charge=  1.8336  magn= -0.0007
     atom  98 (R=0.057)  charge=  1.8372  magn=  0.0036
     atom  99 (R=0.057)  charge=  1.8330  magn=  0.0001
     atom 100 (R=0.057)  charge=  1.8370  magn=  0.0011
     atom 101 (R=0.057)  charge=  1.8322  magn=  0.0000
     atom 102 (R=0.057)  charge=  1.8370  magn=  0.0011
     atom 103 (R=0.057)  charge=  1.8363  magn= -0.0006
     atom 104 (R=0.057)  charge=  1.8377  magn=  0.0019
     atom 105 (R=0.057)  charge=  1.8322  magn=  0.0000
     atom 106 (R=0.057)  charge=  1.8377  magn=  0.0019
     atom 107 (R=0.057)  charge=  1.8320  magn=  0.0000
     atom 108 (R=0.057)  charge=  1.8320  magn=  0.0002
     atom 109 (R=0.057)  charge=  1.8284  magn=  0.0001
     atom 110 (R=0.057)  charge=  1.8320  magn=  0.0013
     atom 111 (R=0.057)  charge=  1.8284  magn=  0.0001
     atom 112 (R=0.057)  charge=  1.8288  magn=  0.0050
     atom 113 (R=0.057)  charge=  1.8299  magn=  0.0155
     atom 114 (R=0.057)  charge=  1.8320  magn=  0.0013
     atom 115 (R=0.057)  charge=  1.8299  magn=  0.0155
     atom 116 (R=0.057)  charge=  1.8305  magn=  0.0008
     atom 117 (R=0.057)  charge=  1.8331  magn=  0.0010
     atom 118 (R=0.057)  charge=  1.8317  magn=  0.0010
     atom 119 (R=0.057)  charge=  1.8286  magn=  0.0001
     atom 120 (R=0.057)  charge=  1.8317  magn=  0.0010
     atom 121 (R=0.057)  charge=  1.8289  magn=  0.0050
     atom 122 (R=0.057)  charge=  1.8286  magn=  0.0001
     atom 123 (R=0.057)  charge=  1.8289  magn=  0.0050
     atom 124 (R=0.057)  charge=  1.8299  magn=  0.0155
     atom 125 (R=0.057)  charge=  1.8317  magn=  0.0007
     atom 126 (R=0.057)  charge=  1.8331  magn=  0.0010
     atom 127 (R=0.057)  charge=  1.8320  magn=  0.0002
     atom 128 (R=0.057)  charge=  1.8331  magn=  0.0010
     atom 129 (R=0.057)  charge=  1.8317  magn=  0.0010
     atom 130 (R=0.057)  charge=  1.8286  magn=  0.0001
     atom 131 (R=0.057)  charge=  1.8320  magn=  0.0002
     atom 132 (R=0.057)  charge=  1.8286  magn=  0.0001
     atom 133 (R=0.057)  charge=  1.8320  magn=  0.0013
     atom 134 (R=0.057)  charge=  1.8309  magn=  0.0001
     atom 135 (R=0.057)  charge=  1.8244  magn=  0.0039
     atom 136 (R=0.057)  charge=  1.8287  magn=  0.0153
     atom 137 (R=0.057)  charge=  1.8313  magn=  0.0012
     atom 138 (R=0.057)  charge=  1.8504  magn=  0.1915
     atom 139 (R=0.057)  charge=  1.8302  magn=  0.0047
     atom 140 (R=0.057)  charge=  1.8332  magn=  0.0013
     atom 141 (R=0.057)  charge=  1.8315  magn=  0.0010
     atom 142 (R=0.057)  charge=  1.8304  magn=  0.0002
     atom 143 (R=0.057)  charge=  1.8334  magn=  0.0011
     atom 144 (R=0.057)  charge=  1.8355  magn=  0.0077
     atom 145 (R=0.057)  charge=  1.8310  magn=  0.0001
     atom 146 (R=0.057)  charge=  1.8310  magn=  0.0001
     atom 147 (R=0.057)  charge=  1.8245  magn=  0.0039
     atom 148 (R=0.057)  charge=  1.8286  magn=  0.0153
     atom 149 (R=0.057)  charge=  1.8319  magn=  0.0003
     atom 150 (R=0.057)  charge=  1.8307  magn=  0.0001
     atom 151 (R=0.057)  charge=  1.8320  magn=  0.0012
     atom 152 (R=0.057)  charge=  1.8319  magn=  0.0003
     atom 153 (R=0.057)  charge=  1.8307  magn=  0.0001
     atom 154 (R=0.057)  charge=  1.8321  magn=  0.0012
     atom 155 (R=0.057)  charge=  1.8332  magn=  0.0013
     atom 156 (R=0.057)  charge=  1.8315  magn=  0.0010
     atom 157 (R=0.057)  charge=  1.8304  magn=  0.0002
     atom 158 (R=0.057)  charge=  1.8316  magn=  0.0006
     atom 159 (R=0.057)  charge=  1.8322  magn=  0.0017
     atom 160 (R=0.057)  charge=  1.8318  magn=  0.0004
     atom 161 (R=0.057)  charge=  1.8309  magn=  0.0001
     atom 162 (R=0.057)  charge=  1.8313  magn=  0.0012
     atom 163 (R=0.057)  charge=  1.8332  magn=  0.0013
     atom 164 (R=0.057)  charge=  1.8244  magn=  0.0039
     atom 165 (R=0.057)  charge=  1.8504  magn=  0.1915
     atom 166 (R=0.057)  charge=  1.8315  magn=  0.0010
     atom 167 (R=0.057)  charge=  1.8287  magn=  0.0153
     atom 168 (R=0.057)  charge=  1.8302  magn=  0.0047
     atom 169 (R=0.057)  charge=  1.8304  magn=  0.0002
     atom 170 (R=0.057)  charge=  1.8334  magn=  0.0011
     atom 171 (R=0.057)  charge=  1.8310  magn=  0.0001
     atom 172 (R=0.057)  charge=  1.8319  magn=  0.0003
     atom 173 (R=0.057)  charge=  1.8355  magn=  0.0077
     atom 174 (R=0.057)  charge=  1.8245  magn=  0.0039
     atom 175 (R=0.057)  charge=  1.8307  magn=  0.0001
     atom 176 (R=0.057)  charge=  1.8310  magn=  0.0001
     atom 177 (R=0.057)  charge=  1.8286  magn=  0.0153
     atom 178 (R=0.057)  charge=  1.8320  magn=  0.0012
     atom 179 (R=0.057)  charge=  1.8319  magn=  0.0003
     atom 180 (R=0.057)  charge=  1.8332  magn=  0.0013
     atom 181 (R=0.057)  charge=  1.8316  magn=  0.0006
     atom 182 (R=0.057)  charge=  1.8307  magn=  0.0001
     atom 183 (R=0.057)  charge=  1.8315  magn=  0.0010
     atom 184 (R=0.057)  charge=  1.8322  magn=  0.0017
     atom 185 (R=0.057)  charge=  1.8321  magn=  0.0012
     atom 186 (R=0.057)  charge=  1.8304  magn=  0.0002
     atom 187 (R=0.057)  charge=  1.8318  magn=  0.0004
     atom 188 (R=0.057)  charge=  1.8307  magn=  0.0001
     atom 189 (R=0.057)  charge=  1.8287  magn=  0.0153
     atom 190 (R=0.057)  charge=  1.8320  magn=  0.0012
     atom 191 (R=0.057)  charge=  1.8287  magn=  0.0153
     atom 192 (R=0.057)  charge=  1.8302  magn=  0.0047
     atom 193 (R=0.057)  charge=  1.8304  magn=  0.0002
     atom 194 (R=0.057)  charge=  1.8320  magn=  0.0012
     atom 195 (R=0.057)  charge=  1.8304  magn=  0.0002
     atom 196 (R=0.057)  charge=  1.8318  magn=  0.0004
     atom 197 (R=0.057)  charge=  1.8354  magn=  0.0077
     atom 198 (R=0.057)  charge=  1.8244  magn=  0.0039
     atom 199 (R=0.057)  charge=  1.8307  magn=  0.0001
     atom 200 (R=0.057)  charge=  1.8244  magn=  0.0039
     atom 201 (R=0.057)  charge=  1.8502  magn=  0.1914
     atom 202 (R=0.057)  charge=  1.8315  magn=  0.0010
     atom 203 (R=0.057)  charge=  1.8307  magn=  0.0001
     atom 204 (R=0.057)  charge=  1.8315  magn=  0.0010
     atom 205 (R=0.057)  charge=  1.8321  magn=  0.0017
     atom 206 (R=0.057)  charge=  1.8334  magn=  0.0011
     atom 207 (R=0.057)  charge=  1.8310  magn=  0.0001
     atom 208 (R=0.057)  charge=  1.8319  magn=  0.0003
     atom 209 (R=0.057)  charge=  1.8310  magn=  0.0001
     atom 210 (R=0.057)  charge=  1.8313  magn=  0.0012
     atom 211 (R=0.057)  charge=  1.8331  magn=  0.0013
     atom 212 (R=0.057)  charge=  1.8319  magn=  0.0003
     atom 213 (R=0.057)  charge=  1.8331  magn=  0.0013
     atom 214 (R=0.057)  charge=  1.8316  magn=  0.0006
     atom 215 (R=0.057)  charge=  2.8950  magn=  0.1250

     total cpu time spent up to now is      779.8 secs

     End of self-consistent calculation

 ------ SPIN UP ------------


          k = 0.0000 0.0000 0.0000 ( 42379 PWs)   bands (ev):

    -8.3179  -7.6241  -7.2890  -7.2890  -7.2342  -7.2342  -7.1638  -6.7275
    -6.2980  -6.2980  -6.2780  -6.2780  -6.2576  -6.2368  -6.2306  -6.2306
    -6.1706  -6.1706  -6.0128  -5.5615  -5.2620  -5.2612  -5.2612  -5.2257
    -5.2238  -5.2238  -5.0634  -4.5033  -4.2743  -4.2743  -4.2479  -4.2479
    -4.1950  -3.9212  -3.4129  -3.4129  -3.3819  -3.3819  -3.3753  -3.3613
    -3.3613  -3.3584  -3.3548  -3.3513  -3.3512  -3.3288  -3.3258  -3.3258
    -3.2967  -3.2967  -3.2820  -3.2798  -3.2798  -3.2743  -3.1932  -3.1932
    -3.0330  -2.8555  -2.6423  -2.6423  -2.5906  -2.5804  -2.5804  -2.5718
    -2.5668  -2.5668  -2.5651  -2.5424  -2.5424  -2.5264  -2.5264  -2.5202
    -2.5025  -2.5025  -2.4680  -2.4546  -2.4546  -2.4128  -2.2922  -2.2921
    -1.6489  -1.0856  -0.9219  -0.9219  -0.8693  -0.8693  -0.8604  -0.8544
    -0.8544  -0.8464  -0.7929  -0.7929  -0.4486   0.3310   0.3872   0.3872
     0.4141   0.4141   0.4531   0.6511   0.8021   0.8021   0.8904   0.8932
     0.8933   0.8969   0.8969   0.9059   0.9096   0.9096   0.9171   0.9480
     0.9480   0.9678   0.9921   1.0178   1.0178   1.0322   1.0322   1.0440
     1.0694   1.0694   1.0806   1.1066   1.1066   1.1083   1.1291   1.1365
     1.1365   1.1371   1.1469   1.1469   1.1476   1.1742   1.1742   1.1974
     1.1974   1.2071   1.2093   1.2093   1.2138   1.2138   1.2314   1.4279
     1.5689   1.5690   1.9409   2.1845   2.1845   2.1877   2.2417   2.2417
     2.2463   2.2508   2.2771   2.2771   2.4220   2.4220   3.3568   3.6738
     3.6738   3.7207   3.7829   3.7928   3.7953   3.7953   3.7982   3.7982
     3.8112   3.8124   3.8272   3.8305   3.8305   3.8528   3.8528   3.9612
     3.9612   3.9648   4.0076   4.3247   4.3247   4.3680   4.4423   4.4508
     4.4508   4.4536   4.4574   4.4575   4.4655   4.4655   4.4805   4.4806
     4.4896   4.4896   4.4907   4.4907   4.5049   4.5257   4.5258   4.5332
     4.7443   4.7443   5.1966   5.1966   5.2484   5.3112   5.3112   5.3127
     5.3162   5.3164   5.3164   5.3312   5.3358   5.3359   5.3596   5.3596
     5.4117   5.4117   5.4165   5.4324   5.4412   5.4700   5.4700   5.5069
     5.5405   5.5405   5.6104   5.7211   5.7211   5.8186   5.8336   5.8336
     5.8508   5.8598   5.8598   5.8647   5.8672   5.8691   5.8691   5.8797
     5.8797   5.8892   5.8996   5.9150   5.9151   5.9216   5.9429   5.9429
     5.9500   5.9764   5.9764   6.0157   6.0157   6.2882   6.3508   6.3508
     6.8321   6.8322   6.9050   6.9085   6.9423   6.9423   7.0511   7.3446
     7.3447   7.4430   7.4516   7.4516   7.4729   7.4764   7.4764   7.5024
     7.5581   7.5581   7.6870   7.6870   7.8140   7.8584   7.8636   7.8649
     7.8649   7.8764   7.8764   7.9041   7.9278   7.9278   7.9395   8.0466
     8.0466   8.0853   8.1064   8.1130   8.1130   8.1313   8.1346   8.1346
     8.1357   8.1357   8.1421   8.1503   8.1503   8.1567   8.1827   8.1827
     8.1936   8.2031   8.2031   8.2053   8.2053   8.2210   8.2654   8.2655
     8.2928   8.3162   8.3194   8.3194   8.3224   8.3279   8.3334   8.3334
     8.3380   8.3380   8.3491   8.3519   8.3537   8.3537   8.3589   8.3589
     8.3639   8.3654   8.3654   8.3699   8.3810   8.3811   8.3891   8.3943
     8.3943   8.3962   8.4053   8.4053   8.4315   8.4315   8.4396   8.4529
     8.4529   8.4908   8.4908   8.4974   8.5127   8.5470   8.5516   8.5516
     8.5550   8.6713   8.6713   8.9055   8.9223   8.9223   9.0807   9.0808
     9.1516   9.1560   9.1560   9.1616   9.1940   9.1940   9.1983   9.2028
     9.2227   9.2227   9.2252   9.2320   9.2320   9.2422   9.2422   9.2635
     9.3198   9.3198   9.3865   9.9104  10.1471  10.1471  10.4621  10.5040
    10.5041  10.5709  10.5709  10.5764  10.6000  10.6091  10.6091  10.6093
    10.6684  10.6684  10.6888  10.7621  10.7621  10.8260  10.8331  10.8331
    10.8377  10.8377  10.8434  10.8434  10.8542  10.8793  10.8793  10.9050
    10.9085  10.9085  10.9100  10.9373  10.9373  11.4196  11.5244  11.5244
    11.7047  11.7361  11.7361  11.7512  11.7812  11.7812  11.7834  11.8187
    11.8606  11.8606  12.9356  13.0165  13.0166  13.7412  15.2859  15.2860
    17.2966  17.2966  17.3028  17.3549  17.3549  17.3720  17.8447  17.9409
    17.9409  17.9554  17.9554  18.0165  18.0799  18.0799  18.1321  18.1901
    18.1901  18.2017  18.8073  18.8073  18.8333  19.3416  19.4688  19.4688
    19.4866  19.5149  19.5149  19.5362  19.5362  19.5367  19.5480  19.5480
    19.5881  19.9510  20.1729  20.1729  20.2123  20.2184  20.2184  20.2246
    20.2268  20.2268  20.2337  20.2337  20.2492  20.2492  20.2553  20.2587
    20.2870  20.2871  20.2872  20.3277  20.3278  20.3548  20.3691  20.3691
    20.3706  20.5992  20.6383  20.6383  20.7024  20.7110  20.7173  20.7174
    20.7284  20.7284  20.7395  20.7503  20.7503  20.7586  20.7798  20.7798
    20.8096  20.8096  20.8124  20.8278  20.8287  20.8287  20.8374  20.8563
    20.8563  20.8632  20.8676  20.8676  20.8755  20.8756  20.8831  20.8831
    20.8971  20.9121  20.9121  20.9496  20.9539  21.0083  21.0147  21.0147
    21.0752  21.0752  21.0851  21.1809  21.2794  21.2794  21.3094  21.3275
    21.3275  21.3402  21.3417  21.3417  21.3510  21.3510  21.3530  21.3699
    21.3700  21.3858  21.3961  21.4016  21.4016  21.4057  21.4057  21.4184
    21.4184  21.4216  21.4240  21.4327  21.4328  21.4514  21.4515  21.4566
    21.4678  21.4678  21.4995  21.5049  21.5049  21.5179  21.5948  21.6144
    21.6144  21.6302  21.6530  21.6530  21.6597  21.6772  21.6861  21.6861
    21.7022  21.7022  21.7237  21.7509  21.7509  21.7724  21.8032  21.8260
    21.8260  21.9431  21.9431  21.9706  21.9932  21.9932  22.1109  22.1109
    22.1324  22.1788  22.1788  22.1887  22.1998  22.2033  22.2033  22.3329
    22.3477  22.3477  22.3945  22.4549  22.4550  22.4847  22.4869  22.4870
    22.6470  22.6861  22.6861  22.8006  22.9489  22.9489  22.9791  23.1006
    23.1007  23.1089  23.1218  23.1218  23.1274  23.1274  23.1419  23.1419
    23.1450  23.1470  23.1741  23.1855  23.2036  23.2036  23.2057  23.2627
    23.3023  23.3024  23.3540  23.3540  23.4158  23.4539  23.4539  23.7722
    23.7722  23.7840  23.7872  23.7938  23.8073  23.8073  23.8107  23.8285
    23.8285  23.8458  23.8458  23.8576  23.8576  23.8650  23.8944  23.8976
    23.9728  23.9728  23.9738  24.1004  24.1004  24.1817  24.1817  24.2223
    24.2266  24.2266  24.2475  24.2744  24.2745  24.2754  24.2838  24.2838
    24.2981  24.3274  24.3274  24.3478  24.3787  24.3787  24.3996  24.3996
    24.4009  24.4012  24.4012  24.4123  24.4657  24.4785  24.4786  24.4788
    24.4801  24.4869  24.4869  24.5063  24.5127  24.5128  24.5267  24.5267
    24.5376  24.5603  24.5603  24.5780  24.6525  24.6525  24.6844  24.7935
    24.7936  24.8943  24.8943  25.4871  25.5079  25.5079  25.6002  25.7406
    25.7944  25.7944  25.8043  25.8043  25.9945  25.9945  25.9995  26.0129
    26.0435  26.0436  26.0943  26.1222  26.1450  26.1450  26.2053  26.2795
    26.2795  26.4316  26.5606  26.5606  26.5702  26.6353  26.6373  26.6421
    26.6422  26.6750  26.6750  26.6885  26.6885  26.6961  26.7483  26.7493
    26.7493  26.7746  26.7840  26.7841  26.8262  26.8372  26.8373  26.9409
    26.9410  27.0342  27.0343  27.0743  27.0881  27.1002  27.1002  27.1108
    27.1223  27.1227  27.1227  27.1294  27.1295  27.1537  27.1537  27.1766
    27.1877  27.2127  27.2127  27.2443  27.2443  27.2535  27.2623  27.2623
    27.2740  27.2813  27.2910  27.2910  27.2984  27.3099  27.3099  27.3111
    27.3111  27.3121  27.3310  27.3425  27.3425  27.3447  27.3627  27.3627
    27.3656  27.3748  27.3829  27.3829  27.3969  27.3969  27.4090  27.4180
    27.4336  27.4336  27.4617  27.4807  27.4807  27.5045  27.5045  27.5113
    27.5113  27.5329  27.5503  27.5503  27.5512  27.5522  27.5790  27.5876
    27.5876  27.5972  27.5972  27.6081  27.6088  27.6103  27.6103  27.6478
    27.6478  27.7160  27.7160  27.7210  27.7549  27.8524  27.8524  27.8806
    27.9122  27.9274  27.9274  27.9789  28.0498  28.0498  28.0913  28.0913
    28.1211  28.1526  28.1526  28.2923  28.3062  28.3063  28.3243  28.3546
    28.3686  28.3686  28.5620  28.6322  28.6323  28.7111  29.7075  29.7983
    29.7983  29.8573  29.9357  29.9357  29.9990  30.0619

 ------ SPIN DOWN ----------


          k = 0.0000 0.0000 0.0000 ( 42379 PWs)   bands (ev):

    -8.3066  -7.5815  -7.2862  -7.2862  -7.2284  -7.2284  -7.1514  -6.6990
    -6.2949  -6.2949  -6.2757  -6.2757  -6.2541  -6.2323  -6.2252  -6.2251
    -6.1570  -6.1570  -5.9911  -5.5433  -5.2574  -5.2545  -5.2545  -5.2186
    -5.2112  -5.2112  -5.0412  -4.4777  -4.2685  -4.2685  -4.2399  -4.2399
    -4.1875  -3.8955  -3.4056  -3.4056  -3.3792  -3.3792  -3.3744  -3.3575
    -3.3575  -3.3559  -3.3523  -3.3486  -3.3485  -3.3271  -3.3220  -3.3220
    -3.2873  -3.2873  -3.2728  -3.2698  -3.2698  -3.2695  -3.1732  -3.1732
    -3.0210  -2.8463  -2.6375  -2.6375  -2.5869  -2.5760  -2.5760  -2.5641
    -2.5634  -2.5628  -2.5628  -2.5371  -2.5371  -2.5203  -2.5203  -2.5115
    -2.4979  -2.4979  -2.4579  -2.4435  -2.4435  -2.4015  -2.2392  -2.2392
    -1.5952  -1.0715  -0.9165  -0.9165  -0.8598  -0.8598  -0.8552  -0.8479
    -0.8479  -0.8414  -0.7668  -0.7668  -0.3956   0.3473   0.3921   0.3921
     0.4205   0.4205   0.4589   0.6763   0.8109   0.8109   0.8908   0.8956
     0.8956   0.8991   0.8992   0.9091   0.9152   0.9153   0.9190   0.9509
     0.9509   0.9750   1.0014   1.0267   1.0267   1.0425   1.0425   1.0494
     1.0818   1.0819   1.0849   1.1115   1.1115   1.1172   1.1330   1.1393
     1.1414   1.1415   1.1529   1.1530   1.1571   1.1779   1.1779   1.2034
     1.2034   1.2130   1.2148   1.2148   1.2330   1.2330   1.2617   1.4482
     1.6096   1.6096   1.9606   2.1924   2.1925   2.2077   2.2457   2.2457
     2.2501   2.2589   2.2833   2.2833   2.4729   2.4730   3.4236   3.6863
     3.6863   3.7334   3.7898   3.7995   3.8000   3.8000   3.8006   3.8006
     3.8140   3.8196   3.8339   3.8349   3.8349   3.8611   3.8612   3.9751
     3.9751   3.9780   4.0256   4.3357   4.3357   4.3921   4.4447   4.4535
     4.4535   4.4553   4.4624   4.4624   4.4714   4.4714   4.4832   4.4943
     4.4943   4.4989   4.4991   4.4991   4.5162   4.5357   4.5357   4.5413
     4.7932   4.7932   5.2096   5.2096   5.2648   5.3130   5.3130   5.3174
     5.3180   5.3195   5.3195   5.3330   5.3398   5.3398   5.3633   5.3633
     5.4180   5.4180   5.4236   5.4423   5.4479   5.4819   5.4819   5.5185
     5.5494   5.5494   5.6431   5.7301   5.7301   5.8318   5.8366   5.8366
     5.8550   5.8636   5.8636   5.8694   5.8753   5.8753   5.8770   5.8857
     5.8857   5.8961   5.9122   5.9248   5.9269   5.9269   5.9523   5.9523
     5.9682   5.9889   5.9889   6.0299   6.0299   6.3229   6.3874   6.3874
     6.8420   6.8420   6.9124   6.9261   6.9572   6.9572   7.1202   7.3611
     7.3611   7.4548   7.4548   7.4552   7.4768   7.4827   7.4827   7.5205
     7.5712   7.5712   7.6971   7.6972   7.8371   7.8630   7.8699   7.8699
     7.8841   7.8863   7.8863   7.9114   7.9369   7.9369   7.9546   8.0574
     8.0574   8.0896   8.1095   8.1162   8.1162   8.1342   8.1373   8.1373
     8.1394   8.1394   8.1445   8.1527   8.1527   8.1625   8.1885   8.1885
     8.1981   8.2080   8.2080   8.2170   8.2170   8.2282   8.2713   8.2713
     8.3007   8.3222   8.3222   8.3241   8.3300   8.3317   8.3361   8.3361
     8.3409   8.3409   8.3523   8.3567   8.3569   8.3569   8.3664   8.3664
     8.3678   8.3682   8.3682   8.3746   8.3869   8.3869   8.3999   8.4022
     8.4022   8.4096   8.4188   8.4188   8.4382   8.4382   8.4470   8.4582
     8.4582   8.5033   8.5033   8.5269   8.5269   8.5515   8.5669   8.5717
     8.5717   8.7038   8.7038   8.9251   8.9378   8.9378   9.0876   9.0876
     9.1543   9.1594   9.1594   9.1635   9.1990   9.1990   9.2026   9.2158
     9.2308   9.2308   9.2326   9.2447   9.2447   9.2593   9.2593   9.2683
     9.3504   9.3504   9.4162   9.9939  10.2011  10.2011  10.5185  10.5185
    10.5741  10.5741  10.5806  10.5867  10.6024  10.6205  10.6205  10.6403
    10.6733  10.6733  10.6979  10.7668  10.7668  10.8353  10.8387  10.8387
    10.8439  10.8439  10.8553  10.8553  10.8587  10.8900  10.8900  10.9191
    10.9221  10.9221  10.9266  10.9463  10.9464  11.4938  11.5481  11.5482
    11.7444  11.7444  11.7534  11.7867  11.7881  11.7881  11.8296  11.8779
    11.8779  12.0043  13.0453  13.0454  13.0539  14.4707  16.2366  16.2366
    17.3006  17.3006  17.3180  17.3656  17.3656  17.3819  17.8561  17.9482
    17.9482  17.9611  17.9611  18.0257  18.0853  18.0853  18.1605  18.2062
    18.2062  18.2124  18.8246  18.8247  18.8458  19.3608  19.4721  19.4721
    19.4890  19.5235  19.5235  19.5412  19.5412  19.5425  19.5528  19.5528
    19.5956  19.9676  20.1768  20.1768  20.2150  20.2216  20.2216  20.2275
    20.2303  20.2304  20.2404  20.2404  20.2559  20.2559  20.2603  20.2636
    20.2927  20.2951  20.2951  20.3335  20.3336  20.3640  20.3773  20.3773
    20.3790  20.6118  20.6485  20.6485  20.7044  20.7123  20.7202  20.7203
    20.7316  20.7316  20.7418  20.7528  20.7528  20.7620  20.7841  20.7841
    20.8138  20.8138  20.8159  20.8325  20.8325  20.8399  20.8410  20.8664
    20.8664  20.8671  20.8760  20.8760  20.8865  20.8866  20.8913  20.8914
    20.9023  20.9188  20.9188  20.9563  20.9624  21.0194  21.0209  21.0209
    21.0828  21.0828  21.0924  21.1900  21.2866  21.2866  21.3124  21.3318
    21.3318  21.3440  21.3450  21.3450  21.3563  21.3563  21.3565  21.3746
    21.3747  21.3983  21.3989  21.4076  21.4076  21.4099  21.4099  21.4266
    21.4268  21.4269  21.4312  21.4388  21.4388  21.4665  21.4665  21.4723
    21.4793  21.4793  21.5115  21.5243  21.5243  21.5411  21.6006  21.6249
    21.6250  21.6337  21.6577  21.6577  21.6627  21.6915  21.6933  21.6933
    21.7100  21.7101  21.7358  21.7567  21.7567  21.7774  21.8244  21.8437
    21.8437  21.9651  21.9651  21.9774  22.0094  22.0094  22.1145  22.1145
    22.1343  22.1933  22.1933  22.1961  22.2079  22.2108  22.2109  22.3439
    22.3580  22.3580  22.4164  22.4637  22.4638  22.4911  22.4912  22.4920
    22.6690  22.7203  22.7203  22.8652  22.9661  22.9661  22.9968  23.1067
    23.1068  23.1108  23.1248  23.1248  23.1318  23.1318  23.1451  23.1451
    23.1506  23.1511  23.1787  23.1980  23.2163  23.2163  23.2317  23.3003
    23.3386  23.3386  23.3737  23.3737  23.4408  23.4825  23.4826  23.7815
    23.7815  23.7872  23.7910  23.8120  23.8120  23.8138  23.8340  23.8340
    23.8372  23.8552  23.8552  23.8643  23.8643  23.8715  23.9036  23.9119
    23.9824  23.9910  23.9910  24.1125  24.1125  24.1959  24.1959  24.2298
    24.2321  24.2321  24.2503  24.2784  24.2785  24.2817  24.2887  24.2887
    24.3047  24.3346  24.3346  24.3527  24.3884  24.3884  24.4067  24.4067
    24.4072  24.4171  24.4171  24.4225  24.4686  24.4828  24.4920  24.4920
    24.5000  24.5055  24.5055  24.5151  24.5201  24.5201  24.5355  24.5355
    24.5419  24.5655  24.5655  24.6017  24.6905  24.6905  24.7065  24.8952
    24.8952  24.9514  24.9514  25.5433  25.5518  25.5519  25.6288  25.7533
    25.8062  25.8062  25.8164  25.8164  26.0015  26.0048  26.0048  26.0179
    26.0536  26.0536  26.1221  26.1312  26.1605  26.1605  26.2300  26.3074
    26.3074  26.4476  26.5703  26.5703  26.5904  26.6412  26.6434  26.6481
    26.6481  26.6808  26.6808  26.6962  26.6962  26.7098  26.7577  26.7577
    26.7620  26.7796  26.7901  26.7901  26.8341  26.8498  26.8498  26.9630
    26.9630  27.0459  27.0459  27.0835  27.0907  27.1044  27.1044  27.1152
    27.1264  27.1264  27.1264  27.1328  27.1328  27.1598  27.1598  27.1883
    27.1916  27.2177  27.2177  27.2501  27.2501  27.2576  27.2670  27.2670
    27.2829  27.2849  27.2990  27.2990  27.3048  27.3149  27.3150  27.3196
    27.3196  27.3235  27.3332  27.3511  27.3532  27.3532  27.3704  27.3704
    27.3708  27.3848  27.3882  27.3882  27.4041  27.4041  27.4258  27.4362
    27.4434  27.4434  27.4677  27.4900  27.4900  27.5178  27.5178  27.5204
    27.5204  27.5429  27.5549  27.5549  27.5556  27.5591  27.5845  27.5958
    27.5959  27.6057  27.6057  27.6115  27.6167  27.6167  27.6204  27.6771
    27.6771  27.7407  27.7407  27.7766  27.7894  27.8912  27.8912  27.8959
    27.9214  27.9445  27.9445  28.0077  28.0665  28.0666  28.1225  28.1225
    28.1337  28.1810  28.1810  28.3111  28.3379  28.3498  28.3498  28.4084
    28.4249  28.4249  28.6242  28.7185  28.7186  28.8052  29.7451  29.8137
    29.8137  29.9273  29.9582  29.9583  30.0138  30.0689

     highest occupied, lowest unoccupied level (ev):    15.28597580   14.47065531

!    total energy              =   -3971.22074576 Ry
     total all-electron energy =    -16414.036349 Ry
     estimated scf accuracy    <          1.9E-09 Ry

     The total energy is the sum of the following terms:
     one-electron contribution =     885.82951167 Ry
     hartree contribution      =     218.11866033 Ry
     xc contribution           =   -1009.04182832 Ry
     ewald contribution        =   -2739.35235620 Ry
     one-center paw contrib.   =   -1326.77473324 Ry

     total magnetization       =     2.00 Bohr mag/cell
     absolute magnetization    =     2.20 Bohr mag/cell

     convergence has been achieved in  17 iterations

     Forces acting on atoms (cartesian axes, Ry/au):

     atom    1 type  1   force =     0.00015328    0.00018802   -0.00019891
     atom    2 type  1   force =    -0.00004839    0.00000290    0.00012411
     atom    3 type  1   force =     0.00026963    0.00044459   -0.00019777
     atom    4 type  1   force =    -0.00012252   -0.00001523    0.00004985
     atom    5 type  1   force =    -0.00024847    0.00006932    0.00023161
     atom    6 type  1   force =     0.00016672    0.00017683    0.00076567
     atom    7 type  1   force =     0.00009507    0.00040210   -0.00037235
     atom    8 type  1   force =    -0.00078078   -0.00005308   -0.00018171
     atom    9 type  1   force =     0.00059132   -0.00006814   -0.00057479
     atom   10 type  1   force =     0.00083690    0.00034082   -0.00091947
     atom   11 type  1   force =     0.00007150   -0.00016788    0.00019748
     atom   12 type  1   force =     0.00000361   -0.00007541    0.00028983
     atom   13 type  1   force =    -0.00015021   -0.00022174   -0.00002427
     atom   14 type  1   force =     0.00724745    0.00102302   -0.00749569
     atom   15 type  1   force =     0.00733616    0.00109431   -0.00367684
     atom   16 type  1   force =    -0.00026362   -0.00014030    0.00002254
     atom   17 type  1   force =     0.00352356    0.00016914   -0.00748959
     atom   18 type  1   force =     0.00605340   -0.00694513   -0.00436816
     atom   19 type  1   force =     0.00006179    0.00010300   -0.00008676
     atom   20 type  1   force =     0.00004436    0.00022485   -0.00021485
     atom   21 type  1   force =    -0.00006777   -0.00002484    0.00004181
     atom   22 type  1   force =     0.00015693    0.00025212   -0.00010220
     atom   23 type  1   force =    -0.00011903    0.00059488   -0.00002531
     atom   24 type  1   force =     0.00031841   -0.00079430   -0.00017474
     atom   25 type  1   force =    -0.00003667   -0.00001734    0.00007296
     atom   26 type  1   force =     0.00036602   -0.00078270   -0.00012712
     atom   27 type  1   force =     0.00081110   -0.00022368   -0.00075686
     atom   28 type  1   force =    -0.00000872   -0.00009197   -0.00002948
     atom   29 type  1   force =     0.00010379   -0.00006408    0.00085208
     atom   30 type  1   force =     0.00043689    0.00080521    0.00064313
     atom   31 type  1   force =    -0.00026117   -0.00014527    0.00001858
     atom   32 type  1   force =     0.00076738    0.00771199    0.00282354
     atom   33 type  1   force =     0.00236928    0.00312547    0.00939279
     atom   34 type  1   force =     0.00006374    0.00048709   -0.00026007
     atom   35 type  1   force =    -0.00077709   -0.00005436   -0.00018162
     atom   36 type  1   force =     0.00033671    0.00063662    0.00038141
     atom   37 type  1   force =     0.00017357    0.00020550   -0.00016636
     atom   38 type  1   force =     0.00003147    0.00018270   -0.00059022
     atom   39 type  1   force =     0.00004353   -0.00003818    0.00086084
     atom   40 type  1   force =    -0.00019603   -0.00010079    0.00014061
     atom   41 type  1   force =     0.00435327    0.00892485    0.00330013
     atom   42 type  1   force =     0.00571251    0.00549047    0.00232998
     atom   43 type  1   force =    -0.00009764   -0.00009018   -0.00005429
     atom   44 type  1   force =    -0.00012918   -0.00025838   -0.00021371
     atom   45 type  1   force =     0.00045278   -0.00060716   -0.00030346
     atom   46 type  1   force =     0.00005670    0.00012012   -0.00006099
     atom   47 type  1   force =     0.00002758    0.00026857   -0.00015256
     atom   48 type  1   force =    -0.00004998   -0.00007309   -0.00002477
     atom   49 type  1   force =     0.00054330    0.00114161    0.00018173
     atom   50 type  1   force =     0.00009389   -0.00023078    0.00011165
     atom   51 type  1   force =     0.00008377   -0.00030062   -0.00001490
     atom   52 type  1   force =     0.00012101    0.00027439   -0.00008246
     atom   53 type  1   force =     0.00000107   -0.00013516   -0.00006479
     atom   54 type  1   force =     0.00029143    0.00038126   -0.00028207
     atom   55 type  1   force =     0.00005009   -0.00007765    0.00002934
     atom   56 type  1   force =     0.00000869   -0.00007970    0.00028848
     atom   57 type  1   force =     0.00013972    0.00050556   -0.00018413
     atom   58 type  1   force =    -0.00080967   -0.00028576   -0.00006134
     atom   59 type  1   force =    -0.00453847    0.00642455   -0.00248242
     atom   60 type  1   force =     0.00016703    0.00017477    0.00076246
     atom   61 type  1   force =    -0.00080210    0.00050463   -0.00059586
     atom   62 type  1   force =    -0.00979311    0.00017448   -0.00276966
     atom   63 type  1   force =    -0.00051091    0.00043096   -0.00046623
     atom   64 type  1   force =     0.00011817    0.00019204   -0.00022173
     atom   65 type  1   force =    -0.00011844   -0.00008193    0.00021817
     atom   66 type  1   force =     0.00007130   -0.00004917    0.00011469
     atom   67 type  1   force =     0.00053116    0.00030392   -0.00009048
     atom   68 type  1   force =    -0.00518514    0.00661059   -0.00623817
     atom   69 type  1   force =     0.00026473   -0.00016285    0.00018029
     atom   70 type  1   force =    -0.00082593   -0.00024921   -0.00000869
     atom   71 type  1   force =    -0.00339405    0.00328079   -0.00677672
     atom   72 type  1   force =     0.00045086   -0.00060770   -0.00030542
     atom   73 type  1   force =     0.00003253    0.00011419   -0.00008508
     atom   74 type  1   force =    -0.00043012    0.00090560   -0.00079170
     atom   75 type  1   force =     0.00001888    0.00024966   -0.00018458
     atom   76 type  1   force =     0.00008573    0.00028255   -0.00009441
     atom   77 type  1   force =    -0.00005144   -0.00026604   -0.00003367
     atom   78 type  1   force =     0.00009482   -0.00011246    0.00002892
     atom   79 type  1   force =     0.00003987   -0.00005131    0.00006509
     atom   80 type  1   force =     0.00008768   -0.00029964   -0.00001100
     atom   81 type  1   force =     0.00019246    0.00035719   -0.00038103
     atom   82 type  1   force =     0.00013736   -0.00029673   -0.00006543
     atom   83 type  1   force =    -0.00028054    0.00001033   -0.00124959
     atom   84 type  1   force =     0.00005674    0.00011575   -0.00004648
     atom   85 type  1   force =     0.00120336    0.00037038    0.00023437
     atom   86 type  1   force =    -0.00055311   -0.00025651    0.00061534
     atom   87 type  1   force =     0.00051193    0.00106055    0.00023573
     atom   88 type  1   force =     0.00001953    0.00010683   -0.00008372
     atom   89 type  1   force =    -0.00046438    0.00082368   -0.00074054
     atom   90 type  1   force =     0.00022957    0.00057276   -0.00036850
     atom   91 type  1   force =     0.00139774    0.00167446   -0.00180399
     atom   92 type  1   force =     0.00012266    0.00021790    0.00014116
     atom   93 type  1   force =     0.00000037   -0.00011466   -0.00127840
     atom   94 type  1   force =    -0.00018501    0.00014327   -0.00016658
     atom   95 type  1   force =     0.00028835   -0.00063463    0.00052783
     atom   96 type  1   force =     0.00126899    0.00019311   -0.00000993
     atom   97 type  1   force =    -0.00035493   -0.00079073   -0.00011550
     atom   98 type  1   force =     0.00080806    0.00025604   -0.00087015
     atom   99 type  1   force =     0.00014855    0.00036223   -0.00023640
     atom  100 type  1   force =     0.00005156    0.00227952   -0.00166691
     atom  101 type  1   force =    -0.00030146   -0.00009665   -0.00001967
     atom  102 type  1   force =     0.00108343    0.00252979   -0.00063508
     atom  103 type  1   force =     0.00021439   -0.00003845   -0.00020515
     atom  104 type  1   force =    -0.00045207    0.00111111    0.00040194
     atom  105 type  1   force =     0.00003328   -0.00001534    0.00031511
     atom  106 type  1   force =    -0.00066534    0.00105953    0.00018871
     atom  107 type  1   force =     0.00006784    0.00008276   -0.00008785
     atom  108 type  1   force =     0.00006645   -0.00039293    0.00002895
     atom  109 type  1   force =    -0.00014973    0.00039127   -0.00028011
     atom  110 type  1   force =    -0.00009055   -0.00021068    0.00014881
     atom  111 type  1   force =     0.00017559    0.00047014    0.00004525
     atom  112 type  1   force =    -0.00051288    0.00070845    0.00034105
     atom  113 type  1   force =    -0.00107944   -0.00222079   -0.00070195
     atom  114 type  1   force =    -0.00009745   -0.00021236    0.00014196
     atom  115 type  1   force =     0.00117440   -0.00167398    0.00155198
     atom  116 type  1   force =    -0.00015618   -0.00037777    0.00024782
     atom  117 type  1   force =    -0.00099166    0.00041789    0.00089025
     atom  118 type  1   force =    -0.00024117   -0.00038516   -0.00056462
     atom  119 type  1   force =     0.00032002    0.00017474   -0.00032756
     atom  120 type  1   force =     0.00063233   -0.00017328    0.00030890
     atom  121 type  1   force =     0.00090278    0.00007459    0.00019995
     atom  122 type  1   force =     0.00028624    0.00016649   -0.00036141
     atom  123 type  1   force =    -0.00018600   -0.00018967   -0.00088881
     atom  124 type  1   force =    -0.00176544   -0.00035379    0.00185130
     atom  125 type  1   force =    -0.00024116   -0.00060017    0.00038678
     atom  126 type  1   force =     0.00108491   -0.00051399    0.00067747
     atom  127 type  1   force =    -0.00034919   -0.00020627    0.00006793
     atom  128 type  1   force =    -0.00050599   -0.00090012   -0.00091328
     atom  129 type  1   force =    -0.00050248    0.00033570    0.00042099
     atom  130 type  1   force =     0.00022437    0.00044724    0.00003971
     atom  131 type  1   force =    -0.00002731   -0.00012820    0.00038980
     atom  132 type  1   force =    -0.00013763    0.00035948   -0.00032224
     atom  133 type  1   force =    -0.00008553   -0.00021704    0.00013824
     atom  134 type  1   force =     0.00030423   -0.00005695    0.00012970
     atom  135 type  1   force =    -0.00039823   -0.00092929   -0.00108896
     atom  136 type  1   force =    -0.00276801   -0.00155432    0.00016795
     atom  137 type  1   force =     0.00017078    0.00031554   -0.00017201
     atom  138 type  1   force =     0.02683056   -0.01588680    0.01885294
     atom  139 type  1   force =    -0.00110130    0.00048052   -0.00062978
     atom  140 type  1   force =    -0.00037889   -0.00014854    0.00065314
     atom  141 type  1   force =     0.00018215    0.00018150   -0.00029813
     atom  142 type  1   force =    -0.00011678   -0.00011341   -0.00015168
     atom  143 type  1   force =    -0.00061375   -0.00070426    0.00036241
     atom  144 type  1   force =     0.00383071   -0.00274505    0.00304502
     atom  145 type  1   force =    -0.00025973    0.00017952   -0.00019084
     atom  146 type  1   force =     0.00030595   -0.00005100    0.00013905
     atom  147 type  1   force =    -0.00095301    0.00059615    0.00098928
     atom  148 type  1   force =    -0.00284622   -0.00132723    0.00046842
     atom  149 type  1   force =    -0.00005664   -0.00011371    0.00044662
     atom  150 type  1   force =    -0.00013653   -0.00040355   -0.00012516
     atom  151 type  1   force =    -0.00014299   -0.00030284    0.00000280
     atom  152 type  1   force =     0.00006667   -0.00044264   -0.00001067
     atom  153 type  1   force =    -0.00026848   -0.00004293    0.00036588
     atom  154 type  1   force =    -0.00020593   -0.00012863    0.00023870
     atom  155 type  1   force =    -0.00016672   -0.00071998   -0.00013624
     atom  156 type  1   force =     0.00010995    0.00038805   -0.00002055
     atom  157 type  1   force =    -0.00018430    0.00008687    0.00011421
     atom  158 type  1   force =     0.00000684   -0.00024982    0.00019742
     atom  159 type  1   force =     0.00026306   -0.00029928    0.00030007
     atom  160 type  1   force =    -0.00010234   -0.00003809    0.00001216
     atom  161 type  1   force =    -0.00010386   -0.00015594   -0.00027842
     atom  162 type  1   force =     0.00009762    0.00029785   -0.00024520
     atom  163 type  1   force =    -0.00061021   -0.00020469    0.00042183
     atom  164 type  1   force =     0.00126547   -0.00052553    0.00057476
     atom  165 type  1   force =    -0.01380194   -0.02574578   -0.02177975
     atom  166 type  1   force =     0.00025203    0.00019839   -0.00022825
     atom  167 type  1   force =     0.00012403   -0.00085256    0.00306004
     atom  168 type  1   force =     0.00046703    0.00086102    0.00093854
     atom  169 type  1   force =     0.00017074   -0.00004365    0.00013579
     atom  170 type  1   force =    -0.00020356   -0.00060476    0.00077248
     atom  171 type  1   force =    -0.00011434   -0.00015286   -0.00028128
     atom  172 type  1   force =    -0.00040865   -0.00019916    0.00009465
     atom  173 type  1   force =    -0.00220140   -0.00420864   -0.00298706
     atom  174 type  1   force =    -0.00112884    0.00055352    0.00081358
     atom  175 type  1   force =     0.00021280   -0.00031889    0.00022418
     atom  176 type  1   force =     0.00013570    0.00027550    0.00020458
     atom  177 type  1   force =    -0.00022358   -0.00069087    0.00309110
     atom  178 type  1   force =     0.00006464   -0.00025249    0.00021034
     atom  179 type  1   force =     0.00011663   -0.00043051    0.00003939
     atom  180 type  1   force =     0.00029728   -0.00060731    0.00032772
     atom  181 type  1   force =    -0.00013270   -0.00028370    0.00005791
     atom  182 type  1   force =    -0.00035306   -0.00006349    0.00028135
     atom  183 type  1   force =    -0.00006841    0.00034476   -0.00019895
     atom  184 type  1   force =    -0.00021348   -0.00041498   -0.00017647
     atom  185 type  1   force =    -0.00020740   -0.00012890    0.00023715
     atom  186 type  1   force =    -0.00013673    0.00009844    0.00016178
     atom  187 type  1   force =    -0.00000570   -0.00001464    0.00010878
     atom  188 type  1   force =     0.00025464   -0.00005087   -0.00024230
     atom  189 type  1   force =     0.00065529   -0.00309386   -0.00018443
     atom  190 type  1   force =     0.00006203   -0.00024918    0.00021227
     atom  191 type  1   force =     0.00092710   -0.00302791    0.00008737
     atom  192 type  1   force =     0.00094718   -0.00043649   -0.00084122
     atom  193 type  1   force =     0.00018682   -0.00008266    0.00007851
     atom  194 type  1   force =    -0.00014565   -0.00029952    0.00000453
     atom  195 type  1   force =    -0.00005149   -0.00014047   -0.00015982
     atom  196 type  1   force =     0.00002024   -0.00009599    0.00000313
     atom  197 type  1   force =    -0.00403391    0.00078920    0.00384240
     atom  198 type  1   force =    -0.00062842   -0.00082557   -0.00106787
     atom  199 type  1   force =     0.00018547   -0.00025017    0.00032058
     atom  200 type  1   force =     0.00121396   -0.00037851    0.00077435
     atom  201 type  1   force =    -0.02609823    0.00789719    0.02418212
     atom  202 type  1   force =     0.00019973    0.00034520   -0.00002583
     atom  203 type  1   force =    -0.00024718   -0.00035511   -0.00011201
     atom  204 type  1   force =    -0.00005055    0.00028456   -0.00027616
     atom  205 type  1   force =    -0.00036124   -0.00002317    0.00036690
     atom  206 type  1   force =    -0.00007871   -0.00094433    0.00030791
     atom  207 type  1   force =    -0.00023612    0.00018501    0.00018257
     atom  208 type  1   force =    -0.00039029   -0.00023874    0.00003524
     atom  209 type  1   force =    -0.00022778    0.00018697    0.00019096
     atom  210 type  1   force =     0.00008012    0.00035740   -0.00016686
     atom  211 type  1   force =    -0.00046646   -0.00058465   -0.00010600
     atom  212 type  1   force =     0.00001095   -0.00014147    0.00043636
     atom  213 type  1   force =     0.00022744   -0.00041614    0.00058792
     atom  214 type  1   force =    -0.00017427   -0.00016954    0.00021540
     atom  215 type  2   force =     0.00471607    0.01223281   -0.00768411

     Total force =     0.074503     Total SCF correction =     0.000121


     Computing stress (Cartesian axis) and pressure

          total   stress  (Ry/bohr**3)                   (kbar)     P=       27.62
   0.00018679   0.00000106  -0.00000065           27.48        0.16       -0.10
   0.00000106   0.00018907  -0.00000171            0.16       27.81       -0.25
  -0.00000065  -0.00000171   0.00018746           -0.10       -0.25       27.58


     Writing all to output data dir ./tmp/diamond_pd.save/ :
     XML data file, charge density
     init_run     :     11.08s CPU     11.58s WALL (       1 calls)
     electrons    :    754.89s CPU    768.43s WALL (       1 calls)
     forces       :      8.13s CPU      8.30s WALL (       1 calls)
     stress       :     27.46s CPU     27.71s WALL (       1 calls)

     Called by init_run:
     wfcinit      :      9.75s CPU     10.00s WALL (       1 calls)
     potinit      :      0.96s CPU      1.14s WALL (       1 calls)
     hinit0       :      0.17s CPU      0.17s WALL (       1 calls)

     Called by electrons:
     c_bands      :    689.12s CPU    700.66s WALL (      17 calls)
     sum_band     :     47.01s CPU     48.15s WALL (      17 calls)
     v_of_rho     :      0.82s CPU      0.84s WALL (      18 calls)
     newd         :      2.40s CPU      2.88s WALL (      18 calls)
     PAW_pot      :     16.03s CPU     16.30s WALL (      18 calls)
     mix_rho      :      0.49s CPU      0.50s WALL (      17 calls)

     Called by c_bands:
     init_us_2    :      5.24s CPU      5.34s WALL (      74 calls)
     cegterg      :    682.88s CPU    694.02s WALL (      34 calls)

     Called by *egterg:
     cdiaghg      :    116.87s CPU    120.77s WALL (     183 calls)
     h_psi        :    202.45s CPU    205.62s WALL (     185 calls)
     s_psi        :     75.41s CPU     75.89s WALL (     185 calls)
     g_psi        :      0.85s CPU      0.86s WALL (     149 calls)

     Called by h_psi:
     h_psi:calbec :     74.39s CPU     74.86s WALL (     185 calls)
     vloc_psi     :     50.74s CPU     51.74s WALL (     185 calls)
     add_vuspsi   :     75.67s CPU     76.57s WALL (     185 calls)

     General routines
     calbec       :    133.71s CPU    134.56s WALL (     253 calls)
     fft          :      0.33s CPU      0.34s WALL (     420 calls)
     ffts         :      0.03s CPU      0.03s WALL (      34 calls)
     fftw         :     53.10s CPU     54.13s WALL (  173612 calls)
 
     Parallel routines
 
     PWSCF        :  13m21.70s CPU  13m36.42s WALL

 
   This run was terminated on:   0:57:35  23Aug2026            

=------------------------------------------------------------------------------=
   JOB DONE.
=------------------------------------------------------------------------------=
