B108 N108                               
   1.00000000000000     
    10.7937974929999996    0.0000000000000000    0.0000000000000000
     0.0000000000000000   10.7937974929999996    0.0000000000000000
     0.0000000000000000    0.0000000000000000   10.7937974929999996
   B    N    Si
   106   108     1
Direct
 -0.0000836659898723  0.0001026289832299 -0.0000037851624885
 -0.0001332938382825  0.0001875021519611  0.3331638670637530
 -0.0000296179054389  0.0002503318153439  0.6667920039482710
 -0.0001512858724802  0.3331642664731472  0.0000620277310625
 -0.0000076396863141  0.3331173499431146  0.3330263164552890
 -0.0002669775175732  0.3330504953339419  0.6668236603042270
 -0.0000892980473049  0.6667282584483862  0.0001152511222713
 -0.0000662722815240  0.6667838899826112  0.3330535169304873
 -0.0000889223173846  0.6667357782522871  0.6667713803236215
  0.3329462780180075  0.0002098598190232 -0.0000154307121579
  0.3327345198795086  0.0007416476183337  0.3329597974462489
  0.3327220143765283  0.0005922309683680  0.6670580455979973
  0.3327523564945645  0.3331348932663039  0.0002361164337878
  0.3326016258734960  0.3328527634158353  0.3329332832180537
  0.3317587549182415  0.3325818408744028  0.6658450572312018
  0.3328338091629655  0.6667821592550300 -0.0000334756500908
  0.3300293362587622  0.6663897175372128  0.3305138693414388
  0.3300951440281956  0.6649256144024013  0.6701298281450984
  0.6667077521047599  0.0003616593667322  0.0000802108800314
  0.6668740130671036  0.0005256971614660  0.3328514372173212
  0.6668980345605473  0.0009715069159198  0.6670305341042073
  0.6666690820970188  0.3331440645834933 -0.0001228113598507
  0.6671628705553462  0.3322691903151045  0.3322671655570937
  0.6669147879590390  0.3328769060175024  0.6680021306574185
  0.6667676544667779  0.6668860915239161  0.0003007272495609
  0.6697750130683701  0.6669438753802157  0.3299428835934818
  0.6711337615368327  0.6679855726846832  0.6694224820011212
  0.1663986788741869  0.1666239687724022  0.0000426982275990
  0.1663264199561375  0.1666803853227265  0.3331344735833919
  0.1658545604574272  0.1662659672318905  0.6665994324854273
  0.1658545604574272  0.5000672345145739  0.0004006997681108
  0.1658030754510461  0.4995719514830454  0.3328360126213097
  0.1653346408771345  0.4994792785576371  0.6671873884423639
  0.1663264199561375  0.8335321924166056 -0.0000137183227254
  0.1657392304274243  0.8337137498256232  0.3329529161743744
  0.1658030754510461  0.8338306533786879  0.6670947155169555
  0.5000050223434173  0.1666393875809308  0.0000272794190704
  0.4994666048154077  0.1663431574703647  0.3326717469316614
  0.4996695859378743  0.1669259032943231  0.6667241345190856
  0.4996695859378743  0.4999425324809155 -0.0002592362943219
  0.4996120719543432  0.4964799674162612  0.3300457718821301
  0.4994666048154077  0.8339949190683363  0.0003235095296365
  0.5000209226022575  0.8362227852736451  0.3304438807263523
  0.4996120719543432  0.8366208941178679  0.6701866995837400
  0.8333691439636665  0.1666691131398983 -0.0000024461398970
  0.8334679391455596  0.1665661913029635  0.3330843752639373
  0.8336959481564038  0.1664304764106750  0.6671020565299970
  0.8336959481564038  0.4995646104700042  0.0002361905893262
  0.8346782775494775  0.4998796455780110  0.3322245292073372
  0.8337786169476884  0.4996903488994021  0.6669763181005991
  0.8334679391455596  0.8335822907360603  0.0001004756970378
  0.8337903384332913  0.8338165752956853  0.3328500907043122
  0.8346782775494775  0.8344421367926604  0.6667870214219903
  0.1663479734655250  0.0001824703597435  0.1664841966402578
  0.1657567025619684  0.0007441388357226  0.4999319314640054
  0.1663534138653703  0.0001217762527101  0.8334870851357905
  0.1663534138653703  0.3331795808642070  0.1665448907472912
  0.1652460014725237  0.3323751110635954  0.4998938943916993
  0.1658111514375139  0.3329607860331058  0.8337058799668916
  0.1657567025619684  0.6667347355359959  0.1659225281642786
  0.1658410923766799  0.6667360955654307  0.4999305714345703
  0.1652460014725237  0.6667727726083017  0.8342915549364024
  0.4997276732345898  0.0007853245423466  0.1658813424576546
  0.4997920668106648  0.0006566289475209  0.5000100971491689
  0.4997754734521100  0.0009665638097212  0.8341757657958503
  0.4997754734521100  0.3324909002041472  0.1657001031902800
  0.4987015022485420  0.3327305837778285  0.4994719989062462
  0.5005144024104642  0.3333100504278904  0.8333566155721073
  0.4997920668106648  0.6666565698508324  0.1660100380524803
  0.4987015022485420  0.6671946680937549  0.8339360822221691
  0.8333595229533280  0.0001666670255722  0.1664999999744290
  0.8340572664719474  0.0008289164746686  0.4999032094595270
  0.8334873945919414  0.0003540558468547  0.8335739285253614
  0.8334873945919414  0.3330927374746362  0.1663126111531465
  0.8345856449263462  0.3323215109571506  0.4996255650827083
  0.8333957508482710  0.3331009484925949  0.8335657175074026
  0.8340572664719474  0.6667634575404741  0.1658377505253327
  0.8341264010679563  0.6669163958937441  0.4997502711062572
  0.8345856449263462  0.6670411019172930  0.8343451550428470
 -0.0000836659898723  0.1666704521624897  0.1665640380167714
 -0.0000892980473049  0.1665514158777300  0.4999384085516150
 -0.0001512858724802  0.1666046392689388  0.8335023995268505
 -0.0000296179054389  0.4998746630517304  0.1664163351846573
 -0.0000889223173846  0.4998952866763798  0.4999308887477140
 -0.0002669775175732  0.4998430066957741  0.8336161706660554
 -0.0001332938382825  0.8335027989362445  0.1664791648480402
 -0.0000662722815240  0.8336131490695107  0.4998827770173900
 -0.0000076396863141  0.8336403495447086  0.8335493160568830
  0.3329462780180075  0.1666820977121591  0.1664568071809781
  0.3328338091629655  0.1667001426500920  0.4998845077449712
  0.3327523564945645  0.1664305505662133  0.8335317727336938
  0.3327220143765283  0.4996086214020041  0.1660744360316332
  0.3300951440281956  0.4965368388549027  0.5017410525975999
  0.3317587549182415  0.5008216097687994  0.8340848251255949
  0.3327345198795086  0.8337068685537486  0.1659250193816675
  0.3300293362587622  0.8361527966585586  0.5002769494627884
  0.3326016258734960  0.8337333827819438  0.8338139025841622
  0.6667077521047599  0.1665864561199698  0.1663050076332690
  0.6667676544667779  0.1663659397504403  0.4997805754760850
  0.6666690820970188  0.1667894783598519  0.8335226014165042
  0.6668980345605473  0.4996361328957937  0.1656951600840814
  0.6711337615368327  0.4972441849988801  0.4986810943153179
  0.6669147879590390  0.4986645363425825  0.8337897599824950
  0.6668740130671036  0.8338152287826764  0.1661409698385352
  0.6697750130683701  0.8367237824065158  0.4997227916197857
  0.6671628705553462  0.8343995004429040  0.8343974756848932
  0.0834853913289987  0.0833690829780832  0.0832975830219144
  0.0832856094564434  0.0835503770538632  0.4165427544860142
  0.0833136884324405  0.0832690505760877  0.7501448265655316
  0.0833136884324405  0.4165218404344694  0.0833976154239098
  0.0830818499882507  0.4164294838254435  0.4164281858001641
  0.0829407600009410  0.4163441630401195  0.7503225039598819
  0.0832856094564434  0.7501239125139869  0.0831162889461343
  0.0832773007670667  0.7502058904960129  0.4164607765039881
  0.0830818499882507  0.7502384811998374  0.7502371831745577
  0.4167391919994361  0.0836147352743365  0.0830519307256611
  0.4167112740621032  0.0834007463524291  0.4165312191201567
  0.4167040532121175  0.0836729944294808  0.7501431387624263
  0.4167040532121175  0.4165235282375748  0.0829936715705168
  0.4164616164264814  0.4162369108048611  0.4165361786072265
  0.4069555254011405  0.4084284185597130  0.7582382484402883
  0.4167112740621032  0.7501354478798443  0.0832659196475685
  0.4114346119518784  0.7555471034774391  0.4111195635225622
  0.4164616164264814  0.7501304883927746  0.7504297561951401
  0.7503123493802407  0.0834067591871889  0.0832599068128087
  0.7504283565772206  0.0833928599441496  0.4164145330912081
  0.7503000833432936  0.0836410656991029  0.7501946504870717
  0.7503000833432936  0.4164720165129295  0.0830256003008947
  0.7528890145355385  0.4149425724354573  0.4150867443904084
  0.7501191898021309  0.4167138611863748  0.7499528058136264
  0.7504283565772206  0.7502521339087931  0.0832738060558480
  0.7504602266793049  0.7502106836160127  0.4164559833839884
  0.7528890145355385  0.7515799226095931  0.7517240945645441
  0.2499890871511267  0.2498828647669847  0.0833637356402235
  0.2498420813282329  0.2497877104265323  0.4165000704147613
  0.2489723444963608  0.2489891283317616  0.7503725044592314
  0.2499228169012849  0.5833244398076364  0.0831881781577598
  0.2490232515488994  0.5831527008937567  0.4161085926042024
  0.2476335862819823  0.5832504532288573  0.7520075163476962
  0.2499979878082797  0.9168832224981337  0.0831583123338108
  0.2489244176063750  0.9179120822154575  0.4164598562368020
  0.2499571647076971  0.9168908308115574  0.7501333057365749
  0.5835524455393321  0.2497621447474223  0.0829200513629248
  0.5839407087559799  0.2491172323735196  0.4156151965747263
  0.5833852132309739  0.2503205661255122  0.7498821258125379
  0.5835011718697817  0.5833053792057759  0.0830640490431412
  0.5900049883481463  0.5767599496100783  0.4103326061114564
  0.5928355367256605  0.5929945126390183  0.7590664778202927
  0.5836373257204439  0.9170309919783051  0.0832683049324381
  0.5836203928429999  0.9170752645301941  0.4165498224353146
  0.5836573801008504  0.9181659159065669  0.7514543966683975
  0.9168898302689491  0.2499256839298950  0.0832344958922487
  0.9173223524788109  0.2495345502989545  0.4163890301319626
  0.9167953879478925  0.2499312371355376  0.7501507915399296
  0.9171312318021974  0.5833941480727785  0.0831347103260381
  0.9170015908455452  0.5833974702243275  0.4164352318823365
  0.9169071456553188  0.5833107145964979  0.7501773108349855
  0.9169292543628843  0.9168151076763424  0.0833227968383065
  0.9169713743791675  0.9168789255102674  0.4164995536533493
  0.9172436807026497  0.9172073480866128  0.7502344603377953
  0.2499979878082797  0.0835083536661868  0.2497834445018675
  0.2499228169012849  0.0834784878422378  0.5833422261923612
  0.2499890871511267  0.0833029303597741  0.9167838022330165
  0.2499571647076971  0.4165333612634263  0.2497758361884437
  0.2476335862819823  0.4146591506523050  0.5834162127711403
  0.2489723444963608  0.4162941625407698  0.9176775386682394
  0.2489244176063750  0.7502068107631993  0.2487545847845438
  0.2490232515488994  0.7505580743957988  0.5835139651062409
  0.2498420813282329  0.7501665965852400  0.9168789565734690
  0.5836373257204439  0.0833983610675595  0.2496356750216961
  0.5835011718697817  0.0836026169568564  0.5833612867942217
  0.5835524455393321  0.0837466146370728  0.9169045222525788
  0.5836573801008504  0.4152122703316038  0.2485007510934343
  0.5928355367256605  0.4076001891797085  0.5736721533609793
  0.5833852132309739  0.4167845411874631  0.9163461008744893
  0.5836203928429999  0.7501168445646864  0.2495914024698072
  0.5900049883481463  0.7563340608885450  0.5899067163899193
  0.5839407087559799  0.7510514704252749  0.9175494346264814
  0.9169292543628843  0.0833438691616911  0.2498515593236587
  0.9171312318021974  0.0835319556739595  0.5832725179272191
  0.9168898302689491  0.0834321701077488  0.9167409830701061
  0.9172436807026497  0.4164322066622060  0.2494593189133887
  0.9169071456553188  0.4164893561650158  0.5833559514034997
  0.9167953879478925  0.4165158754600716  0.9167354298644639
  0.9169713743791675  0.7501671133466519  0.2497877414897339
  0.9170015908455452  0.7502314351176649  0.5832691957756700
  0.9173223524788109  0.7502776368680384  0.9171321167010469
  0.0835143241911325  0.2499346605065703  0.2498444178822758
  0.0828778751907718  0.2494933551485106  0.5833150715047681
  0.0832681643638951  0.2498144666548149  0.9168522003451863
  0.0832075872106112  0.5833418329471400  0.2496570087185222
  0.0832447286249515  0.5832731381506913  0.5833935278493063
  0.0828778751907718  0.5833515944952294  0.9171733118514905
  0.0833237100857219  0.9168899614235192  0.2497767055764819
  0.0832075872106112  0.9170096582814790  0.5833248330528575
  0.0835143241911325  0.9168222491177255  0.9167320064934311
  0.4166592401911814  0.2497891577501347  0.2496749136721177
  0.4166550341837233  0.2501858267938257  0.5832987704171843
  0.4164206669372136  0.2495625571984752  0.9171041098015259
  0.4166934693701543  0.5830980264292505  0.2496366027689151
  0.4048604732295140  0.5778420330332417  0.5888246329667559
  0.4166550341837233  0.5833678955828133  0.9164808402061756
  0.4166609819932017  0.9178985279197860  0.2487681390802154
  0.4166934693701543  0.9170300642310861  0.5835686395707471
  0.4166592401911814  0.9169917533278835  0.9168775092498666
  0.7505173356550989  0.2496259953509772  0.2494988697616084
  0.7510621111046024  0.2492243720669462  0.5828967151093203
  0.7501999069186716  0.2500385273766702  0.9166281396233313
  0.7515067493042541  0.5832512687713337  0.2484901823141233
  0.7506769785141073  0.5833233192940098  0.5833433467059878
  0.7510621111046024  0.5837699508906773  0.9174422949330551
  0.7502848527179417  0.9168105967468425  0.2498560702531587
  0.7515067493042541  0.9181764846858779  0.5834153972286639
  0.7505173356550989  0.9171677972383931  0.9170406716490241
  0.4992768137638058  0.6627327384125475  0.5039339285874537
 
  0.00000000E+00  0.00000000E+00  0.00000000E+00
  0.00000000E+00  0.00000000E+00  0.00000000E+00
  0.00000000E+00  0.00000000E+00  0.00000000E+00
  0.00000000E+00  0.00000000E+00  0.00000000E+00
  0.00000000E+00  0.00000000E+00  0.00000000E+00
  0.00000000E+00  0.00000000E+00  0.00000000E+00
  0.00000000E+00  0.00000000E+00  0.00000000E+00
  0.00000000E+00  0.00000000E+00  0.00000000E+00
  0.00000000E+00  0.00000000E+00  0.00000000E+00
  0.00000000E+00  0.00000000E+00  0.00000000E+00
  0.00000000E+00  0.00000000E+00  0.00000000E+00
  0.00000000E+00  0.00000000E+00  0.00000000E+00
  0.00000000E+00  0.00000000E+00  0.00000000E+00
  0.00000000E+00  0.00000000E+00  0.00000000E+00
  0.00000000E+00  0.00000000E+00  0.00000000E+00
  0.00000000E+00  0.00000000E+00  0.00000000E+00
  0.00000000E+00  0.00000000E+00  0.00000000E+00
  0.00000000E+00  0.00000000E+00  0.00000000E+00
  0.00000000E+00  0.00000000E+00  0.00000000E+00
  0.00000000E+00  0.00000000E+00  0.00000000E+00
  0.00000000E+00  0.00000000E+00  0.00000000E+00
  0.00000000E+00  0.00000000E+00  0.00000000E+00
  0.00000000E+00  0.00000000E+00  0.00000000E+00
  0.00000000E+00  0.00000000E+00  0.00000000E+00
  0.00000000E+00  0.00000000E+00  0.00000000E+00
  0.00000000E+00  0.00000000E+00  0.00000000E+00
  0.00000000E+00  0.00000000E+00  0.00000000E+00
  0.00000000E+00  0.00000000E+00  0.00000000E+00
  0.00000000E+00  0.00000000E+00  0.00000000E+00
  0.00000000E+00  0.00000000E+00  0.00000000E+00
  0.00000000E+00  0.00000000E+00  0.00000000E+00
  0.00000000E+00  0.00000000E+00  0.00000000E+00
  0.00000000E+00  0.00000000E+00  0.00000000E+00
  0.00000000E+00  0.00000000E+00  0.00000000E+00
  0.00000000E+00  0.00000000E+00  0.00000000E+00
  0.00000000E+00  0.00000000E+00  0.00000000E+00
  0.00000000E+00  0.00000000E+00  0.00000000E+00
  0.00000000E+00  0.00000000E+00  0.00000000E+00
  0.00000000E+00  0.00000000E+00  0.00000000E+00
  0.00000000E+00  0.00000000E+00  0.00000000E+00
  0.00000000E+00  0.00000000E+00  0.00000000E+00
  0.00000000E+00  0.00000000E+00  0.00000000E+00
  0.00000000E+00  0.00000000E+00  0.00000000E+00
  0.00000000E+00  0.00000000E+00  0.00000000E+00
  0.00000000E+00  0.00000000E+00  0.00000000E+00
  0.00000000E+00  0.00000000E+00  0.00000000E+00
  0.00000000E+00  0.00000000E+00  0.00000000E+00
  0.00000000E+00  0.00000000E+00  0.00000000E+00
  0.00000000E+00  0.00000000E+00  0.00000000E+00
  0.00000000E+00  0.00000000E+00  0.00000000E+00
  0.00000000E+00  0.00000000E+00  0.00000000E+00
  0.00000000E+00  0.00000000E+00  0.00000000E+00
  0.00000000E+00  0.00000000E+00  0.00000000E+00
  0.00000000E+00  0.00000000E+00  0.00000000E+00
  0.00000000E+00  0.00000000E+00  0.00000000E+00
  0.00000000E+00  0.00000000E+00  0.00000000E+00
  0.00000000E+00  0.00000000E+00  0.00000000E+00
  0.00000000E+00  0.00000000E+00  0.00000000E+00
  0.00000000E+00  0.00000000E+00  0.00000000E+00
  0.00000000E+00  0.00000000E+00  0.00000000E+00
  0.00000000E+00  0.00000000E+00  0.00000000E+00
  0.00000000E+00  0.00000000E+00  0.00000000E+00
  0.00000000E+00  0.00000000E+00  0.00000000E+00
  0.00000000E+00  0.00000000E+00  0.00000000E+00
  0.00000000E+00  0.00000000E+00  0.00000000E+00
  0.00000000E+00  0.00000000E+00  0.00000000E+00
  0.00000000E+00  0.00000000E+00  0.00000000E+00
  0.00000000E+00  0.00000000E+00  0.00000000E+00
  0.00000000E+00  0.00000000E+00  0.00000000E+00
  0.00000000E+00  0.00000000E+00  0.00000000E+00
  0.00000000E+00  0.00000000E+00  0.00000000E+00
  0.00000000E+00  0.00000000E+00  0.00000000E+00
  0.00000000E+00  0.00000000E+00  0.00000000E+00
  0.00000000E+00  0.00000000E+00  0.00000000E+00
  0.00000000E+00  0.00000000E+00  0.00000000E+00
  0.00000000E+00  0.00000000E+00  0.00000000E+00
  0.00000000E+00  0.00000000E+00  0.00000000E+00
  0.00000000E+00  0.00000000E+00  0.00000000E+00
  0.00000000E+00  0.00000000E+00  0.00000000E+00
  0.00000000E+00  0.00000000E+00  0.00000000E+00
  0.00000000E+00  0.00000000E+00  0.00000000E+00
  0.00000000E+00  0.00000000E+00  0.00000000E+00
  0.00000000E+00  0.00000000E+00  0.00000000E+00
  0.00000000E+00  0.00000000E+00  0.00000000E+00
  0.00000000E+00  0.00000000E+00  0.00000000E+00
  0.00000000E+00  0.00000000E+00  0.00000000E+00
  0.00000000E+00  0.00000000E+00  0.00000000E+00
  0.00000000E+00  0.00000000E+00  0.00000000E+00
  0.00000000E+00  0.00000000E+00  0.00000000E+00
  0.00000000E+00  0.00000000E+00  0.00000000E+00
  0.00000000E+00  0.00000000E+00  0.00000000E+00
  0.00000000E+00  0.00000000E+00  0.00000000E+00
  0.00000000E+00  0.00000000E+00  0.00000000E+00
  0.00000000E+00  0.00000000E+00  0.00000000E+00
  0.00000000E+00  0.00000000E+00  0.00000000E+00
  0.00000000E+00  0.00000000E+00  0.00000000E+00
  0.00000000E+00  0.00000000E+00  0.00000000E+00
  0.00000000E+00  0.00000000E+00  0.00000000E+00
  0.00000000E+00  0.00000000E+00  0.00000000E+00
  0.00000000E+00  0.00000000E+00  0.00000000E+00
  0.00000000E+00  0.00000000E+00  0.00000000E+00
  0.00000000E+00  0.00000000E+00  0.00000000E+00
  0.00000000E+00  0.00000000E+00  0.00000000E+00
  0.00000000E+00  0.00000000E+00  0.00000000E+00
  0.00000000E+00  0.00000000E+00  0.00000000E+00
  0.00000000E+00  0.00000000E+00  0.00000000E+00
  0.00000000E+00  0.00000000E+00  0.00000000E+00
  0.00000000E+00  0.00000000E+00  0.00000000E+00
  0.00000000E+00  0.00000000E+00  0.00000000E+00
  0.00000000E+00  0.00000000E+00  0.00000000E+00
  0.00000000E+00  0.00000000E+00  0.00000000E+00
  0.00000000E+00  0.00000000E+00  0.00000000E+00
  0.00000000E+00  0.00000000E+00  0.00000000E+00
  0.00000000E+00  0.00000000E+00  0.00000000E+00
  0.00000000E+00  0.00000000E+00  0.00000000E+00
  0.00000000E+00  0.00000000E+00  0.00000000E+00
  0.00000000E+00  0.00000000E+00  0.00000000E+00
  0.00000000E+00  0.00000000E+00  0.00000000E+00
  0.00000000E+00  0.00000000E+00  0.00000000E+00
  0.00000000E+00  0.00000000E+00  0.00000000E+00
  0.00000000E+00  0.00000000E+00  0.00000000E+00
  0.00000000E+00  0.00000000E+00  0.00000000E+00
  0.00000000E+00  0.00000000E+00  0.00000000E+00
  0.00000000E+00  0.00000000E+00  0.00000000E+00
  0.00000000E+00  0.00000000E+00  0.00000000E+00
  0.00000000E+00  0.00000000E+00  0.00000000E+00
  0.00000000E+00  0.00000000E+00  0.00000000E+00
  0.00000000E+00  0.00000000E+00  0.00000000E+00
  0.00000000E+00  0.00000000E+00  0.00000000E+00
  0.00000000E+00  0.00000000E+00  0.00000000E+00
  0.00000000E+00  0.00000000E+00  0.00000000E+00
  0.00000000E+00  0.00000000E+00  0.00000000E+00
  0.00000000E+00  0.00000000E+00  0.00000000E+00
  0.00000000E+00  0.00000000E+00  0.00000000E+00
  0.00000000E+00  0.00000000E+00  0.00000000E+00
  0.00000000E+00  0.00000000E+00  0.00000000E+00
  0.00000000E+00  0.00000000E+00  0.00000000E+00
  0.00000000E+00  0.00000000E+00  0.00000000E+00
  0.00000000E+00  0.00000000E+00  0.00000000E+00
  0.00000000E+00  0.00000000E+00  0.00000000E+00
  0.00000000E+00  0.00000000E+00  0.00000000E+00
  0.00000000E+00  0.00000000E+00  0.00000000E+00
  0.00000000E+00  0.00000000E+00  0.00000000E+00
  0.00000000E+00  0.00000000E+00  0.00000000E+00
  0.00000000E+00  0.00000000E+00  0.00000000E+00
  0.00000000E+00  0.00000000E+00  0.00000000E+00
  0.00000000E+00  0.00000000E+00  0.00000000E+00
  0.00000000E+00  0.00000000E+00  0.00000000E+00
  0.00000000E+00  0.00000000E+00  0.00000000E+00
  0.00000000E+00  0.00000000E+00  0.00000000E+00
  0.00000000E+00  0.00000000E+00  0.00000000E+00
  0.00000000E+00  0.00000000E+00  0.00000000E+00
  0.00000000E+00  0.00000000E+00  0.00000000E+00
  0.00000000E+00  0.00000000E+00  0.00000000E+00
  0.00000000E+00  0.00000000E+00  0.00000000E+00
  0.00000000E+00  0.00000000E+00  0.00000000E+00
  0.00000000E+00  0.00000000E+00  0.00000000E+00
  0.00000000E+00  0.00000000E+00  0.00000000E+00
  0.00000000E+00  0.00000000E+00  0.00000000E+00
  0.00000000E+00  0.00000000E+00  0.00000000E+00
  0.00000000E+00  0.00000000E+00  0.00000000E+00
  0.00000000E+00  0.00000000E+00  0.00000000E+00
  0.00000000E+00  0.00000000E+00  0.00000000E+00
  0.00000000E+00  0.00000000E+00  0.00000000E+00
  0.00000000E+00  0.00000000E+00  0.00000000E+00
  0.00000000E+00  0.00000000E+00  0.00000000E+00
  0.00000000E+00  0.00000000E+00  0.00000000E+00
  0.00000000E+00  0.00000000E+00  0.00000000E+00
  0.00000000E+00  0.00000000E+00  0.00000000E+00
  0.00000000E+00  0.00000000E+00  0.00000000E+00
  0.00000000E+00  0.00000000E+00  0.00000000E+00
  0.00000000E+00  0.00000000E+00  0.00000000E+00
  0.00000000E+00  0.00000000E+00  0.00000000E+00
  0.00000000E+00  0.00000000E+00  0.00000000E+00
  0.00000000E+00  0.00000000E+00  0.00000000E+00
  0.00000000E+00  0.00000000E+00  0.00000000E+00
  0.00000000E+00  0.00000000E+00  0.00000000E+00
  0.00000000E+00  0.00000000E+00  0.00000000E+00
  0.00000000E+00  0.00000000E+00  0.00000000E+00
  0.00000000E+00  0.00000000E+00  0.00000000E+00
  0.00000000E+00  0.00000000E+00  0.00000000E+00
  0.00000000E+00  0.00000000E+00  0.00000000E+00
  0.00000000E+00  0.00000000E+00  0.00000000E+00
  0.00000000E+00  0.00000000E+00  0.00000000E+00
  0.00000000E+00  0.00000000E+00  0.00000000E+00
  0.00000000E+00  0.00000000E+00  0.00000000E+00
  0.00000000E+00  0.00000000E+00  0.00000000E+00
  0.00000000E+00  0.00000000E+00  0.00000000E+00
  0.00000000E+00  0.00000000E+00  0.00000000E+00
  0.00000000E+00  0.00000000E+00  0.00000000E+00
  0.00000000E+00  0.00000000E+00  0.00000000E+00
  0.00000000E+00  0.00000000E+00  0.00000000E+00
  0.00000000E+00  0.00000000E+00  0.00000000E+00
  0.00000000E+00  0.00000000E+00  0.00000000E+00
  0.00000000E+00  0.00000000E+00  0.00000000E+00
  0.00000000E+00  0.00000000E+00  0.00000000E+00
  0.00000000E+00  0.00000000E+00  0.00000000E+00
  0.00000000E+00  0.00000000E+00  0.00000000E+00
  0.00000000E+00  0.00000000E+00  0.00000000E+00
  0.00000000E+00  0.00000000E+00  0.00000000E+00
  0.00000000E+00  0.00000000E+00  0.00000000E+00
  0.00000000E+00  0.00000000E+00  0.00000000E+00
  0.00000000E+00  0.00000000E+00  0.00000000E+00
  0.00000000E+00  0.00000000E+00  0.00000000E+00
  0.00000000E+00  0.00000000E+00  0.00000000E+00
  0.00000000E+00  0.00000000E+00  0.00000000E+00
  0.00000000E+00  0.00000000E+00  0.00000000E+00
  0.00000000E+00  0.00000000E+00  0.00000000E+00
  0.00000000E+00  0.00000000E+00  0.00000000E+00
  0.00000000E+00  0.00000000E+00  0.00000000E+00
  0.00000000E+00  0.00000000E+00  0.00000000E+00
  0.00000000E+00  0.00000000E+00  0.00000000E+00
  0.00000000E+00  0.00000000E+00  0.00000000E+00
  0.00000000E+00  0.00000000E+00  0.00000000E+00
  0.00000000E+00  0.00000000E+00  0.00000000E+00
