B108 N108                               
   1.00000000000000     
    10.7937974929999996    0.0000000000000000    0.0000000000000000
     0.0000000000000000   10.7937974929999996    0.0000000000000000
     0.0000000000000000    0.0000000000000000   10.7937974929999996
   B    N    Si
   106   108     1
Direct
  0.0000362684265704  0.0000837029421266 -0.0000296470226760
 -0.0000393140207161  0.0002074899647058  0.3331529344811737
  0.0000388054174633  0.0003079657883170  0.6666916198102463
  0.0000072362955181  0.3332673925651990  0.0000070153468608
  0.0001237287209306  0.3331627402363919  0.3331153426516020
 -0.0000592209020966  0.3330826575151049  0.6668197570863622
  0.0000266477251120  0.6667107010443865  0.0000719731812378
 -0.0001144600802335  0.6668142921782687  0.3329560788227927
  0.0000490659216843  0.6667038445250179  0.6667661658263900
  0.3332785309386635  0.0000959961748011 -0.0001096327707977
  0.3329932244080711  0.0008517030386598  0.3329478658329367
  0.3330257909233745  0.0004991718940773  0.6669897920990110
  0.3331442494235056  0.3331563940097642  0.0001123024198156
  0.3332914786808925  0.3333811018522174  0.3334490406602191
  0.3328074248192662  0.3333864540107661  0.6657394639295368
  0.3333891262313786  0.6666111586793007 -0.0004094219834103
  0.3299406293406868  0.6665793206900954  0.3306509234609342
  0.3296480773611178  0.6649490116138006  0.6675804870506445
  0.6668410724255186  0.0002224918556058  0.0000438317550979
  0.6669964549571229  0.0004323158493119  0.3330171860949598
  0.6669663625985172  0.0008158268422547  0.6670298406089153
  0.6667469305925241  0.3333263528693267 -0.0002467298449951
  0.6673145817239107  0.3324098375956460  0.3329262932739557
  0.6670383081020942  0.3336834300626950  0.6666879576816445
  0.6670908557164333  0.6667159303132045 -0.0000619037903108
  0.6693587309303791  0.6664672938320395  0.3307526997251659
  0.6702778874095084  0.6657213440198037  0.6706813316453071
  0.1666397837355119  0.1666577992556026  0.0000088677443986
  0.1666224034731936  0.1668274331752553  0.3332161562490621
  0.1662791544525963  0.1664731199803676  0.6666231853336428
  0.1662791544525963  0.5000434816663584  0.0001935470196337
  0.1656302930780867  0.5000746964752976  0.3325118341335661
  0.1658349308148581  0.4995651104890131  0.6671015565109883
  0.1666224034731936  0.8334505097509357 -0.0001607661752541
  0.1658123209528585  0.8338216445619685  0.3328450214380291
  0.1656302930780867  0.8341548318664315  0.6665919705247036
  0.5001261789445227  0.1665940063318601  0.0000726606681412
  0.5000520563701403  0.1667564345745784  0.3332070824324728
  0.5000601976506074  0.1672763611504733  0.6668307653724695
  0.5000601976506074  0.4998359016275315 -0.0006096941504721
  0.4998321057174676  0.4966477925858017  0.3308557799263948
  0.5000520563701403  0.8334595835675247 -0.0000897675745771
  0.4997858910229296  0.8360045862962311  0.3306620797037667
  0.4998321057174676  0.8358108860736028  0.6700188744141996
  0.8334016275755934  0.1667071783643770 -0.0000405113643758
  0.8335722051332178  0.1665595543137428  0.3331252010216195
  0.8338685893482303  0.1664181132967430  0.6667576432444808
  0.8338685893482303  0.4999090237555203  0.0002485537032582
  0.8345109788865936  0.4995905740966555  0.3326590013862753
  0.8338973706380471  0.4995154471292632  0.6671512198707380
  0.8335722051332178  0.8335414649783782  0.0001071126862585
  0.8337125208414624  0.8336617552549669  0.3330049107450307
  0.8345109788865936  0.8340076646137223  0.6670760929033456
  0.1665661129253277  0.0002153999217771  0.1664512670782241
  0.1659118773418007  0.0008785016931995  0.4998932692765889
  0.1666604475753790  0.0000543607235262  0.8333753911033637
  0.1666604475753790  0.3332912748966338  0.1666123062764751
  0.1657103905679274  0.3327275560052877  0.5000622423309473
  0.1662398868495128  0.3331078759967508  0.8335587900032465
  0.1659118773418007  0.6667733977234122  0.1657881653068017
  0.1657115701352352  0.6671399057096344  0.4995267612903667
  0.1657103905679274  0.6666044246690539  0.8339391099947101
  0.5000041757520032  0.0007229482881932  0.1659437187118080
  0.4999781542101398  0.0005785064395231  0.5000992475160558
  0.5000460875540214  0.0007646243427863  0.8340534274163566
  0.5000460875540214  0.3326132385836412  0.1659020426572149
  0.5003308579583186  0.3348062029957541  0.5015725399769945
  0.5008645362833480  0.3334429974781577  0.8332236685218397
  0.4999781542101398  0.6665674194839454  0.1660881605604781
  0.5003308579583186  0.6650941270230067  0.8318604630042435
  0.8334609999715572  0.0001350085277974  0.1665316584722039
  0.8340452721142186  0.0007135509172651  0.4999551231825718
  0.8335352328199251  0.0002632678937080  0.8334956566035054
  0.8335352328199251  0.3331710093964922  0.1664033991062933
  0.8345156393253131  0.3322035499832197  0.4998225351671979
  0.8334640222872820  0.3333172282342646  0.8333494377657329
  0.8340452721142186  0.6667115438174294  0.1659531160827361
  0.8340046886306544  0.6665204092373587  0.5001462577626425
  0.8345156393253131  0.6668441318328032  0.8344631160167777
  0.0000362684265704  0.1666963140226772  0.1665829640578745
  0.0000266477251120  0.1665946938187634  0.4999559659556146
  0.0000072362955181  0.1666596516531404  0.8333992734347985
  0.0000388054174633  0.4999750471897548  0.1663587012116841
  0.0000490659216843  0.4999005011736111  0.4999628224749831
 -0.0000592209020966  0.4998469099136388  0.8335840084848927
 -0.0000393140207161  0.8335137315188238  0.1664591770352954
 -0.0001144600802335  0.8337105871772050  0.4998523748217326
  0.0001237287209306  0.8335513233483954  0.8335039257636061
  0.3332785309386635  0.1667762997707988  0.1665706708252002
  0.3333891262313786  0.1670760889834116  0.5000555083207006
  0.3331442494235056  0.1665543645801856  0.8335102719902332
  0.3330257909233745  0.4996768749009901  0.1661674951059239
  0.3296480773611178  0.4990861799493567  0.5017176553862006
  0.3328074248192662  0.5009272030704645  0.8332802119892313
  0.3329932244080711  0.8337188001670610  0.1658149639613414
  0.3299406293406868  0.8360157425390636  0.5000873463099058
  0.3332914786808925  0.8332176253397784  0.8332855641477801
  0.6668410724255186  0.1666228352449033  0.1664441751443955
  0.6670908557164333  0.1667285707903120  0.4999507366867966
  0.6667469305925241  0.1669133968449963  0.8333403131306709
  0.6669663625985172  0.4996368263910860  0.1658508401577465
  0.6702778874095084  0.4959853353546941  0.5009453229801976
  0.6670383081020942  0.4999787093183570  0.8329832359373024
  0.6669964549571229  0.8336494799050377  0.1662343511506893
  0.6693587309303791  0.8359139662748316  0.5001993731679615
  0.6673145817239107  0.8337403727260420  0.8342568284043518
  0.0833102029288064  0.0833814823688589  0.0832851836311387
  0.0831273125066342  0.0836294343065809  0.4164648665159330
  0.0832746120136700  0.0832956791221837  0.7501387657984645
  0.0832746120136700  0.4165279012015369  0.0833709868778139
  0.0828580242412964  0.4164522844426604  0.4162911577937603
  0.0828339984394952  0.4163161322264469  0.7503505347735542
  0.0831273125066342  0.7502018004840680  0.0830372316934166
  0.0826713634840310  0.7505223314287802  0.4161443355712209
  0.0828580242412964  0.7503755092062407  0.7502143825573407
  0.4166299959749173  0.0835462885855052  0.0831203774144924
  0.4166397836329830  0.0834911039227696  0.4165834985474234
  0.4166260975321734  0.0835946016711002  0.7501544907869402
  0.4166260975321734  0.4165121762130616  0.0830720643288974
  0.4164629784290159  0.4168351663376084  0.4168855464636251
  0.4080646229278185  0.4080654551368991  0.7586012118631023
  0.4166397836329830  0.7500831684525778  0.0831755620772280
  0.4116197962764271  0.7559880870432798  0.4106785799567211
  0.4164629784290159  0.7497811205363761  0.7498315006623928
  0.7501470564255939  0.0833535230182394  0.0833131429817582
  0.7502860096065590  0.0832995466225606  0.4164052087193328
  0.7502539200945531  0.0834748796088023  0.7502161334917277
  0.7502539200945531  0.4164505335082738  0.0831917863911952
  0.7527832832075463  0.4150450081685836  0.4153657135899612
  0.7508495687015163  0.4163931964306443  0.7502734705693566
  0.7502860096065590  0.7502614582806685  0.0833671193774370
  0.7502820244944248  0.7500666084124313  0.4166000585875698
  0.7527832832075463  0.7513009534100400  0.7516216588314176
  0.2498775729394966  0.2498913877584056  0.0833878149325907
  0.2498355525068752  0.2499316020512958  0.4165457621652663
  0.2490648692318776  0.2491555289068008  0.7503550097308447
  0.2498798607344573  0.5833585157514700  0.0831001087639253
  0.2473017177717188  0.5833687876325329  0.4146476347117686
  0.2473680529765232  0.5833191317399806  0.7517801114243263
  0.2498525499787439  0.9169183791578945  0.0830574125014668
  0.2486796559845178  0.9181754279509995  0.4162202059235017
  0.2498361374478377  0.9169355458808490  0.7500418006103329
  0.5834438890687386  0.2497016376450197  0.0830621051133327
  0.5837696318476981  0.2494040832404871  0.4160141755428909
  0.5835607066875567  0.2500524541676807  0.7500429245812547
  0.5834187357424614  0.5832843481039842  0.0831262712343585
  0.5896194607549997  0.5768456313983729  0.4109862488184019
  0.5921184893145270  0.5889304742764261  0.7569807434370721
  0.5834787843970818  0.9169401098922599  0.0832864500436930
  0.5834605177384405  0.9169910352013582  0.4166051009320980
  0.5835809609328599  0.9180043237828585  0.7513756309553948
  0.9167668193382343  0.2499001449581132  0.0832708300850696
  0.9172394106445467  0.2494462978450002  0.4163241580854823
  0.9168683447557815  0.2497653204186885  0.7501933908152238
  0.9170772025071059  0.5833559313683183  0.0833035702945919
  0.9168907817578136  0.5833875356950305  0.4163600888455140
  0.9170209020133655  0.5833333122390862  0.7503123747522765
  0.9167464082532674  0.9168457278012317  0.0833427256478308
  0.9166733619492391  0.9169231427064573  0.4164544143543575
  0.9171134746061286  0.9172241073659338  0.7502473014477899
  0.2498525499787439  0.0836092534985308  0.2497482878421066
  0.2498798607344573  0.0835665572360722  0.5833081502485276
  0.2498775729394966  0.0832788510674068  0.9167752792415955
  0.2498361374478377  0.4166248663896683  0.2497311211191521
  0.2473680529765232  0.4148865555756749  0.5833475342600170
  0.2490648692318776  0.4163116572691565  0.9175111380932006
  0.2486796559845178  0.7504464610764996  0.2484912390490020
  0.2473017177717188  0.7520190322882325  0.5832978783674647
  0.2498355525068752  0.7501209048347346  0.9167350649487053
  0.5834787843970818  0.0833802159563045  0.2497265571077415
  0.5834187357424614  0.0835403947656391  0.5833823178960134
  0.5834438890687386  0.0836045608866649  0.9169650293549816
  0.5835809609328599  0.4152910360446065  0.2486623432171427
  0.5921184893145270  0.4096859235629290  0.5777361917235715
  0.5835607066875567  0.4166237424187467  0.9166142128323208
  0.5834605177384405  0.7500615660679031  0.2496756317986432
  0.5896194607549997  0.7556804181815994  0.5898210346016247
  0.5837696318476981  0.7506524914571101  0.9172625837595139
  0.9167464082532674  0.0833239403521668  0.2498209391987697
  0.9170772025071059  0.0833630957054057  0.5833107346316793
  0.9167668193382343  0.0833958359149280  0.9167665220418880
  0.9171134746061286  0.4164193655522112  0.2494425596340674
  0.9170209020133655  0.4163542922477250  0.5833333537609113
  0.9168683447557815  0.4164732761847773  0.9169013465813128
  0.9166733619492391  0.7502122526456438  0.2497435242935438
  0.9168907817578136  0.7503065781544870  0.5832791303049670
  0.9172394106445467  0.7503425089145188  0.9172203691550007
  0.0833946323910340  0.2499522209917058  0.2498314064983929
  0.0828086913447035  0.2494465317679040  0.5832747487689193
  0.0832165272454152  0.2498056674734452  0.9168609995265556
  0.0826792948020967  0.5833973866676114  0.2491782552173355
  0.0830017152952208  0.5834003236304229  0.5832663423695746
  0.0828086913447035  0.5833919172310783  0.9172201352320973
  0.0830852976746568  0.9169964096247633  0.2496702573752380
  0.0826792948020967  0.9174884117826657  0.5832692793323861
  0.0833946323910340  0.9168352605016082  0.9167144460082954
  0.4166180925092114  0.2499046964101208  0.2498325156477628
  0.4167352956916072  0.2503753746034903  0.5834627133424010
  0.4164670593653204  0.2492428747698683  0.9174237922301327
  0.4165452531678226  0.5832124488519586  0.2496448631730077
  0.4005154995873125  0.5802832599115699  0.5863834060884277
  0.4167352956916072  0.5832039526575966  0.9162912923965110
  0.4165313408366926  0.9180703310947568  0.2485963359052445
  0.4165452531678226  0.9170218038269937  0.5834542171480390
  0.4166180925092114  0.9168341513522386  0.9167619705898805
  0.7503833146117391  0.2496094764279678  0.2495824198114553
  0.7516193012291174  0.2486080452191224  0.5832639255768304
  0.7501653594104667  0.2499372864044448  0.9167293805955563
  0.7512712520614219  0.5832160824433129  0.2486994285099628
  0.7512191200517767  0.5832151844806662  0.5834514815193313
  0.7516193012291174  0.5834027404231672  0.9180586217808786
  0.7500820731689245  0.9167642699111062  0.2499023970888951
  0.7512712520614219  0.9179672384900387  0.5834505835566847
  0.7503833146117391  0.9170842471885460  0.9170571905720335
  0.4971979231115696  0.6611806455520794  0.5054860214479218
 
  0.00000000E+00  0.00000000E+00  0.00000000E+00
  0.00000000E+00  0.00000000E+00  0.00000000E+00
  0.00000000E+00  0.00000000E+00  0.00000000E+00
  0.00000000E+00  0.00000000E+00  0.00000000E+00
  0.00000000E+00  0.00000000E+00  0.00000000E+00
  0.00000000E+00  0.00000000E+00  0.00000000E+00
  0.00000000E+00  0.00000000E+00  0.00000000E+00
  0.00000000E+00  0.00000000E+00  0.00000000E+00
  0.00000000E+00  0.00000000E+00  0.00000000E+00
  0.00000000E+00  0.00000000E+00  0.00000000E+00
  0.00000000E+00  0.00000000E+00  0.00000000E+00
  0.00000000E+00  0.00000000E+00  0.00000000E+00
  0.00000000E+00  0.00000000E+00  0.00000000E+00
  0.00000000E+00  0.00000000E+00  0.00000000E+00
  0.00000000E+00  0.00000000E+00  0.00000000E+00
  0.00000000E+00  0.00000000E+00  0.00000000E+00
  0.00000000E+00  0.00000000E+00  0.00000000E+00
  0.00000000E+00  0.00000000E+00  0.00000000E+00
  0.00000000E+00  0.00000000E+00  0.00000000E+00
  0.00000000E+00  0.00000000E+00  0.00000000E+00
  0.00000000E+00  0.00000000E+00  0.00000000E+00
  0.00000000E+00  0.00000000E+00  0.00000000E+00
  0.00000000E+00  0.00000000E+00  0.00000000E+00
  0.00000000E+00  0.00000000E+00  0.00000000E+00
  0.00000000E+00  0.00000000E+00  0.00000000E+00
  0.00000000E+00  0.00000000E+00  0.00000000E+00
  0.00000000E+00  0.00000000E+00  0.00000000E+00
  0.00000000E+00  0.00000000E+00  0.00000000E+00
  0.00000000E+00  0.00000000E+00  0.00000000E+00
  0.00000000E+00  0.00000000E+00  0.00000000E+00
  0.00000000E+00  0.00000000E+00  0.00000000E+00
  0.00000000E+00  0.00000000E+00  0.00000000E+00
  0.00000000E+00  0.00000000E+00  0.00000000E+00
  0.00000000E+00  0.00000000E+00  0.00000000E+00
  0.00000000E+00  0.00000000E+00  0.00000000E+00
  0.00000000E+00  0.00000000E+00  0.00000000E+00
  0.00000000E+00  0.00000000E+00  0.00000000E+00
  0.00000000E+00  0.00000000E+00  0.00000000E+00
  0.00000000E+00  0.00000000E+00  0.00000000E+00
  0.00000000E+00  0.00000000E+00  0.00000000E+00
  0.00000000E+00  0.00000000E+00  0.00000000E+00
  0.00000000E+00  0.00000000E+00  0.00000000E+00
  0.00000000E+00  0.00000000E+00  0.00000000E+00
  0.00000000E+00  0.00000000E+00  0.00000000E+00
  0.00000000E+00  0.00000000E+00  0.00000000E+00
  0.00000000E+00  0.00000000E+00  0.00000000E+00
  0.00000000E+00  0.00000000E+00  0.00000000E+00
  0.00000000E+00  0.00000000E+00  0.00000000E+00
  0.00000000E+00  0.00000000E+00  0.00000000E+00
  0.00000000E+00  0.00000000E+00  0.00000000E+00
  0.00000000E+00  0.00000000E+00  0.00000000E+00
  0.00000000E+00  0.00000000E+00  0.00000000E+00
  0.00000000E+00  0.00000000E+00  0.00000000E+00
  0.00000000E+00  0.00000000E+00  0.00000000E+00
  0.00000000E+00  0.00000000E+00  0.00000000E+00
  0.00000000E+00  0.00000000E+00  0.00000000E+00
  0.00000000E+00  0.00000000E+00  0.00000000E+00
  0.00000000E+00  0.00000000E+00  0.00000000E+00
  0.00000000E+00  0.00000000E+00  0.00000000E+00
  0.00000000E+00  0.00000000E+00  0.00000000E+00
  0.00000000E+00  0.00000000E+00  0.00000000E+00
  0.00000000E+00  0.00000000E+00  0.00000000E+00
  0.00000000E+00  0.00000000E+00  0.00000000E+00
  0.00000000E+00  0.00000000E+00  0.00000000E+00
  0.00000000E+00  0.00000000E+00  0.00000000E+00
  0.00000000E+00  0.00000000E+00  0.00000000E+00
  0.00000000E+00  0.00000000E+00  0.00000000E+00
  0.00000000E+00  0.00000000E+00  0.00000000E+00
  0.00000000E+00  0.00000000E+00  0.00000000E+00
  0.00000000E+00  0.00000000E+00  0.00000000E+00
  0.00000000E+00  0.00000000E+00  0.00000000E+00
  0.00000000E+00  0.00000000E+00  0.00000000E+00
  0.00000000E+00  0.00000000E+00  0.00000000E+00
  0.00000000E+00  0.00000000E+00  0.00000000E+00
  0.00000000E+00  0.00000000E+00  0.00000000E+00
  0.00000000E+00  0.00000000E+00  0.00000000E+00
  0.00000000E+00  0.00000000E+00  0.00000000E+00
  0.00000000E+00  0.00000000E+00  0.00000000E+00
  0.00000000E+00  0.00000000E+00  0.00000000E+00
  0.00000000E+00  0.00000000E+00  0.00000000E+00
  0.00000000E+00  0.00000000E+00  0.00000000E+00
  0.00000000E+00  0.00000000E+00  0.00000000E+00
  0.00000000E+00  0.00000000E+00  0.00000000E+00
  0.00000000E+00  0.00000000E+00  0.00000000E+00
  0.00000000E+00  0.00000000E+00  0.00000000E+00
  0.00000000E+00  0.00000000E+00  0.00000000E+00
  0.00000000E+00  0.00000000E+00  0.00000000E+00
  0.00000000E+00  0.00000000E+00  0.00000000E+00
  0.00000000E+00  0.00000000E+00  0.00000000E+00
  0.00000000E+00  0.00000000E+00  0.00000000E+00
  0.00000000E+00  0.00000000E+00  0.00000000E+00
  0.00000000E+00  0.00000000E+00  0.00000000E+00
  0.00000000E+00  0.00000000E+00  0.00000000E+00
  0.00000000E+00  0.00000000E+00  0.00000000E+00
  0.00000000E+00  0.00000000E+00  0.00000000E+00
  0.00000000E+00  0.00000000E+00  0.00000000E+00
  0.00000000E+00  0.00000000E+00  0.00000000E+00
  0.00000000E+00  0.00000000E+00  0.00000000E+00
  0.00000000E+00  0.00000000E+00  0.00000000E+00
  0.00000000E+00  0.00000000E+00  0.00000000E+00
  0.00000000E+00  0.00000000E+00  0.00000000E+00
  0.00000000E+00  0.00000000E+00  0.00000000E+00
  0.00000000E+00  0.00000000E+00  0.00000000E+00
  0.00000000E+00  0.00000000E+00  0.00000000E+00
  0.00000000E+00  0.00000000E+00  0.00000000E+00
  0.00000000E+00  0.00000000E+00  0.00000000E+00
  0.00000000E+00  0.00000000E+00  0.00000000E+00
  0.00000000E+00  0.00000000E+00  0.00000000E+00
  0.00000000E+00  0.00000000E+00  0.00000000E+00
  0.00000000E+00  0.00000000E+00  0.00000000E+00
  0.00000000E+00  0.00000000E+00  0.00000000E+00
  0.00000000E+00  0.00000000E+00  0.00000000E+00
  0.00000000E+00  0.00000000E+00  0.00000000E+00
  0.00000000E+00  0.00000000E+00  0.00000000E+00
  0.00000000E+00  0.00000000E+00  0.00000000E+00
  0.00000000E+00  0.00000000E+00  0.00000000E+00
  0.00000000E+00  0.00000000E+00  0.00000000E+00
  0.00000000E+00  0.00000000E+00  0.00000000E+00
  0.00000000E+00  0.00000000E+00  0.00000000E+00
  0.00000000E+00  0.00000000E+00  0.00000000E+00
  0.00000000E+00  0.00000000E+00  0.00000000E+00
  0.00000000E+00  0.00000000E+00  0.00000000E+00
  0.00000000E+00  0.00000000E+00  0.00000000E+00
  0.00000000E+00  0.00000000E+00  0.00000000E+00
  0.00000000E+00  0.00000000E+00  0.00000000E+00
  0.00000000E+00  0.00000000E+00  0.00000000E+00
  0.00000000E+00  0.00000000E+00  0.00000000E+00
  0.00000000E+00  0.00000000E+00  0.00000000E+00
  0.00000000E+00  0.00000000E+00  0.00000000E+00
  0.00000000E+00  0.00000000E+00  0.00000000E+00
  0.00000000E+00  0.00000000E+00  0.00000000E+00
  0.00000000E+00  0.00000000E+00  0.00000000E+00
  0.00000000E+00  0.00000000E+00  0.00000000E+00
  0.00000000E+00  0.00000000E+00  0.00000000E+00
  0.00000000E+00  0.00000000E+00  0.00000000E+00
  0.00000000E+00  0.00000000E+00  0.00000000E+00
  0.00000000E+00  0.00000000E+00  0.00000000E+00
  0.00000000E+00  0.00000000E+00  0.00000000E+00
  0.00000000E+00  0.00000000E+00  0.00000000E+00
  0.00000000E+00  0.00000000E+00  0.00000000E+00
  0.00000000E+00  0.00000000E+00  0.00000000E+00
  0.00000000E+00  0.00000000E+00  0.00000000E+00
  0.00000000E+00  0.00000000E+00  0.00000000E+00
  0.00000000E+00  0.00000000E+00  0.00000000E+00
  0.00000000E+00  0.00000000E+00  0.00000000E+00
  0.00000000E+00  0.00000000E+00  0.00000000E+00
  0.00000000E+00  0.00000000E+00  0.00000000E+00
  0.00000000E+00  0.00000000E+00  0.00000000E+00
  0.00000000E+00  0.00000000E+00  0.00000000E+00
  0.00000000E+00  0.00000000E+00  0.00000000E+00
  0.00000000E+00  0.00000000E+00  0.00000000E+00
  0.00000000E+00  0.00000000E+00  0.00000000E+00
  0.00000000E+00  0.00000000E+00  0.00000000E+00
  0.00000000E+00  0.00000000E+00  0.00000000E+00
  0.00000000E+00  0.00000000E+00  0.00000000E+00
  0.00000000E+00  0.00000000E+00  0.00000000E+00
  0.00000000E+00  0.00000000E+00  0.00000000E+00
  0.00000000E+00  0.00000000E+00  0.00000000E+00
  0.00000000E+00  0.00000000E+00  0.00000000E+00
  0.00000000E+00  0.00000000E+00  0.00000000E+00
  0.00000000E+00  0.00000000E+00  0.00000000E+00
  0.00000000E+00  0.00000000E+00  0.00000000E+00
  0.00000000E+00  0.00000000E+00  0.00000000E+00
  0.00000000E+00  0.00000000E+00  0.00000000E+00
  0.00000000E+00  0.00000000E+00  0.00000000E+00
  0.00000000E+00  0.00000000E+00  0.00000000E+00
  0.00000000E+00  0.00000000E+00  0.00000000E+00
  0.00000000E+00  0.00000000E+00  0.00000000E+00
  0.00000000E+00  0.00000000E+00  0.00000000E+00
  0.00000000E+00  0.00000000E+00  0.00000000E+00
  0.00000000E+00  0.00000000E+00  0.00000000E+00
  0.00000000E+00  0.00000000E+00  0.00000000E+00
  0.00000000E+00  0.00000000E+00  0.00000000E+00
  0.00000000E+00  0.00000000E+00  0.00000000E+00
  0.00000000E+00  0.00000000E+00  0.00000000E+00
  0.00000000E+00  0.00000000E+00  0.00000000E+00
  0.00000000E+00  0.00000000E+00  0.00000000E+00
  0.00000000E+00  0.00000000E+00  0.00000000E+00
  0.00000000E+00  0.00000000E+00  0.00000000E+00
  0.00000000E+00  0.00000000E+00  0.00000000E+00
  0.00000000E+00  0.00000000E+00  0.00000000E+00
  0.00000000E+00  0.00000000E+00  0.00000000E+00
  0.00000000E+00  0.00000000E+00  0.00000000E+00
  0.00000000E+00  0.00000000E+00  0.00000000E+00
  0.00000000E+00  0.00000000E+00  0.00000000E+00
  0.00000000E+00  0.00000000E+00  0.00000000E+00
  0.00000000E+00  0.00000000E+00  0.00000000E+00
  0.00000000E+00  0.00000000E+00  0.00000000E+00
  0.00000000E+00  0.00000000E+00  0.00000000E+00
  0.00000000E+00  0.00000000E+00  0.00000000E+00
  0.00000000E+00  0.00000000E+00  0.00000000E+00
  0.00000000E+00  0.00000000E+00  0.00000000E+00
  0.00000000E+00  0.00000000E+00  0.00000000E+00
  0.00000000E+00  0.00000000E+00  0.00000000E+00
  0.00000000E+00  0.00000000E+00  0.00000000E+00
  0.00000000E+00  0.00000000E+00  0.00000000E+00
  0.00000000E+00  0.00000000E+00  0.00000000E+00
  0.00000000E+00  0.00000000E+00  0.00000000E+00
  0.00000000E+00  0.00000000E+00  0.00000000E+00
  0.00000000E+00  0.00000000E+00  0.00000000E+00
  0.00000000E+00  0.00000000E+00  0.00000000E+00
  0.00000000E+00  0.00000000E+00  0.00000000E+00
  0.00000000E+00  0.00000000E+00  0.00000000E+00
  0.00000000E+00  0.00000000E+00  0.00000000E+00
  0.00000000E+00  0.00000000E+00  0.00000000E+00
  0.00000000E+00  0.00000000E+00  0.00000000E+00
  0.00000000E+00  0.00000000E+00  0.00000000E+00
  0.00000000E+00  0.00000000E+00  0.00000000E+00
  0.00000000E+00  0.00000000E+00  0.00000000E+00
  0.00000000E+00  0.00000000E+00  0.00000000E+00
  0.00000000E+00  0.00000000E+00  0.00000000E+00
  0.00000000E+00  0.00000000E+00  0.00000000E+00
  0.00000000E+00  0.00000000E+00  0.00000000E+00
  0.00000000E+00  0.00000000E+00  0.00000000E+00
  0.00000000E+00  0.00000000E+00  0.00000000E+00
