C8                                      
   1.00000000000000     
    10.7211360931000002    0.0000000000000000    0.0000000000000000
     0.0000000000000000   10.7211360931000002    0.0000000000000000
     0.0000000000000000    0.0000000000000000   10.7211360931000002
   C    N 
   214     1
Direct
     0.0832670998419748    0.0834543043160344    0.0833995661580227
     0.0832896341484057    0.0837609268208828    0.4166341424406955
     0.0825491752625490    0.0832343563962559    0.7501495030868347
     0.0835368281939902    0.4167173138137862    0.0831298378060074
     0.0837558030069209    0.4169751665666470    0.4166700123293081
     0.0826987249991425    0.4164846265880939    0.7498313719580286
     0.0837337981332789    0.7501763364548462    0.0829328678667186
     0.0841859973997449    0.7503335541016241    0.4163083779870385
     0.0837343646111649    0.7499443162027098    0.7497594677644454
     0.4165171639131669    0.0832343563962559    0.0841174907374486
     0.4166382196386517    0.0834596460441782    0.4175439448007141
     0.4158193111126071    0.0821257396578133    0.7508473558873942
     0.4168352950419726    0.4164846265880939    0.0839679410008551
     0.4183584680379830    0.4169891888191615    0.4192747135895148
     0.4147546701516064    0.4152369900966112    0.7519119968483948
     0.4169071992355560    0.7499443162027098    0.0829323013888327
     0.4171801574006394    0.7501940372248028    0.4157396720844765
     0.4171141983349692    0.7487443813517526    0.7495524686650323
     0.7500325245593057    0.0837609268208828    0.0833770318515919
     0.7497963859856376    0.0841129100231219    0.4168702810143639
     0.7491227221992871    0.0834596460441782    0.7500284473613492
     0.7499966546706931    0.4169751665666470    0.0829108629930767
     0.7578291988566339    0.4138657535082796    0.4088374681433675
     0.7473919534104864    0.4169891888191615    0.7483081989620185
     0.7503582890129624    0.7503335541016241    0.0824806686002527
     0.7507222989820532    0.7512649015066749    0.4159443680179478
     0.7509269949155245    0.7501940372248028    0.7494865095993620
     0.2499010233962572    0.2498504969131657    0.0841174907374486
     0.2501263130441794    0.2499715526386507    0.4175439448007141
     0.2487924066578145    0.2491526441126059    0.7508473558873942
     0.2504275938208840    0.5833658575593045    0.0833770318515919
     0.2507795770231232    0.5831297189856364    0.4168702810143639
     0.2501263130441794    0.5824560551992859    0.7500284473613492
     0.2501209713160356    0.9166004338419771    0.0833995661580227
     0.2504275938208840    0.9166229681484080    0.4166341424406955
     0.2499010233962572    0.9158825092625517    0.7501495030868347
     0.5831512925880916    0.2501686280419714    0.0839679410008551
     0.5836558548191589    0.2516918010379818    0.4192747135895148
     0.5819036560966084    0.2480880031516054    0.7519119968483948
     0.5836418325666444    0.5833299876706919    0.0829108629930767
     0.5805324195082774    0.5911625318566327    0.4088374681433675
     0.5836558548191589    0.5807252864104852    0.7483081989620185
     0.5833839798137839    0.9168701621939928    0.0831298378060074
     0.5836418325666444    0.9170891370069233    0.4166700123293081
     0.5831512925880916    0.9160320589991447    0.7498313719580286
     0.9166109832027111    0.2502405322355547    0.0829323013888327
     0.9168607042248040    0.2505134904006381    0.4157396720844765
     0.9154110483517538    0.2504475313349680    0.7495524686650323
     0.9170002211016253    0.5836916220129612    0.0824806686002527
     0.9179315685066761    0.5840556319820520    0.4159443680179478
     0.9168607042248040    0.5842603279155233    0.7494865095993620
     0.9168430034548474    0.9170671321332812    0.0829328678667186
     0.9170002211016253    0.9175193313997472    0.4163083779870385
     0.9166109832027111    0.9170676986111674    0.7497594677644454
     0.2502021004028468    0.0835354334028455    0.2504963850295198
     0.2492748339184419    0.0826081669184407    0.5839490094408687
     0.2494673913033543    0.0828007243033531    0.9171992756966468
     0.2508981203807316    0.4168012823897060    0.2509258012972719
     0.2497286087991328    0.4160861500854528    0.5839138499145474
     0.2492748339184419    0.4160509905591312    0.9173918330815594
     0.2505718695391998    0.7502440791491350    0.2497559208508647
     0.2508981203807316    0.7490741987027286    0.5831987176102940
     0.2502021004028468    0.7495036149704799    0.9164645665971545
     0.5834679483897036    0.0842314533807303    0.2509258012972719
     0.5827528160854502    0.0830619417991316    0.5839138499145474
     0.5827176565591289    0.0826081669184407    0.9173918330815594
     0.5841656729888578    0.4174990069888601    0.2503242400291044
     0.5827528160854502    0.4160861500854528    0.9169380582008683
     0.5834973944062380    0.7516644907306425    0.2483355092693575
     0.5841656729888578    0.7496757599708956    0.5825009930111398
     0.5834679483897036    0.7490741987027286    0.9157685466192697
     0.9169107461491363    0.0839052025391986    0.2497559208508647
     0.9157408657027298    0.0842314533807303    0.5831987176102940
     0.9161702819704811    0.0835354334028455    0.9164645665971545
     0.9183311577306437    0.4168307284062405    0.2483355092693575
     0.9163424269708969    0.4174990069888601    0.5825009930111398
     0.9157408657027298    0.4168012823897060    0.9157685466192697
     0.9173136777407946    0.7506470107407934    0.2493529892592068
     0.9183311577306437    0.7516644907306425    0.5831692715937595
     0.9169107461491363    0.7502440791491350    0.9160947974608014
     0.0837343646111649    0.2502405322355547    0.2500556837972901
     0.0826987249991425    0.2501686280419714    0.5835153734119060
     0.0825491752625490    0.2498504969131657    0.9167656436037440
     0.0841859973997449    0.5836916220129612    0.2496664458983760
     0.0837558030069209    0.5833299876706919    0.5830248334333532
     0.0832896341484057    0.5833658575593045    0.9162390731791173
     0.0837337981332789    0.9170671321332812    0.2498236635451537
     0.0835368281939902    0.9168701621939928    0.5832826861862137
     0.0832670998419748    0.9166004338419771    0.9165456956839654
     0.4171141983349692    0.2504475313349680    0.2512556186482472
     0.4147546701516064    0.2480880031516054    0.5847630099033891
     0.4158193111126071    0.2491526441126059    0.9178742603421867
     0.4171801574006394    0.5842603279155233    0.2498059627751972
     0.4183584680379830    0.5807252864104852    0.5830108111808386
     0.4166382196386517    0.5824560551992859    0.9165403539558219
     0.4169071992355560    0.9170676986111674    0.2500556837972901
     0.4168352950419726    0.9160320589991447    0.5835153734119060
     0.4165171639131669    0.9158825092625517    0.9167656436037440
     0.7509269949155245    0.2505134904006381    0.2498059627751972
     0.7473919534104864    0.2516918010379818    0.5830108111808386
     0.7491227221992871    0.2499715526386507    0.9165403539558219
     0.7507222989820532    0.5840556319820520    0.2487350984933248
     0.7578291988566339    0.5911625318566327    0.5861342464917202
     0.7497963859856376    0.5831297189856364    0.9158870899768782
     0.7503582890129624    0.9175193313997472    0.2496664458983760
     0.7499966546706931    0.9170891370069233    0.5830248334333532
     0.7500325245593057    0.9166229681484080    0.9162390731791173
     0.9998254934352295    0.0001999134793037    0.9998000865206963
     0.0002322470470435    0.0006688981246189    0.3331752549862719
     0.9994962444410580    0.0003303950250668    0.6665096311534573
     0.9994962444410580    0.3334903688465430    0.9996696049749331
     0.0001814640570860    0.3340591300635011    0.3331796739046258
     0.9990474151375500    0.3336415105023006    0.6663584894976992
     0.0002322470470435    0.6668247450137281    0.9993311018753812
     0.0008356211575434    0.6672934260342732    0.3327065739657266
     0.0001814640570860    0.6668203260953739    0.6659408699364991
     0.3331975616249330    0.9995709614635138    0.0004290385364858
     0.3336631794374629    0.0001320161140689    0.3337496018460616
     0.3328856437080805    0.9990484721222274    0.6671423068998640
     0.3328856437080805    0.3328576931001364    0.0009515278777729
     0.3344250748903880    0.3334624059232945    0.3348437514117507
     0.3319020758476391    0.3321311767140094    0.6678688232859908
     0.3336631794374629    0.6662503981539383    0.9998679838859311
     0.3342569699350998    0.6665058690871586    0.3334941309128415
     0.3344250748903880    0.6651562485882496    0.6665375940767057
     0.6663992403259634    0.9998812719295962    0.0001187280704037
     0.6668648399183315    0.0006802624100492    0.3334666539556586
     0.6663050433075253    0.9997933057662030    0.6666956515804331
     0.6663050433075253    0.3333043484195672    0.0002066942337970
     0.6662590732931295    0.3366040099877443    0.3359142736685145
     0.6617363776810603    0.3326130935682939    0.6673869064317061
     0.6668648399183315    0.6665333460443409    0.9993197375899503
     0.6680482196799366    0.6669125991734407    0.3330874008265592
     0.6662590732931295    0.6640857263314859    0.6633959900122555
     0.1662376284635153    0.1665308956249354    0.0004290385364858
     0.1667986831140700    0.1669965134374651    0.3337496018460616
     0.1657151391222284    0.1662189777080829    0.6671423068998640
     0.1665479389295975    0.4997325733259624    0.0001187280704037
     0.1673469294100506    0.5001981729183302    0.3334666539556586
     0.1664599727662043    0.4996383763075240    0.6666956515804331
     0.1668665804793049    0.8331588264352283    0.9998000865206963
     0.1673355651246201    0.8335655800470423    0.3331752549862719
     0.1669970620250680    0.8328295774410568    0.6665096311534573
     0.4995243601001376    0.1662189777080829    0.0009515278777729
     0.5001290729232956    0.1677584088903904    0.3348437514117507
     0.4987978437140106    0.1652354098476415    0.6678688232859908
     0.4999710154195684    0.4996383763075240    0.0002066942337970
     0.5032706769877457    0.4995924062931282    0.3359142736685145
     0.4992797605682952    0.4950697106810590    0.6673869064317061
     0.5001570358465440    0.8328295774410568    0.9996696049749331
     0.5007257970635021    0.8335147970570849    0.3331796739046258
     0.5003081775023019    0.8323807481375488    0.6663584894976992
     0.8329170641539358    0.1669965134374651    0.9998679838859311
     0.8331725350871562    0.1675903039351024    0.3334941309128415
     0.8318229145882472    0.1677584088903904    0.6665375940767057
     0.8332000120443385    0.5001981729183302    0.9993197375899503
     0.8335792651734383    0.5013815526799353    0.3330874008265592
     0.8307523923314835    0.4995924062931282    0.6633959900122555
     0.8334914110137257    0.8335655800470423    0.9993311018753812
     0.8339600920342708    0.8341689541575420    0.3327065739657266
     0.8334869920953715    0.8335147970570849    0.6659408699364991
     0.1668665804793049    0.0001999134793037    0.1668411735647716
     0.1665479389295975    0.9998812719295962    0.5002674266740378
     0.1662376284635153    0.9995709614635138    0.8334691043750647
     0.1669970620250680    0.3334903688465430    0.1671704225589433
     0.1664599727662043    0.3333043484195672    0.5003616236924759
     0.1657151391222284    0.3328576931001364    0.8337810222919169
     0.1673355651246201    0.6668247450137281    0.1664344199529577
     0.1673469294100506    0.6665333460443409    0.4998018270816699
     0.1667986831140700    0.6662503981539383    0.8330034865625349
     0.5001570358465440    0.0003303950250668    0.1671704225589433
     0.4999710154195684    0.9997933057662030    0.5003616236924759
     0.4995243601001376    0.9990484721222274    0.8337810222919169
     0.5003081775023019    0.3336415105023006    0.1676192518624514
     0.4992797605682952    0.3326130935682939    0.5049302893189409
     0.4987978437140106    0.3321311767140094    0.8347645901523580
     0.5007257970635021    0.6668203260953739    0.1664852029429151
     0.5032706769877457    0.6640857263314859    0.5004075937068717
     0.5001290729232956    0.6651562485882496    0.8322415911096097
     0.8334914110137257    0.0006688981246189    0.1664344199529577
     0.8332000120443385    0.0006802624100492    0.4998018270816699
     0.8329170641539358    0.0001320161140689    0.8330034865625349
     0.8334869920953715    0.3340591300635011    0.1664852029429151
     0.8307523923314835    0.3366040099877443    0.5004075937068717
     0.8318229145882472    0.3334624059232945    0.8322415911096097
     0.8339600920342708    0.6672934260342732    0.1658310458424580
     0.8335792651734383    0.6669125991734407    0.4986184473200644
     0.8331725350871562    0.6665058690871586    0.8324096960648977
     0.9999714327847449    0.1671926238916755    0.1666952342152560
     0.9993871885353965    0.1674054487789496    0.5003012791034744
     0.9990624307646448    0.1667679393807284    0.8332320606192718
     0.0006930203704918    0.5006443749573722    0.1659736466295095
     0.0001804542544879    0.5004994942832844    0.4995005057167154
     0.9993871885353965    0.4996987208965255    0.8325945512210501
     0.0004731789707023    0.8338065119707012    0.1661934880292988
     0.0006930203704918    0.8340263533704904    0.4993556250426279
     0.9999714327847449    0.8333047657847438    0.8328073761083244
     0.3334346053807260    0.1667679393807284    0.1676042362353565
     0.3323697641113539    0.1657030981113564    0.5009676443989213
     0.3324650250171849    0.1657983590171874    0.8342016409828127
     0.3340721147789472    0.4996987208965255    0.1672794784646048
     0.3338268038503363    0.4994561989961706    0.5005438010038290
     0.3323697641113539    0.4990323556010788    0.8342969018886438
     0.3338592898916732    0.8333047657847438    0.1666952342152560
     0.3340721147789472    0.8327205215353953    0.5003012791034744
     0.3334346053807260    0.8323957637646435    0.8332320606192718
     0.6663653878965268    0.1674054487789496    0.1672794784646048
     0.6661228659961723    0.1671601378503387    0.5005438010038290
     0.6656990226010798    0.1657030981113564    0.8342969018886438
     0.6671661612832857    0.5004994942832844    0.1664862127455136
     0.6661228659961723    0.4994561989961706    0.8328398621496613
     0.6673110419573735    0.8340263533704904    0.1659736466295095
     0.6671661612832857    0.8335137872544865    0.4995005057167154
     0.6663653878965268    0.8327205215353953    0.8325945512210501
     0.5758582110702489    0.4091915450702515    0.5908084549297486
 
  0.00000000E+00  0.00000000E+00  0.00000000E+00
  0.00000000E+00  0.00000000E+00  0.00000000E+00
  0.00000000E+00  0.00000000E+00  0.00000000E+00
  0.00000000E+00  0.00000000E+00  0.00000000E+00
  0.00000000E+00  0.00000000E+00  0.00000000E+00
  0.00000000E+00  0.00000000E+00  0.00000000E+00
  0.00000000E+00  0.00000000E+00  0.00000000E+00
  0.00000000E+00  0.00000000E+00  0.00000000E+00
  0.00000000E+00  0.00000000E+00  0.00000000E+00
  0.00000000E+00  0.00000000E+00  0.00000000E+00
  0.00000000E+00  0.00000000E+00  0.00000000E+00
  0.00000000E+00  0.00000000E+00  0.00000000E+00
  0.00000000E+00  0.00000000E+00  0.00000000E+00
  0.00000000E+00  0.00000000E+00  0.00000000E+00
  0.00000000E+00  0.00000000E+00  0.00000000E+00
  0.00000000E+00  0.00000000E+00  0.00000000E+00
  0.00000000E+00  0.00000000E+00  0.00000000E+00
  0.00000000E+00  0.00000000E+00  0.00000000E+00
  0.00000000E+00  0.00000000E+00  0.00000000E+00
  0.00000000E+00  0.00000000E+00  0.00000000E+00
  0.00000000E+00  0.00000000E+00  0.00000000E+00
  0.00000000E+00  0.00000000E+00  0.00000000E+00
  0.00000000E+00  0.00000000E+00  0.00000000E+00
  0.00000000E+00  0.00000000E+00  0.00000000E+00
  0.00000000E+00  0.00000000E+00  0.00000000E+00
  0.00000000E+00  0.00000000E+00  0.00000000E+00
  0.00000000E+00  0.00000000E+00  0.00000000E+00
  0.00000000E+00  0.00000000E+00  0.00000000E+00
  0.00000000E+00  0.00000000E+00  0.00000000E+00
  0.00000000E+00  0.00000000E+00  0.00000000E+00
  0.00000000E+00  0.00000000E+00  0.00000000E+00
  0.00000000E+00  0.00000000E+00  0.00000000E+00
  0.00000000E+00  0.00000000E+00  0.00000000E+00
  0.00000000E+00  0.00000000E+00  0.00000000E+00
  0.00000000E+00  0.00000000E+00  0.00000000E+00
  0.00000000E+00  0.00000000E+00  0.00000000E+00
  0.00000000E+00  0.00000000E+00  0.00000000E+00
  0.00000000E+00  0.00000000E+00  0.00000000E+00
  0.00000000E+00  0.00000000E+00  0.00000000E+00
  0.00000000E+00  0.00000000E+00  0.00000000E+00
  0.00000000E+00  0.00000000E+00  0.00000000E+00
  0.00000000E+00  0.00000000E+00  0.00000000E+00
  0.00000000E+00  0.00000000E+00  0.00000000E+00
  0.00000000E+00  0.00000000E+00  0.00000000E+00
  0.00000000E+00  0.00000000E+00  0.00000000E+00
  0.00000000E+00  0.00000000E+00  0.00000000E+00
  0.00000000E+00  0.00000000E+00  0.00000000E+00
  0.00000000E+00  0.00000000E+00  0.00000000E+00
  0.00000000E+00  0.00000000E+00  0.00000000E+00
  0.00000000E+00  0.00000000E+00  0.00000000E+00
  0.00000000E+00  0.00000000E+00  0.00000000E+00
  0.00000000E+00  0.00000000E+00  0.00000000E+00
  0.00000000E+00  0.00000000E+00  0.00000000E+00
  0.00000000E+00  0.00000000E+00  0.00000000E+00
  0.00000000E+00  0.00000000E+00  0.00000000E+00
  0.00000000E+00  0.00000000E+00  0.00000000E+00
  0.00000000E+00  0.00000000E+00  0.00000000E+00
  0.00000000E+00  0.00000000E+00  0.00000000E+00
  0.00000000E+00  0.00000000E+00  0.00000000E+00
  0.00000000E+00  0.00000000E+00  0.00000000E+00
  0.00000000E+00  0.00000000E+00  0.00000000E+00
  0.00000000E+00  0.00000000E+00  0.00000000E+00
  0.00000000E+00  0.00000000E+00  0.00000000E+00
  0.00000000E+00  0.00000000E+00  0.00000000E+00
  0.00000000E+00  0.00000000E+00  0.00000000E+00
  0.00000000E+00  0.00000000E+00  0.00000000E+00
  0.00000000E+00  0.00000000E+00  0.00000000E+00
  0.00000000E+00  0.00000000E+00  0.00000000E+00
  0.00000000E+00  0.00000000E+00  0.00000000E+00
  0.00000000E+00  0.00000000E+00  0.00000000E+00
  0.00000000E+00  0.00000000E+00  0.00000000E+00
  0.00000000E+00  0.00000000E+00  0.00000000E+00
  0.00000000E+00  0.00000000E+00  0.00000000E+00
  0.00000000E+00  0.00000000E+00  0.00000000E+00
  0.00000000E+00  0.00000000E+00  0.00000000E+00
  0.00000000E+00  0.00000000E+00  0.00000000E+00
  0.00000000E+00  0.00000000E+00  0.00000000E+00
  0.00000000E+00  0.00000000E+00  0.00000000E+00
  0.00000000E+00  0.00000000E+00  0.00000000E+00
  0.00000000E+00  0.00000000E+00  0.00000000E+00
  0.00000000E+00  0.00000000E+00  0.00000000E+00
  0.00000000E+00  0.00000000E+00  0.00000000E+00
  0.00000000E+00  0.00000000E+00  0.00000000E+00
  0.00000000E+00  0.00000000E+00  0.00000000E+00
  0.00000000E+00  0.00000000E+00  0.00000000E+00
  0.00000000E+00  0.00000000E+00  0.00000000E+00
  0.00000000E+00  0.00000000E+00  0.00000000E+00
  0.00000000E+00  0.00000000E+00  0.00000000E+00
  0.00000000E+00  0.00000000E+00  0.00000000E+00
  0.00000000E+00  0.00000000E+00  0.00000000E+00
  0.00000000E+00  0.00000000E+00  0.00000000E+00
  0.00000000E+00  0.00000000E+00  0.00000000E+00
  0.00000000E+00  0.00000000E+00  0.00000000E+00
  0.00000000E+00  0.00000000E+00  0.00000000E+00
  0.00000000E+00  0.00000000E+00  0.00000000E+00
  0.00000000E+00  0.00000000E+00  0.00000000E+00
  0.00000000E+00  0.00000000E+00  0.00000000E+00
  0.00000000E+00  0.00000000E+00  0.00000000E+00
  0.00000000E+00  0.00000000E+00  0.00000000E+00
  0.00000000E+00  0.00000000E+00  0.00000000E+00
  0.00000000E+00  0.00000000E+00  0.00000000E+00
  0.00000000E+00  0.00000000E+00  0.00000000E+00
  0.00000000E+00  0.00000000E+00  0.00000000E+00
  0.00000000E+00  0.00000000E+00  0.00000000E+00
  0.00000000E+00  0.00000000E+00  0.00000000E+00
  0.00000000E+00  0.00000000E+00  0.00000000E+00
  0.00000000E+00  0.00000000E+00  0.00000000E+00
  0.00000000E+00  0.00000000E+00  0.00000000E+00
  0.00000000E+00  0.00000000E+00  0.00000000E+00
  0.00000000E+00  0.00000000E+00  0.00000000E+00
  0.00000000E+00  0.00000000E+00  0.00000000E+00
  0.00000000E+00  0.00000000E+00  0.00000000E+00
  0.00000000E+00  0.00000000E+00  0.00000000E+00
  0.00000000E+00  0.00000000E+00  0.00000000E+00
  0.00000000E+00  0.00000000E+00  0.00000000E+00
  0.00000000E+00  0.00000000E+00  0.00000000E+00
  0.00000000E+00  0.00000000E+00  0.00000000E+00
  0.00000000E+00  0.00000000E+00  0.00000000E+00
  0.00000000E+00  0.00000000E+00  0.00000000E+00
  0.00000000E+00  0.00000000E+00  0.00000000E+00
  0.00000000E+00  0.00000000E+00  0.00000000E+00
  0.00000000E+00  0.00000000E+00  0.00000000E+00
  0.00000000E+00  0.00000000E+00  0.00000000E+00
  0.00000000E+00  0.00000000E+00  0.00000000E+00
  0.00000000E+00  0.00000000E+00  0.00000000E+00
  0.00000000E+00  0.00000000E+00  0.00000000E+00
  0.00000000E+00  0.00000000E+00  0.00000000E+00
  0.00000000E+00  0.00000000E+00  0.00000000E+00
  0.00000000E+00  0.00000000E+00  0.00000000E+00
  0.00000000E+00  0.00000000E+00  0.00000000E+00
  0.00000000E+00  0.00000000E+00  0.00000000E+00
  0.00000000E+00  0.00000000E+00  0.00000000E+00
  0.00000000E+00  0.00000000E+00  0.00000000E+00
  0.00000000E+00  0.00000000E+00  0.00000000E+00
  0.00000000E+00  0.00000000E+00  0.00000000E+00
  0.00000000E+00  0.00000000E+00  0.00000000E+00
  0.00000000E+00  0.00000000E+00  0.00000000E+00
  0.00000000E+00  0.00000000E+00  0.00000000E+00
  0.00000000E+00  0.00000000E+00  0.00000000E+00
  0.00000000E+00  0.00000000E+00  0.00000000E+00
  0.00000000E+00  0.00000000E+00  0.00000000E+00
  0.00000000E+00  0.00000000E+00  0.00000000E+00
  0.00000000E+00  0.00000000E+00  0.00000000E+00
  0.00000000E+00  0.00000000E+00  0.00000000E+00
  0.00000000E+00  0.00000000E+00  0.00000000E+00
  0.00000000E+00  0.00000000E+00  0.00000000E+00
  0.00000000E+00  0.00000000E+00  0.00000000E+00
  0.00000000E+00  0.00000000E+00  0.00000000E+00
  0.00000000E+00  0.00000000E+00  0.00000000E+00
  0.00000000E+00  0.00000000E+00  0.00000000E+00
  0.00000000E+00  0.00000000E+00  0.00000000E+00
  0.00000000E+00  0.00000000E+00  0.00000000E+00
  0.00000000E+00  0.00000000E+00  0.00000000E+00
  0.00000000E+00  0.00000000E+00  0.00000000E+00
  0.00000000E+00  0.00000000E+00  0.00000000E+00
  0.00000000E+00  0.00000000E+00  0.00000000E+00
  0.00000000E+00  0.00000000E+00  0.00000000E+00
  0.00000000E+00  0.00000000E+00  0.00000000E+00
  0.00000000E+00  0.00000000E+00  0.00000000E+00
  0.00000000E+00  0.00000000E+00  0.00000000E+00
  0.00000000E+00  0.00000000E+00  0.00000000E+00
  0.00000000E+00  0.00000000E+00  0.00000000E+00
  0.00000000E+00  0.00000000E+00  0.00000000E+00
  0.00000000E+00  0.00000000E+00  0.00000000E+00
  0.00000000E+00  0.00000000E+00  0.00000000E+00
  0.00000000E+00  0.00000000E+00  0.00000000E+00
  0.00000000E+00  0.00000000E+00  0.00000000E+00
  0.00000000E+00  0.00000000E+00  0.00000000E+00
  0.00000000E+00  0.00000000E+00  0.00000000E+00
  0.00000000E+00  0.00000000E+00  0.00000000E+00
  0.00000000E+00  0.00000000E+00  0.00000000E+00
  0.00000000E+00  0.00000000E+00  0.00000000E+00
  0.00000000E+00  0.00000000E+00  0.00000000E+00
  0.00000000E+00  0.00000000E+00  0.00000000E+00
  0.00000000E+00  0.00000000E+00  0.00000000E+00
  0.00000000E+00  0.00000000E+00  0.00000000E+00
  0.00000000E+00  0.00000000E+00  0.00000000E+00
  0.00000000E+00  0.00000000E+00  0.00000000E+00
  0.00000000E+00  0.00000000E+00  0.00000000E+00
  0.00000000E+00  0.00000000E+00  0.00000000E+00
  0.00000000E+00  0.00000000E+00  0.00000000E+00
  0.00000000E+00  0.00000000E+00  0.00000000E+00
  0.00000000E+00  0.00000000E+00  0.00000000E+00
  0.00000000E+00  0.00000000E+00  0.00000000E+00
  0.00000000E+00  0.00000000E+00  0.00000000E+00
  0.00000000E+00  0.00000000E+00  0.00000000E+00
  0.00000000E+00  0.00000000E+00  0.00000000E+00
  0.00000000E+00  0.00000000E+00  0.00000000E+00
  0.00000000E+00  0.00000000E+00  0.00000000E+00
  0.00000000E+00  0.00000000E+00  0.00000000E+00
  0.00000000E+00  0.00000000E+00  0.00000000E+00
  0.00000000E+00  0.00000000E+00  0.00000000E+00
  0.00000000E+00  0.00000000E+00  0.00000000E+00
  0.00000000E+00  0.00000000E+00  0.00000000E+00
  0.00000000E+00  0.00000000E+00  0.00000000E+00
  0.00000000E+00  0.00000000E+00  0.00000000E+00
  0.00000000E+00  0.00000000E+00  0.00000000E+00
  0.00000000E+00  0.00000000E+00  0.00000000E+00
  0.00000000E+00  0.00000000E+00  0.00000000E+00
  0.00000000E+00  0.00000000E+00  0.00000000E+00
  0.00000000E+00  0.00000000E+00  0.00000000E+00
  0.00000000E+00  0.00000000E+00  0.00000000E+00
  0.00000000E+00  0.00000000E+00  0.00000000E+00
  0.00000000E+00  0.00000000E+00  0.00000000E+00
  0.00000000E+00  0.00000000E+00  0.00000000E+00
  0.00000000E+00  0.00000000E+00  0.00000000E+00
  0.00000000E+00  0.00000000E+00  0.00000000E+00
  0.00000000E+00  0.00000000E+00  0.00000000E+00
  0.00000000E+00  0.00000000E+00  0.00000000E+00
  0.00000000E+00  0.00000000E+00  0.00000000E+00
  0.00000000E+00  0.00000000E+00  0.00000000E+00
  0.00000000E+00  0.00000000E+00  0.00000000E+00
  0.00000000E+00  0.00000000E+00  0.00000000E+00
  0.00000000E+00  0.00000000E+00  0.00000000E+00
  0.00000000E+00  0.00000000E+00  0.00000000E+00
