
     Program PWSCF v.7.4.1 starts on  3Aug2026 at  4:22:33 

     This program is part of the open-source Quantum ESPRESSO suite
     for quantum simulation of materials; please cite
         "P. Giannozzi et al., J. Phys.:Condens. Matter 21 395502 (2009);
         "P. Giannozzi et al., J. Phys.:Condens. Matter 29 465901 (2017);
         "P. Giannozzi et al., J. Chem. Phys. 152 154105 (2020);
          URL http://www.quantum-espresso.org", 
     in publications or presentations arising from this work. More details at
     http://www.quantum-espresso.org/quote

     Parallel version (MPI), running on    36 processors

     MPI processes distributed on     1 nodes
     108476 MiB available memory on the printing compute node when the environment starts
 
     Reading input from diamond_pd_nscf.in

     Current dimensions of program PWSCF are:
     Max number of different atomic species (ntypx) = 10
     Max number of k-points (npk) =  40000
     Max angular momentum in pseudopotentials (lmaxx) =  4
     file C.pbe-n-kjpaw_psl.1.0.0.UPF: wavefunction(s)  2S 2P renormalized
     file N.pbe-n-kjpaw_psl.1.0.0.UPF: wavefunction(s)  2S renormalized

     Atomic positions and unit cell read from directory:
     ../tmp/diamond_pd.save/
 
 
     R & G space division:  proc/nbgrp/npool/nimage =      36
     Subspace diagonalization in iterative solution of the eigenvalue problem:
     one sub-group per band group will be used
     scalapack distributed-memory algorithm (size of sub-group:  6*  6 procs)

 
     Parallelization info
     --------------------
     sticks:   dense  smooth     PW     G-vecs:    dense   smooth      PW
     Min         163     163     40                 9409     9409    1174
     Max         164     164     41                 9414     9414    1179
     Sum        5877    5877   1473               338755   338755   42379
 
     Using Slab Decomposition
 


     bravais-lattice index     =            0
     lattice parameter (alat)  =      20.2515  a.u.
     unit-cell volume          =    8305.5769 (a.u.)^3
     number of atoms/cell      =          215
     number of atomic types    =            2
     number of electrons       =       860.00 (up: 430.00, down: 430.00)
     number of Kohn-Sham states=          860
     kinetic-energy cutoff     =      45.0000  Ry
     charge density cutoff     =     180.0000  Ry
     Exchange-correlation= SLA  PW   PBX  PBC
                           (   1   4   3   4   0   0   0)

     celldm(1)=  20.251472  celldm(2)=   0.000000  celldm(3)=   0.000000
     celldm(4)=   0.000000  celldm(5)=   0.000000  celldm(6)=   0.000000

     crystal axes: (cart. coord. in units of alat)
               a(1) = (  -0.707107   0.000000   0.707107 )  
               a(2) = (   0.408248   0.816497   0.408248 )  
               a(3) = (  -0.577350   0.577350  -0.577350 )  

     reciprocal axes: (cart. coord. in units 2 pi/alat)
               b(1) = ( -0.707107  0.000000  0.707107 )  
               b(2) = (  0.408248  0.816497  0.408248 )  
               b(3) = ( -0.577350  0.577350 -0.577350 )  


     PseudoPot. # 1 for C  read from file:
     ../../../pseudos/C.pbe-n-kjpaw_psl.1.0.0.UPF
     MD5 check sum: 5f16ad9a65e90284d1d834d4ab3b0f7d
     Pseudo is Projector augmented-wave + core cor, Zval =  4.0
     Generated using &quot;atomic&quot; code by A. Dal Corso  v.6.3
     Shape of augmentation charge: PSQ
     Using radial grid of 1073 points,  4 beta functions with: 
                l(1) =   0
                l(2) =   0
                l(3) =   1
                l(4) =   1
     Q(r) pseudized with 0 coefficients 


     PseudoPot. # 2 for N  read from file:
     ../../../pseudos/N.pbe-n-kjpaw_psl.1.0.0.UPF
     MD5 check sum: a6186d50559fdcbe4b2d0187dd61a119
     Pseudo is Projector augmented-wave + core cor, Zval =  5.0
     Generated using &quot;atomic&quot; code by A. Dal Corso  v.6.3
     Shape of augmentation charge: PSQ
     Using radial grid of 1085 points,  4 beta functions with: 
                l(1) =   0
                l(2) =   0
                l(3) =   1
                l(4) =   1
     Q(r) pseudized with 0 coefficients 


     atomic species   valence    mass     pseudopotential
     C                 4.00    12.01070     C ( 1.00)
     N                 5.00    14.00670     N ( 1.00)

     Starting magnetic structure 
     atomic species   magnetization
     C               0.000
     N               0.000

     No symmetry found


                                    s                        frac. trans.

      isym =  1     identity                                     

 cryst.   s( 1) = (     1          0          0      )
                  (     0          1          0      )
                  (     0          0          1      )

 cart.    s( 1) = (  1.0000000  0.0000000 -0.0000000 )
                  (  0.0000000  1.0000000  0.0000000 )
                  ( -0.0000000  0.0000000  1.0000000 )


   Cartesian axes

     site n.     atom                  positions (alat units)
         1        C      tau(   1) = (  -0.0001166   0.0002026   0.0000674  )
         2        C      tau(   2) = (  -0.1925654   0.1927843  -0.1921710  )
         3        C      tau(   3) = (  -0.3848295   0.3852118  -0.3848566  )
         4        C      tau(   4) = (   0.1357296   0.2724420   0.1361240  )
         5        C      tau(   5) = (  -0.0568288   0.4650575  -0.0560131  )
         6        C      tau(   6) = (  -0.2487501   0.6574601  -0.2488394  )
         7        C      tau(   7) = (   0.2720517   0.5445979   0.2720246  )
         8        C      tau(   8) = (   0.0796458   0.7371423   0.0795564  )
         9        C      tau(   9) = (  -0.1125947   0.9296178  -0.1129684  )
        10        C      tau(  10) = (  -0.2358492  -0.0000266   0.2358557  )
        11        C      tau(  11) = (  -0.4283066   0.1924566   0.0433492  )
        12        C      tau(  12) = (  -0.6204467   0.3852261  -0.1490056  )
        13        C      tau(  13) = (  -0.0997197   0.2721852   0.3719361  )
        14        C      tau(  14) = (  -0.2951515   0.4638595   0.1826003  )
        15        C      tau(  15) = (  -0.4823678   0.6581196  -0.0101700  )
        16        C      tau(  16) = (   0.0362041   0.5445563   0.5076452  )
        17        C      tau(  17) = (  -0.1590346   0.7365734   0.3131632  )
        18        C      tau(  18) = (  -0.3479045   0.9291631   0.1224517  )
        19        C      tau(  19) = (  -0.4714602  -0.0001152   0.4714882  )
        20        C      tau(  20) = (  -0.6641581   0.1920311   0.2790456  )
        21        C      tau(  21) = (  -0.8561487   0.3850312   0.0865636  )
        22        C      tau(  22) = (  -0.3353203   0.2718206   0.6078835  )
        23        C      tau(  23) = (  -0.5284393   0.4636182   0.4159467  )
        24        C      tau(  24) = (  -0.7190265   0.6566741   0.2225837  )
        25        C      tau(  25) = (  -0.1993230   0.5444039   0.7433894  )
        26        C      tau(  26) = (  -0.3915593   0.7361310   0.5500509  )
        27        C      tau(  27) = (  -0.5838951   0.9291504   0.3584454  )
        28        C      tau(  28) = (  -0.0499676   0.1363574   0.1859884  )
        29        C      tau(  29) = (  -0.2426941   0.3294241  -0.0055194  )
        30        C      tau(  30) = (  -0.4346214   0.5213257  -0.1986536  )
        31        C      tau(  31) = (   0.0859791   0.4085694   0.3218840  )
        32        C      tau(  32) = (  -0.1097927   0.6020393   0.1293897  )
        33        C      tau(  33) = (  -0.2983696   0.7938294  -0.0624158  )
        34        C      tau(  34) = (   0.2222308   0.6807101   0.4579580  )
        35        C      tau(  35) = (   0.0298382   0.8732184   0.2654394  )
        36        C      tau(  36) = (  -0.1624400   1.0657964   0.0730553  )
        37        C      tau(  37) = (  -0.2855016   0.1357138   0.4219581  )
        38        C      tau(  38) = (  -0.4785482   0.3273132   0.2297517  )
        39        C      tau(  39) = (  -0.6694594   0.5212529   0.0375935  )
        40        C      tau(  40) = (  -0.1495046   0.4081994   0.5577345  )
        41        C      tau(  41) = (  -0.3438184   0.5968217   0.3642282  )
        42        C      tau(  42) = (  -0.5311685   0.7914439   0.1719574  )
        43        C      tau(  43) = (  -0.0136266   0.6804887   0.6935257  )
        44        C      tau(  44) = (  -0.2060300   0.8726815   0.5008106  )
        45        C      tau(  45) = (  -0.3981356   1.0655872   0.3086733  )
        46        C      tau(  46) = (  -0.5213043   0.1360613   0.6575095  )
        47        C      tau(  47) = (  -0.7140511   0.3283424   0.4652502  )
        48        C      tau(  48) = (  -0.9059593   0.5211175   0.2724610  )
        49        C      tau(  49) = (  -0.3852593   0.4081710   0.7934627  )
        50        C      tau(  50) = (  -0.5777263   0.6006805   0.6009931  )
        51        C      tau(  51) = (  -0.7697842   0.7932263   0.4083329  )
        52        C      tau(  52) = (  -0.2491225   0.6804992   0.9293693  )
        53        C      tau(  53) = (  -0.4414682   0.8727987   0.7367458  )
        54        C      tau(  54) = (  -0.6338331   1.0655024   0.5444375  )
        55        C      tau(  55) = (  -0.2142386   0.0964986   0.0217174  )
        56        C      tau(  56) = (  -0.4065217   0.2890687  -0.1706168  )
        57        C      tau(  57) = (  -0.5989526   0.4814575  -0.3632254  )
        58        C      tau(  58) = (  -0.0792243   0.3690885   0.1579503  )
        59        C      tau(  59) = (  -0.2707314   0.5629891  -0.0315489  )
        60        C      tau(  60) = (  -0.4628153   0.7536806  -0.2272142  )
        61        C      tau(  61) = (   0.0576672   0.6407750   0.2936349  )
        62        C      tau(  62) = (  -0.1350084   0.8334675   0.1009453  )
        63        C      tau(  63) = (  -0.3268219   1.0259106  -0.0913266  )
        64        C      tau(  64) = (  -0.4500441   0.0957891   0.2574156  )
        65        C      tau(  65) = (  -0.6422745   0.2886334   0.0649646  )
        66        C      tau(  66) = (  -0.8344764   0.4813172  -0.1273241  )
        67        C      tau(  67) = (  -0.3140146   0.3672358   0.3942853  )
        68        C      tau(  68) = (  -0.5043168   0.5578783   0.2037298  )
        69        C      tau(  69) = (  -0.6980742   0.7532916   0.0087663  )
        70        C      tau(  70) = (  -0.1785224   0.6403741   0.5285304  )
        71        C      tau(  71) = (  -0.3687743   0.8308473   0.3343515  )
        72        C      tau(  72) = (  -0.5623929   1.0257317   0.1444160  )
        73        C      tau(  73) = (  -0.6856846   0.0961759   0.4931292  )
        74        C      tau(  74) = (  -0.8779967   0.2886128   0.3007253  )
        75        C      tau(  75) = (  -1.0703125   0.4812451   0.1081793  )
        76        C      tau(  76) = (  -0.5497558   0.3682071   0.6295455  )
        77        C      tau(  77) = (  -0.7419095   0.5608430   0.4368099  )
        78        C      tau(  78) = (  -0.9340228   0.7532849   0.2441912  )
        79        C      tau(  79) = (  -0.4134048   0.6406313   0.7650156  )
        80        C      tau(  80) = (  -0.6056340   0.8330558   0.5724831  )
        81        C      tau(  81) = (  -0.7981352   1.0256360   0.3801354  )
        82        C      tau(  82) = (  -0.0285591   0.2325752  -0.0278731  )
        83        C      tau(  83) = (  -0.2206325   0.4250651  -0.2200531  )
        84        C      tau(  84) = (  -0.4130722   0.6174459  -0.4130193  )
        85        C      tau(  85) = (   0.1072626   0.5046258   0.1078421  )
        86        C      tau(  86) = (  -0.0845965   0.6973493  -0.0846088  )
        87        C      tau(  87) = (  -0.2768919   0.8899314  -0.2773987  )
        88        C      tau(  88) = (   0.2438634   0.7768453   0.2439164  )
        89        C      tau(  89) = (   0.0517896   0.9696829   0.0512828  )
        90        C      tau(  90) = (  -0.1409036   1.1618181  -0.1410007  )
        91        C      tau(  91) = (  -0.2641507   0.2314220   0.2079983  )
        92        C      tau(  92) = (  -0.4563104   0.4249055   0.0156443  )
        93        C      tau(  93) = (  -0.6486292   0.6174458  -0.1768163  )
        94        C      tau(  94) = (  -0.1283965   0.5044708   0.3435581  )
        95        C      tau(  95) = (  -0.5125336   0.8897032  -0.0413779  )
        96        C      tau(  96) = (   0.0076790   0.7766929   0.4794918  )
        97        C      tau(  97) = (  -0.1841665   0.9693784   0.2869892  )
        98        C      tau(  98) = (  -0.3765570   1.1622194   0.0945553  )
        99        C      tau(  99) = (  -0.4998721   0.2318107   0.4436254  )
       100        C      tau( 100) = (  -0.6926076   0.4240104   0.2512816  )
       101        C      tau( 101) = (  -0.8841607   0.6171601   0.0585610  )
       102        C      tau( 102) = (  -0.3638418   0.5037824   0.5800474  )
       103        C      tau( 103) = (  -0.5557419   0.6965581   0.3867285  )
       104        C      tau( 104) = (  -0.7480546   0.8890822   0.1942469  )
       105        C      tau( 105) = (  -0.2276355   0.7764599   0.7150862  )
       106        C      tau( 106) = (  -0.4196420   0.9687685   0.5226595  )
       107        C      tau( 107) = (  -0.6122723   1.1616701   0.3304038  )
       108        C      tau( 108) = (  -0.0731887   0.1164578   0.0449313  )
       109        C      tau( 109) = (  -0.2657390   0.3092464  -0.1469817  )
       110        C      tau( 110) = (  -0.4579098   0.5013472  -0.3402696  )
       111        C      tau( 111) = (   0.0622897   0.3888395   0.1810469  )
       112        C      tau( 112) = (  -0.1296801   0.5816752  -0.0114580  )
       113        C      tau( 113) = (  -0.3218406   0.7738770  -0.2059566  )
       114        C      tau( 114) = (   0.1992766   0.6608074   0.3169168  )
       115        C      tau( 115) = (   0.0084594   0.8540212   0.1243435  )
       116        C      tau( 116) = (  -0.1857025   1.0457571  -0.0680407  )
       117        C      tau( 117) = (  -0.3088744   0.1156389   0.2808158  )
       118        C      tau( 118) = (  -0.5013465   0.3083517   0.0884736  )
       119        C      tau( 119) = (  -0.6930302   0.5013106  -0.1038154  )
       120        C      tau( 120) = (  -0.1729591   0.3880319   0.4168610  )
       121        C      tau( 121) = (  -0.5568269   0.7736733   0.0316931  )
       122        C      tau( 122) = (  -0.0371308   0.6604585   0.5520840  )
       123        C      tau( 123) = (  -0.2290661   0.8532014   0.3594539  )
       124        C      tau( 124) = (  -0.4219961   1.0475048   0.1678288  )
       125        C      tau( 125) = (  -0.5445822   0.1159813   0.5164405  )
       126        C      tau( 126) = (  -0.7372757   0.3082019   0.3240926  )
       127        C      tau( 127) = (  -0.9291395   0.5011994   0.1313998  )
       128        C      tau( 128) = (  -0.4085516   0.3879637   0.6528167  )
       129        C      tau( 129) = (  -0.6009207   0.5803966   0.4600929  )
       130        C      tau( 130) = (  -0.7924946   0.7730567   0.2673973  )
       131        C      tau( 131) = (  -0.2723454   0.6605644   0.7881939  )
       132        C      tau( 132) = (  -0.4646239   0.8526115   0.5952680  )
       133        C      tau( 133) = (  -0.6571848   1.0457784   0.4034364  )
       134        C      tau( 134) = (  -0.1232737   0.2523924   0.2309650  )
       135        C      tau( 135) = (  -0.3165406   0.4461481   0.0402754  )
       136        C      tau( 136) = (  -0.5073214   0.6374078  -0.1549373  )
       137        C      tau( 137) = (   0.0128234   0.5245685   0.3666898  )
       138        C      tau( 138) = (  -0.1685434   0.7212688   0.1740931  )
       139        C      tau( 139) = (  -0.3718912   0.9100771  -0.0186071  )
       140        C      tau( 140) = (   0.1493103   0.7967621   0.5027040  )
       141        C      tau( 141) = (  -0.0430951   0.9893835   0.3105360  )
       142        C      tau( 142) = (  -0.2354589   1.1819597   0.1180588  )
       143        C      tau( 143) = (  -0.3586565   0.2515449   0.4670188  )
       144        C      tau( 144) = (  -0.5522271   0.4429328   0.2750434  )
       145        C      tau( 145) = (  -0.7426629   0.6371372   0.0818516  )
       146        C      tau( 146) = (  -0.2227758   0.5242361   0.6023087  )
       147        C      tau( 147) = (  -0.4150619   0.7153124   0.4079606  )
       148        C      tau( 148) = (  -0.6072038   0.9102920   0.2178322  )
       149        C      tau( 149) = (  -0.0866074   0.7964179   0.7384662  )
       150        C      tau( 150) = (  -0.2789020   0.9888630   0.5459606  )
       151        C      tau( 151) = (  -0.4712768   1.1819547   0.3538376  )
       152        C      tau( 152) = (  -0.5945715   0.2523516   0.7023650  )
       153        C      tau( 153) = (  -0.7868995   0.4448882   0.5099839  )
       154        C      tau( 154) = (  -0.9790157   0.6372733   0.3168958  )
       155        C      tau( 155) = (  -0.4582289   0.5247397   0.8382207  )
       156        C      tau( 156) = (  -0.6505019   0.7170002   0.6455599  )
       157        C      tau( 157) = (  -0.8428519   0.9095391   0.4530313  )
       158        C      tau( 158) = (  -0.3220712   0.7967292   0.9742962  )
       159        C      tau( 159) = (  -0.5143222   0.9892516   0.7818450  )
       160        C      tau( 160) = (  -0.7069319   1.1817250   0.5893366  )
       161        C      tau( 161) = (  -0.2873750   0.2125747   0.0668638  )
       162        C      tau( 162) = (  -0.4794794   0.4051158  -0.1256130  )
       163        C      tau( 163) = (  -0.6718579   0.5975133  -0.3184643  )
       164        C      tau( 164) = (  -0.1533335   0.4857488   0.2034825  )
       165        C      tau( 165) = (  -0.3439391   0.6787107  -0.0013025  )
       166        C      tau( 166) = (  -0.5360884   0.8697633  -0.1824572  )
       167        C      tau( 167) = (  -0.0142388   0.7570497   0.3381454  )
       168        C      tau( 168) = (  -0.2070666   0.9500702   0.1462175  )
       169        C      tau( 169) = (  -0.4000064   1.1420338  -0.0464888  )
       170        C      tau( 170) = (  -0.5232099   0.2116176   0.3024655  )
       171        C      tau( 171) = (  -0.7150194   0.4047978   0.1100651  )
       172        C      tau( 172) = (  -0.9075435   0.5972254  -0.0824699  )
       173        C      tau( 173) = (  -0.3873698   0.4829339   0.4399006  )
       174        C      tau( 174) = (  -0.5767645   0.6760768   0.2462581  )
       175        C      tau( 175) = (  -0.7714012   0.8693626   0.0534614  )
       176        C      tau( 176) = (  -0.2509225   0.7564535   0.5735921  )
       177        C      tau( 177) = (  -0.4435244   0.9500073   0.3815117  )
       178        C      tau( 178) = (  -0.6357852   1.1420382   0.1893292  )
       179        C      tau( 179) = (  -0.7587625   0.2125122   0.5381741  )
       180        C      tau( 180) = (  -0.9510370   0.4051644   0.3454127  )
       181        C      tau( 181) = (  -1.1434364   0.5974326   0.1529310  )
       182        C      tau( 182) = (  -0.6227636   0.4847143   0.6741198  )
       183        C      tau( 183) = (  -0.8146997   0.6771592   0.4813620  )
       184        C      tau( 184) = (  -1.0073639   0.8696197   0.2888033  )
       185        C      tau( 185) = (  -0.4860362   0.7568902   0.8098753  )
       186        C      tau( 186) = (  -0.6785588   0.9494033   0.6173244  )
       187        C      tau( 187) = (  -0.8712345   1.1418585   0.4250339  )
       188        C      tau( 188) = (  -0.1018127   0.3490804   0.0171116  )
       189        C      tau( 189) = (  -0.2940099   0.5415260  -0.1764861  )
       190        C      tau( 190) = (  -0.4863011   0.7336403  -0.3685528  )
       191        C      tau( 191) = (   0.0353931   0.6214526   0.1529169  )
       192        C      tau( 192) = (  -0.1570875   0.8135261  -0.0403070  )
       193        C      tau( 193) = (  -0.3501881   1.0059289  -0.2324120  )
       194        C      tau( 194) = (   0.1711872   0.8931737   0.2889355  )
       195        C      tau( 195) = (  -0.0213474   1.0857190   0.0964287  )
       196        C      tau( 196) = (  -0.2139487   1.2779712  -0.0961392  )
       197        C      tau( 197) = (  -0.3373807   0.3463605   0.2533395  )
       198        C      tau( 198) = (  -0.5272778   0.5408739   0.0615655  )
       199        C      tau( 199) = (  -0.7216314   0.7333882  -0.1322831  )
       200        C      tau( 200) = (  -0.2023679   0.6197102   0.3864753  )
       201        C      tau( 201) = (  -0.3971226   0.8240109   0.1971841  )
       202        C      tau( 202) = (  -0.5858778   1.0057893   0.0033581  )
       203        C      tau( 203) = (  -0.0649963   0.8927146   0.5243521  )
       204        C      tau( 204) = (  -0.2570824   1.0855685   0.3321536  )
       205        C      tau( 205) = (  -0.4497611   1.2780689   0.1396496  )
       206        C      tau( 206) = (  -0.5731062   0.3479384   0.4886822  )
       207        C      tau( 207) = (  -0.7647778   0.5407429   0.2957696  )
       208        C      tau( 208) = (  -0.9573301   0.7332453   0.1033368  )
       209        C      tau( 209) = (  -0.4366354   0.6203636   0.6239120  )
       210        C      tau( 210) = (  -0.6287566   0.8129520   0.4315013  )
       211        C      tau( 211) = (  -0.8212891   1.0057688   0.2392228  )
       212        C      tau( 212) = (  -0.3005848   0.8925984   0.7600822  )
       213        C      tau( 213) = (  -0.4929292   1.0854423   0.5675826  )
       214        C      tau( 214) = (  -0.6853884   1.2778745   0.3753241  )
       215        N      tau( 215) = (  -0.3689840   0.5708959   0.2304614  )

   Crystallographic axes

     site n.     atom                  positions (cryst. coord.)
         1        C      tau(   1) = (  0.0001301  0.0001454  0.0001454  )
         2        C      tau(   2) = (  0.0002789  0.0003397  0.3334317  )
         3        C      tau(   3) = ( -0.0000191  0.0003011  0.6667806  )
         4        C      tau(   4) = (  0.0002789  0.3334317  0.0003397  )
         5        C      tau(   5) = (  0.0005768  0.3336504  0.3336504  )
         6        C      tau(   6) = ( -0.0000632  0.3336738  0.6668682  )
         7        C      tau(   7) = ( -0.0000191  0.6667806  0.0003011  )
         8        C      tau(   8) = ( -0.0000632  0.6668682  0.3336738  )
         9        C      tau(   9) = ( -0.0002643  0.6669440  0.6669440  )
        10        C      tau(  10) = (  0.3335457 -0.0000191 -0.0000191  )
        11        C      tau(  11) = (  0.3335110 -0.0000180  0.3333701  )
        12        C      tau(  12) = (  0.3333592  0.0004082  0.6666539  )
        13        C      tau(  13) = (  0.3335110  0.3333701 -0.0000180  )
        14        C      tau(  14) = (  0.3378215  0.3327909  0.3327909  )
        15        C      tau(  15) = (  0.3338942  0.3362747  0.6643324  )
        16        C      tau(  16) = (  0.3333592  0.6666539  0.0004082  )
        17        C      tau(  17) = (  0.3338942  0.6643324  0.3362747  )
        18        C      tau(  18) = (  0.3325921  0.6666178  0.6666178  )
        19        C      tau(  19) = (  0.6667652 -0.0000826 -0.0000826  )
        20        C      tau(  20) = (  0.6669458 -0.0004287  0.3332140  )
        21        C      tau(  21) = (  0.6665983  0.0001949  0.6666181  )
        22        C      tau(  22) = (  0.6669458  0.3332140 -0.0004287  )
        23        C      tau(  23) = (  0.6677818  0.3326178  0.3326178  )
        24        C      tau(  24) = (  0.6658189  0.3335002  0.6657524  )
        25        C      tau(  25) = (  0.6665983  0.6666181  0.0001949  )
        26        C      tau(  26) = (  0.6658189  0.6657524  0.3335002  )
        27        C      tau(  27) = (  0.6663353  0.6666086  0.6666086  )
        28        C      tau(  28) = (  0.1668461  0.1668657  0.0001943  )
        29        C      tau(  29) = (  0.1677078  0.1676409  0.3334992  )
        30        C      tau(  30) = (  0.1668544  0.1671272  0.6666090  )
        31        C      tau(  31) = (  0.1668099  0.5001049  0.0004078  )
        32        C      tau(  32) = (  0.1691275  0.4995635  0.3362732  )
        33        C      tau(  33) = (  0.1668445  0.5008690  0.6666172  )
        34        C      tau(  34) = (  0.1666843  0.8334834  0.0003009  )
        35        C      tau(  35) = (  0.1665952  0.8335264  0.3336742  )
        36        C      tau(  36) = (  0.1665203  0.8337280  0.6669441  )
        37        C      tau(  37) = (  0.5002495  0.1665179 -0.0004288  )
        38        C      tau(  38) = (  0.5008436  0.1656794  0.3326171  )
        39        C      tau(  39) = (  0.4999618  0.1676430  0.6657534  )
        40        C      tau(  40) = (  0.5000935  0.4999526 -0.0000176  )
        41        C      tau(  41) = (  0.5006646  0.4956352  0.3327916  )
        42        C      tau(  42) = (  0.4971851  0.4995639  0.6643310  )
        43        C      tau(  43) = (  0.5000322  0.8331843  0.0003404  )
        44        C      tau(  44) = (  0.4998117  0.8328852  0.3336513  )
        45        C      tau(  45) = (  0.4997894  0.8335255  0.6668681  )
        46        C      tau(  46) = (  0.8335472  0.1666991 -0.0000831  )
        47        C      tau(  47) = (  0.8338920  0.1665179  0.3332139  )
        48        C      tau(  48) = (  0.8332690  0.1668661  0.6666178  )
        49        C      tau(  49) = (  0.8334823  0.4999185 -0.0000187  )
        50        C      tau(  50) = (  0.8334805  0.4999522  0.3333700  )
        51        C      tau(  51) = (  0.8330546  0.5001047  0.6666534  )
        52        C      tau(  52) = (  0.8333195  0.8333348  0.0001457  )
        53        C      tau(  53) = (  0.8331231  0.8331837  0.3334319  )
        54        C      tau(  54) = (  0.8331631  0.8334835  0.6667806  )
        55        C      tau(  55) = (  0.1668461  0.0001943  0.1668657  )
        56        C      tau(  56) = (  0.1668099  0.0004078  0.5001049  )
        57        C      tau(  57) = (  0.1666843  0.0003009  0.8334834  )
        58        C      tau(  58) = (  0.1677078  0.3334992  0.1676409  )
        59        C      tau(  59) = (  0.1691275  0.3362732  0.4995635  )
        60        C      tau(  60) = (  0.1665952  0.3336743  0.8335264  )
        61        C      tau(  61) = (  0.1668544  0.6666090  0.1671272  )
        62        C      tau(  62) = (  0.1668445  0.6666172  0.5008690  )
        63        C      tau(  63) = (  0.1665203  0.6669441  0.8337280  )
        64        C      tau(  64) = (  0.5002495 -0.0004288  0.1665179  )
        65        C      tau(  65) = (  0.5000935 -0.0000176  0.4999526  )
        66        C      tau(  66) = (  0.5000322  0.0003404  0.8331843  )
        67        C      tau(  67) = (  0.5008436  0.3326171  0.1656794  )
        68        C      tau(  68) = (  0.5006646  0.3327916  0.4956351  )
        69        C      tau(  69) = (  0.4998117  0.3336513  0.8328852  )
        70        C      tau(  70) = (  0.4999618  0.6657534  0.1676430  )
        71        C      tau(  71) = (  0.4971851  0.6643310  0.4995639  )
        72        C      tau(  72) = (  0.4997894  0.6668681  0.8335255  )
        73        C      tau(  73) = (  0.8335472 -0.0000831  0.1666991  )
        74        C      tau(  74) = (  0.8334823 -0.0000187  0.4999185  )
        75        C      tau(  75) = (  0.8333195  0.0001457  0.8333348  )
        76        C      tau(  76) = (  0.8338920  0.3332139  0.1665179  )
        77        C      tau(  77) = (  0.8334805  0.3333700  0.4999522  )
        78        C      tau(  78) = (  0.8331231  0.3334319  0.8331837  )
        79        C      tau(  79) = (  0.8332690  0.6666178  0.1668661  )
        80        C      tau(  80) = (  0.8330546  0.6666534  0.5001046  )
        81        C      tau(  81) = (  0.8331631  0.6667806  0.8334835  )
        82        C      tau(  82) = (  0.0004851  0.1668585  0.1668585  )
        83        C      tau(  83) = (  0.0004097  0.1671550  0.4998414  )
        84        C      tau(  84) = (  0.0000374  0.1668920  0.8334268  )
        85        C      tau(  85) = (  0.0004097  0.4998414  0.1671550  )
        86        C      tau(  86) = ( -0.0000087  0.5003056  0.5003056  )
        87        C      tau(  87) = ( -0.0003584  0.5003378  0.8338220  )
        88        C      tau(  88) = (  0.0000374  0.8334268  0.1668920  )
        89        C      tau(  89) = ( -0.0003584  0.8338220  0.5003378  )
        90        C      tau(  90) = ( -0.0000687  0.8335335  0.8335335  )
        91        C      tau(  91) = (  0.3338598  0.1660311  0.1660311  )
        92        C      tau(  92) = (  0.3337223  0.1670328  0.4997380  )
        93        C      tau(  93) = (  0.3336221  0.1671557  0.8330537  )
        94        C      tau(  94) = (  0.3337223  0.4997380  0.1670328  )
        95        C      tau(  95) = (  0.3331574  0.5003062  0.8334713  )
        96        C      tau(  96) = (  0.3336221  0.8330537  0.1671557  )
        97        C      tau(  97) = (  0.3331574  0.8334713  0.5003062  )
        98        C      tau(  98) = (  0.3331267  0.8338214  0.8338214  )
        99        C      tau(  99) = (  0.6671534  0.1663100  0.1663100  )
       100        C      tau( 100) = (  0.6674305  0.1660325  0.4996022  )
       101        C      tau( 101) = (  0.6666049  0.1668595  0.8329778  )
       102        C      tau( 102) = (  0.6674305  0.4996022  0.1660325  )
       103        C      tau( 103) = (  0.6664272  0.4997379  0.4997379  )
       104        C      tau( 104) = (  0.6663078  0.4998416  0.8330529  )
       105        C      tau( 105) = (  0.6666049  0.8329778  0.1668595  )
       106        C      tau( 106) = (  0.6663078  0.8330529  0.4998416  )
       107        C      tau( 107) = (  0.6665727  0.8334274  0.8334274  )
       108        C      tau( 108) = (  0.0835234  0.0835514  0.0835514  )
       109        C      tau( 109) = (  0.0839741  0.0840062  0.4168279  )
       110        C      tau( 110) = (  0.0831842  0.0834930  0.7502820  )
       111        C      tau( 111) = (  0.0839741  0.4168279  0.0840062  )
       112        C      tau( 112) = (  0.0835956  0.4173164  0.4173164  )
       113        C      tau( 113) = (  0.0819424  0.4163956  0.7515219  )
       114        C      tau( 114) = (  0.0831842  0.7502820  0.0834930  )
       115        C      tau( 115) = (  0.0819424  0.7515219  0.4163956  )
       116        C      tau( 116) = (  0.0831995  0.7502669  0.7502669  )
       117        C      tau( 117) = (  0.4169739  0.0829638  0.0829638  )
       118        C      tau( 118) = (  0.4170658  0.0832135  0.4163992  )
       119        C      tau( 119) = (  0.4166378  0.0840076  0.7494908  )
       120        C      tau( 120) = (  0.4170658  0.4163992  0.0832135  )
       121        C      tau( 121) = (  0.4161465  0.4173166  0.7498667  )
       122        C      tau( 122) = (  0.4166378  0.7494908  0.0840076  )
       123        C      tau( 123) = (  0.4161465  0.7498667  0.4173166  )
       124        C      tau( 124) = (  0.4170692  0.7515207  0.7515207  )
       125        C      tau( 125) = (  0.7502564  0.0832095  0.0832095  )
       126        C      tau( 126) = (  0.7505007  0.0829645  0.4164918  )
       127        C      tau( 127) = (  0.7499145  0.0835517  0.7499428  )
       128        C      tau( 128) = (  0.7505007  0.4164918  0.0829645  )
       129        C      tau( 129) = (  0.7502499  0.4163991  0.4163991  )
       130        C      tau( 130) = (  0.7494568  0.4168280  0.7494896  )
       131        C      tau( 131) = (  0.7499145  0.7499428  0.0835517  )
       132        C      tau( 132) = (  0.7494568  0.7494896  0.4168280  )
       133        C      tau( 133) = (  0.7499724  0.7502821  0.7502821  )
       134        C      tau( 134) = (  0.2504846  0.2500423  0.0835432  )
       135        C      tau( 135) = (  0.2523070  0.2514936  0.4170855  )
       136        C      tau( 136) = (  0.2491732  0.2500753  0.7503628  )
       137        C      tau( 137) = (  0.2502213  0.5832440  0.0837478  )
       138        C      tau( 138) = (  0.2422806  0.5911792  0.4132207  )
       139        C      tau( 139) = (  0.2498096  0.5836546  0.7508875  )
       140        C      tau( 140) = (  0.2498870  0.9167373  0.0835702  )
       141        C      tau( 141) = (  0.2500550  0.9170106  0.4168137  )
       142        C      tau( 142) = (  0.2499747  0.9171376  0.7501857  )
       143        C      tau( 143) = (  0.5838406  0.2496243  0.0826665  )
       144        C      tau( 144) = (  0.5849686  0.2484933  0.4157595  )
       145        C      tau( 145) = (  0.5830198  0.2504452  0.7493710  )
       146        C      tau( 146) = (  0.5834228  0.5829807  0.0835445  )
       147        C      tau( 147) = (  0.5819648  0.5811510  0.4170857  )
       148        C      tau( 148) = (  0.5833886  0.5842900  0.7503611  )
       149        C      tau( 149) = (  0.5834152  0.9163927  0.0834612  )
       150        C      tau( 150) = (  0.5832659  0.9164294  0.4167339  )
       151        C      tau( 151) = (  0.5834440  0.9171176  0.7502054  )
       152        C      tau( 152) = (  0.9170726  0.2500507  0.0834607  )
       153        C      tau( 153) = (  0.9170350  0.2501994  0.4167337  )
       154        C      tau( 154) = (  0.9163478  0.2500221  0.7502050  )
       155        C      tau( 155) = (  0.9167283  0.5835791  0.0835702  )
       156        C      tau( 156) = (  0.9164540  0.5834107  0.4168136  )
       157        C      tau( 157) = (  0.9163278  0.5834920  0.7501857  )
       158        C      tau( 158) = (  0.9166702  0.9167964  0.0834295  )
       159        C      tau( 159) = (  0.9165287  0.9169363  0.4166904  )
       160        C      tau( 160) = (  0.9166002  0.9168664  0.7501630  )
       161        C      tau( 161) = (  0.2504846  0.0835432  0.2500423  )
       162        C      tau( 162) = (  0.2502213  0.0837478  0.5832440  )
       163        C      tau( 163) = (  0.2498870  0.0835702  0.9167373  )
       164        C      tau( 164) = (  0.2523070  0.4170855  0.2514936  )
       165        C      tau( 165) = (  0.2422806  0.4132207  0.5911792  )
       166        C      tau( 166) = (  0.2500550  0.4168137  0.9170106  )
       167        C      tau( 167) = (  0.2491732  0.7503628  0.2500753  )
       168        C      tau( 168) = (  0.2498096  0.7508875  0.5836546  )
       169        C      tau( 169) = (  0.2499747  0.7501857  0.9171376  )
       170        C      tau( 170) = (  0.5838406  0.0826665  0.2496243  )
       171        C      tau( 171) = (  0.5834228  0.0835445  0.5829807  )
       172        C      tau( 172) = (  0.5834152  0.0834612  0.9163927  )
       173        C      tau( 173) = (  0.5849686  0.4157595  0.2484933  )
       174        C      tau( 174) = (  0.5819648  0.4170857  0.5811510  )
       175        C      tau( 175) = (  0.5832659  0.4167339  0.9164294  )
       176        C      tau( 176) = (  0.5830198  0.7493710  0.2504452  )
       177        C      tau( 177) = (  0.5833886  0.7503611  0.5842900  )
       178        C      tau( 178) = (  0.5834440  0.7502054  0.9171176  )
       179        C      tau( 179) = (  0.9170726  0.0834607  0.2500507  )
       180        C      tau( 180) = (  0.9167283  0.0835702  0.5835791  )
       181        C      tau( 181) = (  0.9166702  0.0834295  0.9167964  )
       182        C      tau( 182) = (  0.9170350  0.4167337  0.2501994  )
       183        C      tau( 183) = (  0.9164540  0.4168136  0.5834107  )
       184        C      tau( 184) = (  0.9165286  0.4166904  0.9169363  )
       185        C      tau( 185) = (  0.9163478  0.7502050  0.2500221  )
       186        C      tau( 186) = (  0.9163278  0.7501857  0.5834920  )
       187        C      tau( 187) = (  0.9166002  0.7501630  0.9168664  )
       188        C      tau( 188) = (  0.0840922  0.2504439  0.2504439  )
       189        C      tau( 189) = (  0.0831019  0.2500750  0.5842912  )
       190        C      tau( 190) = (  0.0832606  0.2500221  0.9171176  )
       191        C      tau( 191) = (  0.0831019  0.5842912  0.2500750  )
       192        C      tau( 192) = (  0.0825763  0.5836553  0.5836553  )
       193        C      tau( 193) = (  0.0832803  0.5834920  0.9171376  )
       194        C      tau( 194) = (  0.0832606  0.9171176  0.2500221  )
       195        C      tau( 195) = (  0.0832803  0.9171376  0.5834920  )
       196        C      tau( 196) = (  0.0833039  0.9168663  0.9168663  )
       197        C      tau( 197) = (  0.4177022  0.2484925  0.2484925  )
       198        C      tau( 198) = (  0.4163751  0.2514954  0.5811528  )
       199        C      tau( 199) = (  0.4167322  0.2501998  0.9164296  )
       200        C      tau( 200) = (  0.4163751  0.5811528  0.2514954  )
       201        C      tau( 201) = (  0.4202383  0.5911775  0.5911775  )
       202        C      tau( 202) = (  0.4166527  0.5834109  0.9170107  )
       203        C      tau( 203) = (  0.4167322  0.9164296  0.2501998  )
       204        C      tau( 204) = (  0.4166527  0.9170107  0.5834109  )
       205        C      tau( 205) = (  0.4167763  0.9169364  0.9169364  )
       206        C      tau( 206) = (  0.7507977  0.2496246  0.2496246  )
       207        C      tau( 207) = (  0.7499203  0.2500429  0.5829800  )
       208        C      tau( 208) = (  0.7500048  0.2500510  0.9163926  )
       209        C      tau( 209) = (  0.7499203  0.5829800  0.2500429  )
       210        C      tau( 210) = (  0.7497155  0.5832434  0.5832434  )
       211        C      tau( 211) = (  0.7498951  0.5835793  0.9167370  )
       212        C      tau( 212) = (  0.7500048  0.9163926  0.2500510  )
       213        C      tau( 213) = (  0.7498951  0.9167370  0.5835792  )
       214        C      tau( 214) = (  0.7500370  0.9167969  0.9167969  )
       215        N      tau( 215) = (  0.4238719  0.4095829  0.4095829  )

     number of k points=     1
                       cart. coord. in units 2pi/alat
        k(    1) = (   0.0000000   0.0000000   0.0000000), wk =   1.0000000

                       cryst. coord.
        k(    1) = (   0.0000000   0.0000000   0.0000000), wk =   1.0000000

     Dense  grid:   338755 G-vectors     FFT dimensions: (  90,  90,  90)

     Dynamical RAM for                 wfc:      15.43 MB

     Dynamical RAM for     wfc (w. buffer):      46.30 MB

     Dynamical RAM for           str. fact:       0.29 MB

     Dynamical RAM for           local pot:       0.00 MB

     Dynamical RAM for          nlocal pot:      30.86 MB

     Dynamical RAM for                qrad:       0.62 MB

     Dynamical RAM for          rho,v,vnew:       1.97 MB

     Dynamical RAM for           G-vectors:       0.61 MB

     Dynamical RAM for          h,s,v(r/c):       3.74 MB

     Dynamical RAM for          <psi|beta>:      22.57 MB

     Dynamical RAM for                 psi:      30.86 MB

     Dynamical RAM for                hpsi:      30.86 MB

     Dynamical RAM for                spsi:      30.86 MB

     Dynamical RAM for      wfcinit/wfcrot:      47.80 MB

     Dynamical RAM for           addusdens:      37.06 MB

     Estimated static dynamical RAM per process >      82.19 MB

     Estimated max dynamical RAM per process >     201.10 MB

     Estimated total dynamical RAM >       7.07 GB

     Check: negative core charge=   -0.000075
     Generating pointlists ...
     new r_m :   0.0570 (alat units)  1.1534 (a.u.) for type    1
     new r_m :   0.0572 (alat units)  1.1575 (a.u.) for type    2

     The potential is recalculated from file :
     ../tmp/diamond_pd.save/charge-density

     Starting wfcs are random
     Checking if some PAW data can be deallocated... 
       PAW data deallocated on   35 nodes for type:  2

     Band Structure Calculation
     Davidson diagonalization with overlap

     Computing kpt #:     1  of     2
     total cpu time spent up to now is      178.9 secs

     Computing kpt #:     2  of     2
     total cpu time spent up to now is      354.7 secs

     ethr =  1.16E-12,  avg # of iterations = 92.0

     total cpu time spent up to now is      354.7 secs

     End of band structure calculation

 ------ SPIN UP ------------


          k = 0.0000 0.0000 0.0000 ( 42379 PWs)   bands (ev):

    -8.2494  -7.4460  -7.2295  -7.2294  -7.2027  -7.2027  -7.1635  -6.5788
    -6.2498  -6.2497  -6.2100  -6.2099  -6.2001  -6.2001  -6.1978  -6.1973
    -6.1973  -6.1965  -6.0596  -5.4530  -5.2417  -5.2414  -5.2413  -5.2209
    -5.2209  -5.2204  -5.0995  -4.4814  -4.2402  -4.2402  -4.2259  -4.2259
    -4.1269  -3.8468  -3.3743  -3.3742  -3.3405  -3.3405  -3.3126  -3.3126
    -3.3029  -3.2994  -3.2994  -3.2940  -3.2940  -3.2905  -3.2850  -3.2845
    -3.2844  -3.2795  -3.2795  -3.2727  -3.2692  -3.2675  -3.2551  -3.2551
    -2.9761  -2.7950  -2.5818  -2.5817  -2.5365  -2.5274  -2.5274  -2.5208
    -2.5208  -2.5174  -2.5174  -2.5132  -2.5043  -2.4951  -2.4951  -2.4833
    -2.4833  -2.4800  -2.4778  -2.4777  -2.4742  -2.4558  -2.4527  -2.4527
    -1.8201  -1.0501  -0.8796  -0.8796  -0.8616  -0.8616  -0.8481  -0.8418
    -0.8418  -0.8293  -0.8133  -0.8133  -0.5247   0.3196   0.4151   0.4152
     0.4570   0.4570   0.5425   0.7190   0.8797   0.8797   0.9250   0.9250
     0.9385   0.9386   0.9459   0.9649   0.9649   0.9851   0.9852   0.9877
     0.9878   1.0025   1.0025   1.0045   1.0138   1.0143   1.0144   1.0202
     1.0252   1.0253   1.0382   1.1713   1.1740   1.1740   1.1793   1.1836
     1.1868   1.1868   1.2020   1.2021   1.2024   1.2057   1.2057   1.2205
     1.2205   1.2274   1.2293   1.2293   1.2321   1.2372   1.2373   1.3181
     1.4551   1.4552   1.9866   2.2069   2.2069   2.2132   2.2433   2.2617
     2.2760   2.2761   2.2797   2.2797   2.3473   2.3473   3.3007   3.7372
     3.7478   3.7478   3.7868   3.8166   3.8166   3.8274   3.8350   3.8380
     3.8380   3.8410   3.8504   3.8507   3.8507   3.8567   3.8568   3.9972
     3.9972   3.9991   4.0141   4.3889   4.3890   4.4010   4.4468   4.4468
     4.4488   4.4631   4.4840   4.4840   4.4888   4.4889   4.4988   4.5127
     4.5128   4.5139   4.5140   4.5160   4.5225   4.5225   4.5272   4.5515
     4.6752   4.6753   5.2469   5.2469   5.3156   5.3318   5.3694   5.3695
     5.3784   5.3886   5.3887   5.4002   5.4119   5.4120   5.4137   5.4186
     5.4187   5.4261   5.4262   5.4272   5.4344   5.4345   5.4455   5.5513
     5.5658   5.5659   5.6143   5.7979   5.7979   5.8216   5.8572   5.8572
     5.8759   5.8759   5.8881   5.8910   5.8910   5.8945   5.8975   5.9002
     5.9002   5.9060   5.9098   5.9098   5.9161   5.9162   5.9281   5.9347
     5.9399   5.9587   5.9587   6.0051   6.0051   6.2765   6.3188   6.3189
     6.8651   6.8652   6.9142   6.9282   6.9344   6.9345   7.0022   7.4061
     7.4061   7.4241   7.4781   7.4782   7.4877   7.4877   7.5018   7.5072
     7.5651   7.5651   7.7432   7.7433   7.8162   7.8485   7.8509   7.8514
     7.8515   7.8856   7.8857   7.9125   7.9181   7.9363   7.9364   8.0189
     8.0190   8.0488   8.0489   8.1150   8.1300   8.1708   8.1859   8.1860
     8.2052   8.2052   8.2105   8.2105   8.2146   8.2319   8.2364   8.2413
     8.2413   8.2496   8.2497   8.2719   8.2719   8.2742   8.2822   8.2822
     8.3107   8.3227   8.3462   8.3463   8.3547   8.3557   8.3631   8.3631
     8.3660   8.3843   8.3844   8.3862   8.3862   8.3918   8.3918   8.3924
     8.3927   8.4013   8.4014   8.4038   8.4039   8.4068   8.4077   8.4077
     8.4130   8.4159   8.4219   8.4219   8.4225   8.4692   8.4693   8.5003
     8.5003   8.5051   8.5060   8.5078   8.5078   8.5219   8.5236   8.5236
     8.5316   8.5317   8.5636   8.9690   8.9886   8.9886   9.1281   9.1282
     9.1619   9.1619   9.1781   9.2035   9.2057   9.2057   9.2169   9.2268
     9.2269   9.2371   9.2437   9.2466   9.2466   9.2499   9.2499   9.2605
     9.2629   9.2629   9.2942   9.9079  10.0118  10.0120  10.2988  10.5477
    10.5478  10.5583  10.5783  10.5784  10.5821  10.6263  10.6264  10.6478
    10.7009  10.7140  10.7141  10.7658  10.7659  10.8273  10.8274  10.8427
    10.8462  10.8463  10.8675  10.8677  10.8734  10.8822  10.8823  10.9078
    10.9138  10.9264  10.9264  10.9335  10.9335  11.5129  11.5874  11.5947
    11.5948  11.7664  11.7665  11.7726  11.8003  11.8003  11.8037  11.8106
    11.8108  11.8249  12.8203  13.0041  13.0044  13.5420  14.4157  14.4159
    17.3491  17.3491  17.3618  17.4094  17.4094  17.4361  17.8912  17.9590
    17.9590  17.9919  17.9919  18.0057  18.1253  18.1253  18.1315  18.2364
    18.2364  18.2498  18.7983  18.7986  18.8503  19.3999  19.5031  19.5183
    19.5183  19.5219  19.5219  19.5524  19.5982  19.5982  19.6229  19.6229
    19.6762  20.0477  20.1756  20.1756  20.2047  20.2060  20.2361  20.2361
    20.2668  20.2668  20.2810  20.2867  20.2868  20.2959  20.3001  20.3002
    20.3004  20.3237  20.3239  20.3764  20.3765  20.3788  20.4216  20.4217
    20.4433  20.6564  20.6565  20.6792  20.7305  20.7732  20.7732  20.7867
    20.7868  20.8098  20.8230  20.8231  20.8232  20.8316  20.8345  20.8392
    20.8392  20.8522  20.8522  20.8616  20.8671  20.8671  20.8727  20.8728
    20.8777  20.8826  20.8826  20.8915  20.8956  20.8956  20.9103  20.9212
    20.9320  20.9320  20.9411  20.9411  20.9520  21.0536  21.0548  21.0548
    21.1167  21.1168  21.1527  21.2463  21.2828  21.2829  21.3104  21.3617
    21.3617  21.3618  21.3697  21.3745  21.3745  21.3923  21.3939  21.3941
    21.4035  21.4051  21.4052  21.4134  21.4135  21.4174  21.4250  21.4285
    21.4286  21.4420  21.4422  21.4609  21.4610  21.4635  21.4690  21.4691
    21.4770  21.4771  21.4776  21.4961  21.4964  21.5018  21.5976  21.5976
    21.6236  21.6750  21.7150  21.7150  21.7269  21.7269  21.7414  21.7520
    21.7616  21.7616  21.7713  21.7855  21.7954  21.8039  21.8040  21.8195
    21.8195  21.9503  21.9504  22.0286  22.0287  22.0410  22.1434  22.1671
    22.1672  22.2096  22.2097  22.2320  22.2326  22.2328  22.2584  22.3686
    22.3776  22.3776  22.4545  22.4877  22.4928  22.4930  22.5103  22.5104
    22.5958  22.6052  22.6053  22.6801  22.8457  22.8458  22.8741  23.1315
    23.1420  23.1420  23.1505  23.1505  23.1636  23.1687  23.1775  23.1776
    23.1889  23.1890  23.1908  23.1909  23.1913  23.2001  23.2107  23.2350
    23.2915  23.2916  23.3706  23.3706  23.4217  23.4290  23.4290  23.6944
    23.7836  23.7839  23.8069  23.8234  23.8234  23.8532  23.8787  23.8836
    23.8837  23.8938  23.8938  23.8987  23.9357  23.9357  23.9371  23.9688
    23.9845  23.9869  23.9869  24.1104  24.1105  24.1552  24.1553  24.2484
    24.2484  24.2765  24.2995  24.3337  24.3338  24.3429  24.3429  24.3506
    24.3529  24.3602  24.3603  24.3856  24.3967  24.3967  24.4213  24.4213
    24.4408  24.4408  24.4487  24.4684  24.4685  24.4685  24.4838  24.5270
    24.5271  24.5297  24.5340  24.5414  24.5578  24.5579  24.5692  24.5748
    24.5748  24.5799  24.5867  24.5868  24.5874  24.5939  24.5939  24.6339
    24.6340  24.7671  24.7671  25.3637  25.4101  25.4102  25.4576  25.7922
    25.7922  25.8334  25.8466  25.8466  25.9668  26.0302  26.0367  26.0367
    26.0726  26.0727  26.1592  26.1687  26.1687  26.1728  26.2510  26.2511
    26.2559  26.4735  26.5958  26.5958  26.6070  26.6478  26.6595  26.6595
    26.6816  26.7092  26.7093  26.7342  26.7342  26.7539  26.7539  26.7584
    26.7866  26.8046  26.8410  26.8410  26.8701  26.8843  26.8843  26.9209
    26.9209  27.0879  27.0879  27.0942  27.1184  27.1401  27.1401  27.1811
    27.1811  27.1915  27.1998  27.1999  27.2242  27.2299  27.2299  27.2502
    27.2584  27.2585  27.2714  27.2837  27.2910  27.2919  27.2919  27.3014
    27.3014  27.3090  27.3101  27.3102  27.3131  27.3131  27.3285  27.3287
    27.3287  27.3404  27.3463  27.3507  27.3507  27.3655  27.3750  27.3751
    27.4011  27.4123  27.4123  27.4248  27.4453  27.4460  27.4461  27.4489
    27.4489  27.4759  27.4897  27.4898  27.4901  27.5228  27.5228  27.5337
    27.5591  27.5599  27.5600  27.5601  27.5674  27.5674  27.5809  27.5810
    27.6120  27.6189  27.6220  27.6220  27.6398  27.6398  27.6424  27.6546
    27.6647  27.6648  27.7154  27.7233  27.7233  27.7613  27.7613  27.9185
    27.9185  27.9379  27.9396  28.0154  28.0541  28.0541  28.0825  28.0825
    28.1238  28.1238  28.1304  28.2013  28.2099  28.2100  28.2936  28.3537
    28.3538  28.3595  28.3678  28.4074  28.4075  28.4280  29.3251  29.7923
    29.8206  29.8207  29.9257  29.9259

     occupation numbers 
     1.0000   1.0000   1.0000   1.0000   1.0000   1.0000   1.0000   1.0000
     1.0000   1.0000   1.0000   1.0000   1.0000   1.0000   1.0000   1.0000
     1.0000   1.0000   1.0000   1.0000   1.0000   1.0000   1.0000   1.0000
     1.0000   1.0000   1.0000   1.0000   1.0000   1.0000   1.0000   1.0000
     1.0000   1.0000   1.0000   1.0000   1.0000   1.0000   1.0000   1.0000
     1.0000   1.0000   1.0000   1.0000   1.0000   1.0000   1.0000   1.0000
     1.0000   1.0000   1.0000   1.0000   1.0000   1.0000   1.0000   1.0000
     1.0000   1.0000   1.0000   1.0000   1.0000   1.0000   1.0000   1.0000
     1.0000   1.0000   1.0000   1.0000   1.0000   1.0000   1.0000   1.0000
     1.0000   1.0000   1.0000   1.0000   1.0000   1.0000   1.0000   1.0000
     1.0000   1.0000   1.0000   1.0000   1.0000   1.0000   1.0000   1.0000
     1.0000   1.0000   1.0000   1.0000   1.0000   1.0000   1.0000   1.0000
     1.0000   1.0000   1.0000   1.0000   1.0000   1.0000   1.0000   1.0000
     1.0000   1.0000   1.0000   1.0000   1.0000   1.0000   1.0000   1.0000
     1.0000   1.0000   1.0000   1.0000   1.0000   1.0000   1.0000   1.0000
     1.0000   1.0000   1.0000   1.0000   1.0000   1.0000   1.0000   1.0000
     1.0000   1.0000   1.0000   1.0000   1.0000   1.0000   1.0000   1.0000
     1.0000   1.0000   1.0000   1.0000   1.0000   1.0000   1.0000   1.0000
     1.0000   1.0000   1.0000   1.0000   1.0000   1.0000   1.0000   1.0000
     1.0000   1.0000   1.0000   1.0000   1.0000   1.0000   1.0000   1.0000
     1.0000   1.0000   1.0000   1.0000   1.0000   1.0000   1.0000   1.0000
     1.0000   1.0000   1.0000   1.0000   1.0000   1.0000   1.0000   1.0000
     1.0000   1.0000   1.0000   1.0000   1.0000   1.0000   1.0000   1.0000
     1.0000   1.0000   1.0000   1.0000   1.0000   1.0000   1.0000   1.0000
     1.0000   1.0000   1.0000   1.0000   1.0000   1.0000   1.0000   1.0000
     1.0000   1.0000   1.0000   1.0000   1.0000   1.0000   1.0000   1.0000
     1.0000   1.0000   1.0000   1.0000   1.0000   1.0000   1.0000   1.0000
     1.0000   1.0000   1.0000   1.0000   1.0000   1.0000   1.0000   1.0000
     1.0000   1.0000   1.0000   1.0000   1.0000   1.0000   1.0000   1.0000
     1.0000   1.0000   1.0000   1.0000   1.0000   1.0000   1.0000   1.0000
     1.0000   1.0000   1.0000   1.0000   1.0000   1.0000   1.0000   1.0000
     1.0000   1.0000   1.0000   1.0000   1.0000   1.0000   1.0000   1.0000
     1.0000   1.0000   1.0000   1.0000   1.0000   1.0000   1.0000   1.0000
     1.0000   1.0000   1.0000   1.0000   1.0000   1.0000   1.0000   1.0000
     1.0000   1.0000   1.0000   1.0000   1.0000   1.0000   1.0000   1.0000
     1.0000   1.0000   1.0000   1.0000   1.0000   1.0000   1.0000   1.0000
     1.0000   1.0000   1.0000   1.0000   1.0000   1.0000   1.0000   1.0000
     1.0000   1.0000   1.0000   1.0000   1.0000   1.0000   1.0000   1.0000
     1.0000   1.0000   1.0000   1.0000   1.0000   1.0000   1.0000   1.0000
     1.0000   1.0000   1.0000   1.0000   1.0000   1.0000   1.0000   1.0000
     1.0000   1.0000   1.0000   1.0000   1.0000   1.0000   1.0000   1.0000
     1.0000   1.0000   1.0000   1.0000   1.0000   1.0000   1.0000   1.0000
     1.0000   1.0000   1.0000   1.0000   1.0000   1.0000   1.0000   1.0000
     1.0000   1.0000   1.0000   1.0000   1.0000   1.0000   1.0000   1.0000
     1.0000   1.0000   1.0000   1.0000   1.0000   1.0000   1.0000   1.0000
     1.0000   1.0000   1.0000   1.0000   1.0000   1.0000   1.0000   1.0000
     1.0000   1.0000   1.0000   1.0000   1.0000   1.0000   1.0000   1.0000
     1.0000   1.0000   1.0000   1.0000   1.0000   1.0000   1.0000   1.0000
     1.0000   1.0000   1.0000   1.0000   1.0000   1.0000   1.0000   1.0000
     1.0000   1.0000   1.0000   1.0000   1.0000   1.0000   1.0000   1.0000
     1.0000   1.0000   1.0000   1.0000   1.0000   1.0000   1.0000   1.0000
     1.0000   1.0000   1.0000   1.0000   1.0000   1.0000   1.0000   1.0000
     1.0000   1.0000   1.0000   1.0000   1.0000   1.0000   1.0000   1.0000
     1.0000   1.0000   1.0000   1.0000   1.0000   1.0000   0.0000   0.0000
     0.0000   0.0000   0.0000   0.0000   0.0000   0.0000   0.0000   0.0000
     0.0000   0.0000   0.0000   0.0000   0.0000   0.0000   0.0000   0.0000
     0.0000   0.0000   0.0000   0.0000   0.0000   0.0000   0.0000   0.0000
     0.0000   0.0000   0.0000   0.0000   0.0000   0.0000   0.0000   0.0000
     0.0000   0.0000   0.0000   0.0000   0.0000   0.0000   0.0000   0.0000
     0.0000   0.0000   0.0000   0.0000   0.0000   0.0000   0.0000   0.0000
     0.0000   0.0000   0.0000   0.0000   0.0000   0.0000   0.0000   0.0000
     0.0000   0.0000   0.0000   0.0000   0.0000   0.0000   0.0000   0.0000
     0.0000   0.0000   0.0000   0.0000   0.0000   0.0000   0.0000   0.0000
     0.0000   0.0000   0.0000   0.0000   0.0000   0.0000   0.0000   0.0000
     0.0000   0.0000   0.0000   0.0000   0.0000   0.0000   0.0000   0.0000
     0.0000   0.0000   0.0000   0.0000   0.0000   0.0000   0.0000   0.0000
     0.0000   0.0000   0.0000   0.0000   0.0000   0.0000   0.0000   0.0000
     0.0000   0.0000   0.0000   0.0000   0.0000   0.0000   0.0000   0.0000
     0.0000   0.0000   0.0000   0.0000   0.0000   0.0000   0.0000   0.0000
     0.0000   0.0000   0.0000   0.0000   0.0000   0.0000   0.0000   0.0000
     0.0000   0.0000   0.0000   0.0000   0.0000   0.0000   0.0000   0.0000
     0.0000   0.0000   0.0000   0.0000   0.0000   0.0000   0.0000   0.0000
     0.0000   0.0000   0.0000   0.0000   0.0000   0.0000   0.0000   0.0000
     0.0000   0.0000   0.0000   0.0000   0.0000   0.0000   0.0000   0.0000
     0.0000   0.0000   0.0000   0.0000   0.0000   0.0000   0.0000   0.0000
     0.0000   0.0000   0.0000   0.0000   0.0000   0.0000   0.0000   0.0000
     0.0000   0.0000   0.0000   0.0000   0.0000   0.0000   0.0000   0.0000
     0.0000   0.0000   0.0000   0.0000   0.0000   0.0000   0.0000   0.0000
     0.0000   0.0000   0.0000   0.0000   0.0000   0.0000   0.0000   0.0000
     0.0000   0.0000   0.0000   0.0000   0.0000   0.0000   0.0000   0.0000
     0.0000   0.0000   0.0000   0.0000   0.0000   0.0000   0.0000   0.0000
     0.0000   0.0000   0.0000   0.0000   0.0000   0.0000   0.0000   0.0000
     0.0000   0.0000   0.0000   0.0000   0.0000   0.0000   0.0000   0.0000
     0.0000   0.0000   0.0000   0.0000   0.0000   0.0000   0.0000   0.0000
     0.0000   0.0000   0.0000   0.0000   0.0000   0.0000   0.0000   0.0000
     0.0000   0.0000   0.0000   0.0000   0.0000   0.0000   0.0000   0.0000
     0.0000   0.0000   0.0000   0.0000   0.0000   0.0000   0.0000   0.0000
     0.0000   0.0000   0.0000   0.0000   0.0000   0.0000   0.0000   0.0000
     0.0000   0.0000   0.0000   0.0000   0.0000   0.0000   0.0000   0.0000
     0.0000   0.0000   0.0000   0.0000   0.0000   0.0000   0.0000   0.0000
     0.0000   0.0000   0.0000   0.0000   0.0000   0.0000   0.0000   0.0000
     0.0000   0.0000   0.0000   0.0000   0.0000   0.0000   0.0000   0.0000
     0.0000   0.0000   0.0000   0.0000   0.0000   0.0000   0.0000   0.0000
     0.0000   0.0000   0.0000   0.0000   0.0000   0.0000   0.0000   0.0000
     0.0000   0.0000   0.0000   0.0000   0.0000   0.0000   0.0000   0.0000
     0.0000   0.0000   0.0000   0.0000   0.0000   0.0000   0.0000   0.0000
     0.0000   0.0000   0.0000   0.0000   0.0000   0.0000   0.0000   0.0000
     0.0000   0.0000   0.0000   0.0000   0.0000   0.0000   0.0000   0.0000
     0.0000   0.0000   0.0000   0.0000   0.0000   0.0000   0.0000   0.0000
     0.0000   0.0000   0.0000   0.0000   0.0000   0.0000   0.0000   0.0000
     0.0000   0.0000   0.0000   0.0000   0.0000   0.0000   0.0000   0.0000
     0.0000   0.0000   0.0000   0.0000   0.0000   0.0000   0.0000   0.0000
     0.0000   0.0000   0.0000   0.0000   0.0000   0.0000   0.0000   0.0000
     0.0000   0.0000   0.0000   0.0000   0.0000   0.0000   0.0000   0.0000
     0.0000   0.0000   0.0000   0.0000   0.0000   0.0000   0.0000   0.0000
     0.0000   0.0000   0.0000   0.0000   0.0000   0.0000   0.0000   0.0000
     0.0000   0.0000   0.0000   0.0000   0.0000   0.0000   0.0000   0.0000
     0.0000   0.0000   0.0000   0.0000

 ------ SPIN DOWN ----------


          k = 0.0000 0.0000 0.0000 ( 42379 PWs)   bands (ev):

    -8.2494  -7.4460  -7.2295  -7.2294  -7.2027  -7.2027  -7.1635  -6.5788
    -6.2498  -6.2497  -6.2100  -6.2099  -6.2001  -6.2001  -6.1978  -6.1973
    -6.1973  -6.1965  -6.0596  -5.4530  -5.2417  -5.2414  -5.2413  -5.2209
    -5.2209  -5.2204  -5.0995  -4.4814  -4.2402  -4.2402  -4.2259  -4.2259
    -4.1269  -3.8468  -3.3743  -3.3742  -3.3405  -3.3405  -3.3126  -3.3126
    -3.3029  -3.2994  -3.2994  -3.2940  -3.2940  -3.2905  -3.2850  -3.2845
    -3.2844  -3.2795  -3.2795  -3.2727  -3.2692  -3.2675  -3.2551  -3.2551
    -2.9761  -2.7950  -2.5818  -2.5817  -2.5365  -2.5274  -2.5274  -2.5208
    -2.5208  -2.5174  -2.5174  -2.5132  -2.5043  -2.4951  -2.4951  -2.4833
    -2.4833  -2.4800  -2.4778  -2.4777  -2.4742  -2.4558  -2.4527  -2.4527
    -1.8201  -1.0501  -0.8796  -0.8796  -0.8616  -0.8616  -0.8481  -0.8418
    -0.8418  -0.8293  -0.8133  -0.8133  -0.5247   0.3196   0.4151   0.4152
     0.4570   0.4570   0.5425   0.7190   0.8797   0.8797   0.9250   0.9250
     0.9385   0.9386   0.9459   0.9649   0.9649   0.9851   0.9852   0.9877
     0.9878   1.0025   1.0025   1.0045   1.0138   1.0143   1.0144   1.0202
     1.0252   1.0253   1.0382   1.1713   1.1740   1.1740   1.1793   1.1836
     1.1868   1.1868   1.2020   1.2021   1.2024   1.2057   1.2057   1.2205
     1.2205   1.2274   1.2293   1.2293   1.2321   1.2372   1.2373   1.3181
     1.4551   1.4552   1.9866   2.2069   2.2069   2.2132   2.2433   2.2617
     2.2760   2.2761   2.2797   2.2797   2.3473   2.3473   3.3007   3.7372
     3.7478   3.7478   3.7868   3.8166   3.8166   3.8274   3.8350   3.8380
     3.8380   3.8410   3.8504   3.8507   3.8507   3.8567   3.8568   3.9972
     3.9972   3.9991   4.0141   4.3889   4.3890   4.4010   4.4468   4.4468
     4.4488   4.4631   4.4840   4.4840   4.4888   4.4889   4.4988   4.5127
     4.5128   4.5139   4.5140   4.5160   4.5225   4.5225   4.5272   4.5515
     4.6752   4.6753   5.2469   5.2469   5.3156   5.3318   5.3694   5.3695
     5.3784   5.3886   5.3887   5.4002   5.4119   5.4120   5.4137   5.4186
     5.4187   5.4261   5.4262   5.4272   5.4344   5.4345   5.4455   5.5513
     5.5658   5.5659   5.6143   5.7979   5.7979   5.8216   5.8572   5.8572
     5.8759   5.8759   5.8881   5.8910   5.8910   5.8945   5.8975   5.9002
     5.9002   5.9060   5.9098   5.9098   5.9161   5.9162   5.9281   5.9347
     5.9399   5.9587   5.9587   6.0051   6.0051   6.2765   6.3188   6.3189
     6.8651   6.8652   6.9142   6.9282   6.9344   6.9345   7.0022   7.4061
     7.4061   7.4241   7.4781   7.4782   7.4877   7.4877   7.5018   7.5072
     7.5651   7.5651   7.7432   7.7433   7.8162   7.8485   7.8509   7.8514
     7.8515   7.8856   7.8857   7.9125   7.9181   7.9363   7.9364   8.0189
     8.0190   8.0488   8.0489   8.1150   8.1300   8.1708   8.1859   8.1860
     8.2052   8.2052   8.2105   8.2105   8.2146   8.2319   8.2364   8.2413
     8.2413   8.2496   8.2497   8.2719   8.2719   8.2742   8.2822   8.2822
     8.3107   8.3227   8.3462   8.3463   8.3547   8.3557   8.3631   8.3631
     8.3660   8.3843   8.3844   8.3862   8.3862   8.3918   8.3918   8.3924
     8.3927   8.4013   8.4014   8.4038   8.4039   8.4068   8.4077   8.4077
     8.4130   8.4159   8.4219   8.4219   8.4225   8.4692   8.4693   8.5003
     8.5003   8.5051   8.5060   8.5078   8.5078   8.5219   8.5236   8.5236
     8.5316   8.5317   8.5636   8.9690   8.9886   8.9886   9.1281   9.1282
     9.1619   9.1619   9.1781   9.2035   9.2057   9.2057   9.2169   9.2268
     9.2269   9.2371   9.2437   9.2466   9.2466   9.2499   9.2499   9.2605
     9.2629   9.2629   9.2942   9.9079  10.0118  10.0120  10.2988  10.5477
    10.5478  10.5583  10.5783  10.5784  10.5821  10.6263  10.6264  10.6478
    10.7009  10.7140  10.7141  10.7658  10.7659  10.8273  10.8274  10.8427
    10.8462  10.8463  10.8675  10.8677  10.8734  10.8822  10.8823  10.9078
    10.9138  10.9264  10.9264  10.9335  10.9335  11.5129  11.5874  11.5947
    11.5948  11.7664  11.7665  11.7726  11.8003  11.8003  11.8037  11.8106
    11.8108  11.8249  12.8203  13.0041  13.0044  13.5420  14.4157  14.4159
    17.3491  17.3491  17.3618  17.4094  17.4094  17.4361  17.8912  17.9590
    17.9590  17.9919  17.9919  18.0057  18.1253  18.1253  18.1315  18.2364
    18.2364  18.2498  18.7983  18.7986  18.8503  19.3999  19.5031  19.5183
    19.5183  19.5219  19.5219  19.5524  19.5982  19.5982  19.6229  19.6229
    19.6762  20.0477  20.1756  20.1756  20.2047  20.2060  20.2361  20.2361
    20.2668  20.2668  20.2810  20.2867  20.2868  20.2959  20.3001  20.3002
    20.3004  20.3237  20.3239  20.3764  20.3765  20.3788  20.4216  20.4217
    20.4433  20.6564  20.6565  20.6792  20.7305  20.7732  20.7732  20.7867
    20.7868  20.8098  20.8230  20.8231  20.8232  20.8316  20.8345  20.8392
    20.8392  20.8522  20.8522  20.8616  20.8671  20.8671  20.8727  20.8728
    20.8777  20.8826  20.8826  20.8915  20.8956  20.8956  20.9103  20.9212
    20.9320  20.9320  20.9411  20.9411  20.9520  21.0536  21.0548  21.0548
    21.1167  21.1168  21.1527  21.2463  21.2828  21.2829  21.3104  21.3617
    21.3617  21.3618  21.3697  21.3745  21.3745  21.3923  21.3939  21.3941
    21.4035  21.4051  21.4052  21.4134  21.4135  21.4174  21.4250  21.4285
    21.4286  21.4420  21.4422  21.4609  21.4610  21.4635  21.4690  21.4691
    21.4770  21.4771  21.4776  21.4961  21.4964  21.5018  21.5976  21.5976
    21.6236  21.6750  21.7150  21.7150  21.7269  21.7269  21.7414  21.7520
    21.7616  21.7616  21.7713  21.7855  21.7954  21.8039  21.8040  21.8195
    21.8195  21.9503  21.9504  22.0286  22.0287  22.0410  22.1434  22.1671
    22.1672  22.2096  22.2097  22.2320  22.2326  22.2328  22.2584  22.3686
    22.3776  22.3776  22.4545  22.4877  22.4928  22.4930  22.5103  22.5104
    22.5958  22.6052  22.6053  22.6801  22.8457  22.8458  22.8741  23.1315
    23.1420  23.1420  23.1505  23.1505  23.1636  23.1687  23.1775  23.1776
    23.1889  23.1890  23.1908  23.1909  23.1913  23.2001  23.2107  23.2350
    23.2915  23.2916  23.3706  23.3706  23.4217  23.4290  23.4291  23.6944
    23.7836  23.7839  23.8069  23.8234  23.8234  23.8532  23.8787  23.8836
    23.8837  23.8938  23.8938  23.8987  23.9357  23.9357  23.9371  23.9688
    23.9845  23.9869  23.9869  24.1104  24.1105  24.1552  24.1553  24.2484
    24.2484  24.2765  24.2995  24.3337  24.3338  24.3429  24.3429  24.3506
    24.3529  24.3602  24.3603  24.3856  24.3967  24.3967  24.4213  24.4213
    24.4408  24.4408  24.4487  24.4684  24.4685  24.4685  24.4838  24.5270
    24.5271  24.5297  24.5340  24.5414  24.5578  24.5579  24.5692  24.5748
    24.5748  24.5799  24.5867  24.5868  24.5874  24.5939  24.5939  24.6339
    24.6340  24.7671  24.7671  25.3637  25.4101  25.4102  25.4576  25.7922
    25.7922  25.8334  25.8466  25.8466  25.9668  26.0302  26.0367  26.0367
    26.0726  26.0727  26.1592  26.1687  26.1687  26.1728  26.2510  26.2511
    26.2559  26.4735  26.5958  26.5958  26.6070  26.6478  26.6595  26.6595
    26.6816  26.7092  26.7093  26.7342  26.7342  26.7539  26.7539  26.7584
    26.7866  26.8046  26.8410  26.8410  26.8701  26.8843  26.8843  26.9209
    26.9209  27.0879  27.0879  27.0942  27.1184  27.1401  27.1401  27.1811
    27.1811  27.1915  27.1998  27.1999  27.2242  27.2299  27.2299  27.2502
    27.2584  27.2585  27.2714  27.2837  27.2910  27.2919  27.2919  27.3014
    27.3014  27.3090  27.3101  27.3102  27.3131  27.3131  27.3285  27.3287
    27.3287  27.3404  27.3463  27.3507  27.3507  27.3655  27.3750  27.3751
    27.4011  27.4123  27.4123  27.4248  27.4453  27.4460  27.4461  27.4489
    27.4489  27.4759  27.4897  27.4898  27.4901  27.5228  27.5228  27.5337
    27.5591  27.5599  27.5600  27.5601  27.5674  27.5674  27.5809  27.5810
    27.6120  27.6189  27.6220  27.6220  27.6398  27.6398  27.6424  27.6546
    27.6647  27.6648  27.7154  27.7233  27.7233  27.7613  27.7613  27.9184
    27.9185  27.9379  27.9396  28.0154  28.0541  28.0541  28.0825  28.0825
    28.1238  28.1238  28.1304  28.2013  28.2099  28.2100  28.2936  28.3537
    28.3538  28.3595  28.3678  28.4074  28.4075  28.4280  29.3251  29.7923
    29.8206  29.8207  29.9257  29.9259

     occupation numbers 
     1.0000   1.0000   1.0000   1.0000   1.0000   1.0000   1.0000   1.0000
     1.0000   1.0000   1.0000   1.0000   1.0000   1.0000   1.0000   1.0000
     1.0000   1.0000   1.0000   1.0000   1.0000   1.0000   1.0000   1.0000
     1.0000   1.0000   1.0000   1.0000   1.0000   1.0000   1.0000   1.0000
     1.0000   1.0000   1.0000   1.0000   1.0000   1.0000   1.0000   1.0000
     1.0000   1.0000   1.0000   1.0000   1.0000   1.0000   1.0000   1.0000
     1.0000   1.0000   1.0000   1.0000   1.0000   1.0000   1.0000   1.0000
     1.0000   1.0000   1.0000   1.0000   1.0000   1.0000   1.0000   1.0000
     1.0000   1.0000   1.0000   1.0000   1.0000   1.0000   1.0000   1.0000
     1.0000   1.0000   1.0000   1.0000   1.0000   1.0000   1.0000   1.0000
     1.0000   1.0000   1.0000   1.0000   1.0000   1.0000   1.0000   1.0000
     1.0000   1.0000   1.0000   1.0000   1.0000   1.0000   1.0000   1.0000
     1.0000   1.0000   1.0000   1.0000   1.0000   1.0000   1.0000   1.0000
     1.0000   1.0000   1.0000   1.0000   1.0000   1.0000   1.0000   1.0000
     1.0000   1.0000   1.0000   1.0000   1.0000   1.0000   1.0000   1.0000
     1.0000   1.0000   1.0000   1.0000   1.0000   1.0000   1.0000   1.0000
     1.0000   1.0000   1.0000   1.0000   1.0000   1.0000   1.0000   1.0000
     1.0000   1.0000   1.0000   1.0000   1.0000   1.0000   1.0000   1.0000
     1.0000   1.0000   1.0000   1.0000   1.0000   1.0000   1.0000   1.0000
     1.0000   1.0000   1.0000   1.0000   1.0000   1.0000   1.0000   1.0000
     1.0000   1.0000   1.0000   1.0000   1.0000   1.0000   1.0000   1.0000
     1.0000   1.0000   1.0000   1.0000   1.0000   1.0000   1.0000   1.0000
     1.0000   1.0000   1.0000   1.0000   1.0000   1.0000   1.0000   1.0000
     1.0000   1.0000   1.0000   1.0000   1.0000   1.0000   1.0000   1.0000
     1.0000   1.0000   1.0000   1.0000   1.0000   1.0000   1.0000   1.0000
     1.0000   1.0000   1.0000   1.0000   1.0000   1.0000   1.0000   1.0000
     1.0000   1.0000   1.0000   1.0000   1.0000   1.0000   1.0000   1.0000
     1.0000   1.0000   1.0000   1.0000   1.0000   1.0000   1.0000   1.0000
     1.0000   1.0000   1.0000   1.0000   1.0000   1.0000   1.0000   1.0000
     1.0000   1.0000   1.0000   1.0000   1.0000   1.0000   1.0000   1.0000
     1.0000   1.0000   1.0000   1.0000   1.0000   1.0000   1.0000   1.0000
     1.0000   1.0000   1.0000   1.0000   1.0000   1.0000   1.0000   1.0000
     1.0000   1.0000   1.0000   1.0000   1.0000   1.0000   1.0000   1.0000
     1.0000   1.0000   1.0000   1.0000   1.0000   1.0000   1.0000   1.0000
     1.0000   1.0000   1.0000   1.0000   1.0000   1.0000   1.0000   1.0000
     1.0000   1.0000   1.0000   1.0000   1.0000   1.0000   1.0000   1.0000
     1.0000   1.0000   1.0000   1.0000   1.0000   1.0000   1.0000   1.0000
     1.0000   1.0000   1.0000   1.0000   1.0000   1.0000   1.0000   1.0000
     1.0000   1.0000   1.0000   1.0000   1.0000   1.0000   1.0000   1.0000
     1.0000   1.0000   1.0000   1.0000   1.0000   1.0000   1.0000   1.0000
     1.0000   1.0000   1.0000   1.0000   1.0000   1.0000   1.0000   1.0000
     1.0000   1.0000   1.0000   1.0000   1.0000   1.0000   1.0000   1.0000
     1.0000   1.0000   1.0000   1.0000   1.0000   1.0000   1.0000   1.0000
     1.0000   1.0000   1.0000   1.0000   1.0000   1.0000   1.0000   1.0000
     1.0000   1.0000   1.0000   1.0000   1.0000   1.0000   1.0000   1.0000
     1.0000   1.0000   1.0000   1.0000   1.0000   1.0000   1.0000   1.0000
     1.0000   1.0000   1.0000   1.0000   1.0000   1.0000   1.0000   1.0000
     1.0000   1.0000   1.0000   1.0000   1.0000   1.0000   1.0000   1.0000
     1.0000   1.0000   1.0000   1.0000   1.0000   1.0000   1.0000   1.0000
     1.0000   1.0000   1.0000   1.0000   1.0000   1.0000   1.0000   1.0000
     1.0000   1.0000   1.0000   1.0000   1.0000   1.0000   1.0000   1.0000
     1.0000   1.0000   1.0000   1.0000   1.0000   1.0000   1.0000   1.0000
     1.0000   1.0000   1.0000   1.0000   1.0000   1.0000   1.0000   1.0000
     1.0000   1.0000   1.0000   1.0000   1.0000   1.0000   0.0000   0.0000
     0.0000   0.0000   0.0000   0.0000   0.0000   0.0000   0.0000   0.0000
     0.0000   0.0000   0.0000   0.0000   0.0000   0.0000   0.0000   0.0000
     0.0000   0.0000   0.0000   0.0000   0.0000   0.0000   0.0000   0.0000
     0.0000   0.0000   0.0000   0.0000   0.0000   0.0000   0.0000   0.0000
     0.0000   0.0000   0.0000   0.0000   0.0000   0.0000   0.0000   0.0000
     0.0000   0.0000   0.0000   0.0000   0.0000   0.0000   0.0000   0.0000
     0.0000   0.0000   0.0000   0.0000   0.0000   0.0000   0.0000   0.0000
     0.0000   0.0000   0.0000   0.0000   0.0000   0.0000   0.0000   0.0000
     0.0000   0.0000   0.0000   0.0000   0.0000   0.0000   0.0000   0.0000
     0.0000   0.0000   0.0000   0.0000   0.0000   0.0000   0.0000   0.0000
     0.0000   0.0000   0.0000   0.0000   0.0000   0.0000   0.0000   0.0000
     0.0000   0.0000   0.0000   0.0000   0.0000   0.0000   0.0000   0.0000
     0.0000   0.0000   0.0000   0.0000   0.0000   0.0000   0.0000   0.0000
     0.0000   0.0000   0.0000   0.0000   0.0000   0.0000   0.0000   0.0000
     0.0000   0.0000   0.0000   0.0000   0.0000   0.0000   0.0000   0.0000
     0.0000   0.0000   0.0000   0.0000   0.0000   0.0000   0.0000   0.0000
     0.0000   0.0000   0.0000   0.0000   0.0000   0.0000   0.0000   0.0000
     0.0000   0.0000   0.0000   0.0000   0.0000   0.0000   0.0000   0.0000
     0.0000   0.0000   0.0000   0.0000   0.0000   0.0000   0.0000   0.0000
     0.0000   0.0000   0.0000   0.0000   0.0000   0.0000   0.0000   0.0000
     0.0000   0.0000   0.0000   0.0000   0.0000   0.0000   0.0000   0.0000
     0.0000   0.0000   0.0000   0.0000   0.0000   0.0000   0.0000   0.0000
     0.0000   0.0000   0.0000   0.0000   0.0000   0.0000   0.0000   0.0000
     0.0000   0.0000   0.0000   0.0000   0.0000   0.0000   0.0000   0.0000
     0.0000   0.0000   0.0000   0.0000   0.0000   0.0000   0.0000   0.0000
     0.0000   0.0000   0.0000   0.0000   0.0000   0.0000   0.0000   0.0000
     0.0000   0.0000   0.0000   0.0000   0.0000   0.0000   0.0000   0.0000
     0.0000   0.0000   0.0000   0.0000   0.0000   0.0000   0.0000   0.0000
     0.0000   0.0000   0.0000   0.0000   0.0000   0.0000   0.0000   0.0000
     0.0000   0.0000   0.0000   0.0000   0.0000   0.0000   0.0000   0.0000
     0.0000   0.0000   0.0000   0.0000   0.0000   0.0000   0.0000   0.0000
     0.0000   0.0000   0.0000   0.0000   0.0000   0.0000   0.0000   0.0000
     0.0000   0.0000   0.0000   0.0000   0.0000   0.0000   0.0000   0.0000
     0.0000   0.0000   0.0000   0.0000   0.0000   0.0000   0.0000   0.0000
     0.0000   0.0000   0.0000   0.0000   0.0000   0.0000   0.0000   0.0000
     0.0000   0.0000   0.0000   0.0000   0.0000   0.0000   0.0000   0.0000
     0.0000   0.0000   0.0000   0.0000   0.0000   0.0000   0.0000   0.0000
     0.0000   0.0000   0.0000   0.0000   0.0000   0.0000   0.0000   0.0000
     0.0000   0.0000   0.0000   0.0000   0.0000   0.0000   0.0000   0.0000
     0.0000   0.0000   0.0000   0.0000   0.0000   0.0000   0.0000   0.0000
     0.0000   0.0000   0.0000   0.0000   0.0000   0.0000   0.0000   0.0000
     0.0000   0.0000   0.0000   0.0000   0.0000   0.0000   0.0000   0.0000
     0.0000   0.0000   0.0000   0.0000   0.0000   0.0000   0.0000   0.0000
     0.0000   0.0000   0.0000   0.0000   0.0000   0.0000   0.0000   0.0000
     0.0000   0.0000   0.0000   0.0000   0.0000   0.0000   0.0000   0.0000
     0.0000   0.0000   0.0000   0.0000   0.0000   0.0000   0.0000   0.0000
     0.0000   0.0000   0.0000   0.0000   0.0000   0.0000   0.0000   0.0000
     0.0000   0.0000   0.0000   0.0000   0.0000   0.0000   0.0000   0.0000
     0.0000   0.0000   0.0000   0.0000   0.0000   0.0000   0.0000   0.0000
     0.0000   0.0000   0.0000   0.0000   0.0000   0.0000   0.0000   0.0000
     0.0000   0.0000   0.0000   0.0000   0.0000   0.0000   0.0000   0.0000
     0.0000   0.0000   0.0000   0.0000   0.0000   0.0000   0.0000   0.0000
     0.0000   0.0000   0.0000   0.0000   0.0000   0.0000   0.0000   0.0000
     0.0000   0.0000   0.0000   0.0000

     highest occupied, lowest unoccupied level (ev):    13.54196634   14.41568382

     Writing all to output data dir ../tmp/diamond_pd.save/ :
     XML data file, pseudopotentials, collected wavefunctions
 
     init_run     :      0.97s CPU      1.14s WALL (       1 calls)
     electrons    :    348.74s CPU    353.22s WALL (       1 calls)

     Called by init_run:
     wfcinit      :      0.00s CPU      0.00s WALL (       1 calls)
     wfcinit:wfcr :      4.63s CPU      4.78s WALL (       2 calls)
     potinit      :      0.67s CPU      0.78s WALL (       1 calls)
     hinit0       :      0.10s CPU      0.11s WALL (       1 calls)

     Called by electrons:
     c_bands      :    348.74s CPU    353.20s WALL (       1 calls)
     v_of_rho     :      0.03s CPU      0.04s WALL (       1 calls)
     v_h          :      0.00s CPU      0.00s WALL (       1 calls)
     v_xc         :      0.03s CPU      0.04s WALL (       1 calls)
     newd         :      0.13s CPU      0.16s WALL (       1 calls)
     PAW_pot      :      0.62s CPU      0.72s WALL (       1 calls)

     Called by c_bands:
     init_us_2    :      0.12s CPU      0.16s WALL (       2 calls)
     cegterg      :    343.73s CPU    347.98s WALL (      10 calls)

     Called by sum_band:

     Called by *egterg:
     cdiaghg      :     60.30s CPU     61.23s WALL (     186 calls)
     cegterg:over :     47.65s CPU     48.08s WALL (     184 calls)
     cegterg:upda :     38.24s CPU     38.63s WALL (     184 calls)
     cegterg:last :     82.78s CPU     83.54s WALL (      66 calls)
     cdiaghg:chol :      4.18s CPU      4.21s WALL (     186 calls)
     cdiaghg:inve :      1.41s CPU      1.42s WALL (     186 calls)
     cdiaghg:para :     21.64s CPU     21.88s WALL (     372 calls)
     h_psi        :     84.56s CPU     85.92s WALL (     196 calls)
     s_psi        :     27.16s CPU     27.35s WALL (     196 calls)
     g_psi        :      0.95s CPU      0.97s WALL (     184 calls)

     Called by h_psi:
     h_psi:calbec :     28.33s CPU     28.57s WALL (     196 calls)
     vloc_psi     :     26.57s CPU     27.06s WALL (     196 calls)
     add_vuspsi   :     27.98s CPU     28.40s WALL (     196 calls)

     General routines
     calbec       :     28.33s CPU     28.56s WALL (     196 calls)
     fft          :      0.01s CPU      0.02s WALL (      21 calls)
     fftw         :     23.55s CPU     23.98s WALL (  115628 calls)
 
     Parallel routines

     PAW routines
     PAW_pot      :      0.62s CPU      0.72s WALL (       1 calls)
 
     PWSCF        :   5m50.76s CPU   6m 6.81s WALL

 
   This run was terminated on:   4:28:40   3Aug2026            

=------------------------------------------------------------------------------=
   JOB DONE.
=------------------------------------------------------------------------------=
