C8                                      
   1.00000000000000     
    10.7211360931000002    0.0000000000000000    0.0000000000000000
     0.0000000000000000   10.7211360931000002    0.0000000000000000
     0.0000000000000000    0.0000000000000000   10.7211360931000002
   C    N 
   214     1
Direct
     0.0832538097284254    0.0834528459986428    0.0834128562715721
     0.0836838398581611    0.0832262003544389    0.4167938524873626
     0.0828904765507011    0.0834425448872853    0.7498847295193942
     0.0837637817592848    0.4169279669441797    0.0829028842407128
     0.0832237707802408    0.4168887927917311    0.4167058358032222
     0.0829374194928778    0.4167778431865760    0.7498309273470258
     0.0833414044235790    0.7499778963022992    0.0833252615764186
     0.0834365035494025    0.7500348757809771    0.4166305414105480
     0.0835053390807513    0.7498614654370144    0.7497510069426156
     0.4167819374806068    0.0834425448872853    0.0837761894492965
     0.4168818969251324    0.0835810178463915    0.4170217356599000
     0.4162813293264198    0.0826475412203735    0.7503853376735815
     0.4168357396529753    0.4167778431865760    0.0837292465071198
     0.4186544300458745    0.4177460071290340    0.4183502778005648
     0.4152924110776477    0.4161192554560380    0.7513742559223533
     0.4169156600573856    0.7498614654370144    0.0831613269192463
     0.4160324199436724    0.7507578663698955    0.4171286059985903
     0.4173621862186493    0.7491497567173919    0.7493044807813518
     0.7498728145126385    0.0832262003544389    0.0829828261418364
     0.7499421424376967    0.0837012250028633    0.4167245245623045
     0.7496449313401012    0.0835810178463915    0.7497847700748688
     0.7499608311967793    0.4168887927917311    0.0834428952197568
     0.7564702206940032    0.4114630086282925    0.4101964463059977
     0.7483163891994361    0.4177460071290340    0.7480122369541266
     0.7500361255894530    0.7500348757809771    0.0832301624505951
     0.7496826516671932    0.7490695475054946    0.4169840153328082
     0.7495380610014112    0.7507578663698955    0.7506342470563285
     0.2501092118872866    0.2501152704806056    0.0837761894492965
     0.2502476848463926    0.2502152299251313    0.4170217356599000
     0.2493142082203748    0.2496146623264184    0.7503853376735815
     0.2498928673544402    0.5832061475126373    0.0829828261418364
     0.2503678920028644    0.5832754754376955    0.4167245245623045
     0.2502476848463926    0.5829782643401000    0.7497847700748688
     0.2501195129986439    0.9165871437284278    0.0834128562715721
     0.2498928673544402    0.9170171738581633    0.4167938524873626
     0.2501092118872866    0.9162238105507035    0.7498847295193942
     0.5834445091865734    0.2501690726529741    0.0837292465071198
     0.5844126731290314    0.2519877630458733    0.4183502778005648
     0.5827859214560354    0.2486257440776465    0.7513742559223533
     0.5835554587917289    0.5832941641967780    0.0834428952197568
     0.5781296746282902    0.5898035536940019    0.4101964463059977
     0.5844126731290314    0.5816497221994349    0.7480122369541266
     0.5835946329441772    0.9170971157592877    0.0829028842407128
     0.5835554587917289    0.9165571047802431    0.4167058358032222
     0.5834445091865734    0.9162707534928802    0.7498309273470258
     0.9165281324370156    0.2502489930573844    0.0831613269192463
     0.9174245333698967    0.2493657529436714    0.4171286059985903
     0.9158164237173931    0.2506955192186480    0.7493044807813518
     0.9167015427809783    0.5833694585894518    0.0832301624505951
     0.9157362145054958    0.5830159846671920    0.4169840153328082
     0.9174245333698967    0.5828713940014100    0.7506342470563285
     0.9166445633023004    0.9166747384235814    0.0833252615764186
     0.9167015427809783    0.9167698375494051    0.4166305414105480
     0.9165281324370156    0.9168386730807535    0.7497510069426156
     0.2502474270604401    0.0835807600604389    0.2502337871224765
     0.2496952268597927    0.0830285598597915    0.5834532753183500
     0.2497723985308583    0.0831057315308571    0.9168942684691428
     0.2505712000282978    0.4169854956291331    0.2504968500687910
     0.2499073635576817    0.4165417943908892    0.5834582056091109
     0.2496952268597927    0.4165467246816503    0.9169714401402085
     0.2501302981282289    0.7499992290878160    0.2500007709121840
     0.2505712000282978    0.7495031499312091    0.5830145043708670
     0.2502474270604401    0.7497662128775237    0.9164192399395611
     0.5836521616291306    0.0839045330282967    0.2504968500687910
     0.5832084603908867    0.0832406965576805    0.5834582056091109
     0.5832133906816476    0.0830285598597915    0.9169714401402085
     0.5841585039080653    0.4174918379080679    0.2513756024482142
     0.5832084603908867    0.4165417943908892    0.9167593034423197
     0.5840856440001239    0.7511031601835333    0.2488968398164668
     0.5841585039080653    0.7486243975517857    0.5825081620919322
     0.5836521616291306    0.7495031499312091    0.9160954669717034
     0.9166658960878172    0.0834636311282276    0.2500007709121840
     0.9161698169312104    0.0839045330282967    0.5830145043708670
     0.9164328798775249    0.0835807600604389    0.9164192399395611
     0.9177698271835345    0.4174189780001261    0.2488968398164668
     0.9152910645517869    0.4174918379080679    0.5825081620919322
     0.9161698169312104    0.4169854956291331    0.9160954669717034
     0.9164388666164471    0.7497721996164459    0.2502278003835544
     0.9177698271835345    0.7511031601835333    0.5825810219998737
     0.9166658960878172    0.7499992290878160    0.9165363688717725
     0.0835053390807513    0.2502489930573844    0.2501385345629855
     0.0829374194928778    0.2501690726529741    0.5832221568134242
     0.0828904765507011    0.2501152704806056    0.9165574551127147
     0.0834365035494025    0.5833694585894518    0.2499651242190231
     0.0832237707802408    0.5832941641967780    0.5831112072082687
     0.0836838398581611    0.5832061475126373    0.9167737996455609
     0.0833414044235790    0.9166747384235814    0.2500221036977008
     0.0837637817592848    0.9170971157592877    0.5830720330558203
     0.0832538097284254    0.9165871437284278    0.9165471540013572
     0.4173621862186493    0.2506955192186480    0.2508502432826079
     0.4152924110776477    0.2486257440776465    0.5838807445439622
     0.4162813293264198    0.2496146623264184    0.9173524587796267
     0.4160324199436724    0.5828713940014100    0.2492421336301046
     0.4186544300458745    0.5816497221994349    0.5822539928709661
     0.4168818969251324    0.5829782643401000    0.9164189821536085
     0.4169156600573856    0.9168386730807535    0.2501385345629855
     0.4168357396529753    0.9162707534928802    0.5832221568134242
     0.4167819374806068    0.9162238105507035    0.9165574551127147
     0.7495380610014112    0.2493657529436714    0.2492421336301046
     0.7483163891994361    0.2519877630458733    0.5822539928709661
     0.7496449313401012    0.2502152299251313    0.9164189821536085
     0.7496826516671932    0.5830159846671920    0.2509304524945055
     0.7564702206940032    0.5898035536940019    0.5885369913717073
     0.7499421424376967    0.5832754754376955    0.9162987749971366
     0.7500361255894530    0.9167698375494051    0.2499651242190231
     0.7499608311967793    0.9165571047802431    0.5831112072082687
     0.7498728145126385    0.9170171738581633    0.9167737996455609
     0.9999050821963522    0.0000999515319881    0.9999000484680118
     0.0000446447564580    0.0000768602681955    0.3332628920535262
     0.9996880738356601    0.0003368077363943    0.6665347803744174
     0.9996880738356601    0.3334652196255825    0.9996631922636059
     0.0001210763867818    0.3335308197324138    0.3332496901753783
     0.9989568454915079    0.3341344185015148    0.6658655814984852
     0.0000446447564580    0.6667371079464737    0.9999231397318046
     0.9995245477522970    0.6662527839915554    0.3337472160084445
     0.0001210763867818    0.6667503098246219    0.6664691802675863
     0.3334021040437774    0.9998316458462513    0.0001683541537488
     0.3335686108325752    0.0002471521078207    0.3334324207219478
     0.3332900785319570    0.9995097006776585    0.6667444139711614
     0.3332900785319570    0.3332555860288385    0.0004902993223412
     0.3346472680623487    0.3339066534491798    0.3346025630239517
     0.3324096768649730    0.3327128018742893    0.6672871981257104
     0.3335686108325752    0.6665675792780523    0.9997528478921793
     0.3334943702391848    0.6667258116644870    0.3332741883355131
     0.3346472680623487    0.6653974369760485    0.6660933465508201
     0.6667081985818282    0.0001361911934883    0.9998638088065115
     0.6667594535880416    0.0002030691894923    0.3335611137418064
     0.6666143361358179    0.9998495210612992    0.6664781276326787
     0.6666143361358179    0.3335218723673212    0.0001504789387006
     0.6687716962628243    0.3351968363279108    0.3348146619856631
     0.6624567911606799    0.3337833534925856    0.6662166465074145
     0.6667594535880416    0.6664388862581938    0.9997969308105077
     0.6651603150986166    0.6658770486955743    0.3341229513044258
     0.6687716962628243    0.6651853380143372    0.6648031636720892
     0.1664983128462522    0.1667354380437799    0.0001683541537488
     0.1669138191078219    0.1669019448325775    0.3334324207219478
     0.1661763676776599    0.1666234125319593    0.6667444139711614
     0.1668028581934895    0.5000415315818270    0.9998638088065115
     0.1668697361894935    0.5000927865880402    0.3335611137418064
     0.1665161880613006    0.4999476691358166    0.6664781276326787
     0.1667666185319892    0.8332384151963510    0.9999000484680118
     0.1667435272681966    0.8333779777564568    0.3332628920535262
     0.1670034747363954    0.8330214068356588    0.6665347803744174
     0.4999222530288399    0.1666234125319593    0.0004902993223412
     0.5005733204491810    0.1679806020623512    0.3346025630239517
     0.4993794688742905    0.1657430108649753    0.6672871981257104
     0.5001885393673225    0.4999476691358166    0.0001504789387006
     0.5018635033279120    0.5021050292628231    0.3348146619856631
     0.5004500204925867    0.4957901241606788    0.6662166465074145
     0.5001318866255836    0.8330214068356588    0.9996631922636059
     0.5001974867324149    0.8334544093867806    0.3332496901753783
     0.5008010855015160    0.8322901784915065    0.6658655814984852
     0.8332342452780499    0.1669019448325775    0.9997528478921793
     0.8333924776644845    0.1668277042391874    0.3332741883355131
     0.8320641029760460    0.1679806020623512    0.6660933465508201
     0.8331055522581914    0.5000927865880402    0.9997969308105077
     0.8325437146955719    0.4984936480986150    0.3341229513044258
     0.8318520040143348    0.5021050292628231    0.6648031636720892
     0.8334037739464712    0.8333779777564568    0.9999231397318046
     0.8329194499915530    0.8328578807522958    0.3337472160084445
     0.8334169758246195    0.8334544093867806    0.6664691802675863
     0.1667666185319892    0.0000999515319881    0.1667615848036489
     0.1668028581934895    0.0001361911934883    0.4999584684181732
     0.1664983128462522    0.9998316458462513    0.8332645619562201
     0.1670034747363954    0.3334652196255825    0.1669785931643411
     0.1665161880613006    0.3335218723673212    0.5000523308641834
     0.1661763676776599    0.3332555860288385    0.8333765874680406
     0.1667435272681966    0.6667371079464737    0.1666220222435431
     0.1668697361894935    0.6664388862581938    0.4999072134119595
     0.1669138191078219    0.6665675792780523    0.8330980551674223
     0.5001318866255836    0.0003368077363943    0.1669785931643411
     0.5001885393673225    0.9998495210612992    0.5000523308641834
     0.4999222530288399    0.9995097006776585    0.8333765874680406
     0.5008010855015160    0.3341344185015148    0.1677098215084937
     0.5004500204925867    0.3337833534925856    0.5042098758393213
     0.4993794688742905    0.3327128018742893    0.8342569891350247
     0.5001974867324149    0.6667503098246219    0.1665455906132194
     0.5018635033279120    0.6651853380143372    0.4978949707371770
     0.5005733204491810    0.6653974369760485    0.8320193979376487
     0.8334037739464712    0.0000768602681955    0.1666220222435431
     0.8331055522581914    0.0002030691894923    0.4999072134119595
     0.8332342452780499    0.0002471521078207    0.8330980551674223
     0.8334169758246195    0.3335308197324138    0.1665455906132194
     0.8318520040143348    0.3351968363279108    0.4978949707371770
     0.8320641029760460    0.3339066534491798    0.8320193979376487
     0.8329194499915530    0.6662527839915554    0.1671421192477041
     0.8325437146955719    0.6658770486955743    0.5015063519013846
     0.8333924776644845    0.6667258116644870    0.8331722957608126
     0.9999610494992371    0.1669183020112475    0.1667056175007642
     0.0003989991310576    0.1663488133496084    0.4996664578855541
     0.9994161682307960    0.1670269415496387    0.8329730584503613
     0.0007659391038419    0.4998912424485468    0.1659007278961593
     0.9991575515587136    0.5002131444235707    0.4997868555764293
     0.0003989991310576    0.5003335421144463    0.8336511866503914
     0.9999044984154517    0.8332378314154505    0.1667621685845496
     0.0007659391038419    0.8340992721038406    0.5001087575514532
     0.9999610494992371    0.8332943824992358    0.8330816979887522
     0.3336936075496364    0.1670269415496387    0.1672504987692051
     0.3328139972455490    0.1661473312455513    0.5004470713820777
     0.3329539362696262    0.1662872702696287    0.8337127297303715
     0.3330154793496060    0.5003335421144463    0.1662676678689436
     0.3340673950548514    0.4998585767441958    0.5001414232558042
     0.3328139972455490    0.4995529286179222    0.8338526687544489
     0.3335849680112449    0.8332943824992358    0.1667056175007642
     0.3330154793496060    0.8337323321310566    0.4996664578855541
     0.3336936075496364    0.8327495012307948    0.8329730584503613
     0.6670002091144475    0.1663488133496084    0.1662676678689436
     0.6665252437441970    0.1674007290548539    0.5001414232558042
     0.6662195956179235    0.1661473312455513    0.8338526687544489
     0.6668798114235719    0.5002131444235707    0.1675091154412879
     0.6665252437441970    0.4998585767441958    0.8325992709451463
     0.6665579094485480    0.8340992721038406    0.1659007278961593
     0.6668798114235719    0.8324908845587123    0.4997868555764293
     0.6670002091144475    0.8337323321310566    0.8336511866503914
     0.5751044379073627    0.4084377719073653    0.5915622280926349
 
  0.00000000E+00  0.00000000E+00  0.00000000E+00
  0.00000000E+00  0.00000000E+00  0.00000000E+00
  0.00000000E+00  0.00000000E+00  0.00000000E+00
  0.00000000E+00  0.00000000E+00  0.00000000E+00
  0.00000000E+00  0.00000000E+00  0.00000000E+00
  0.00000000E+00  0.00000000E+00  0.00000000E+00
  0.00000000E+00  0.00000000E+00  0.00000000E+00
  0.00000000E+00  0.00000000E+00  0.00000000E+00
  0.00000000E+00  0.00000000E+00  0.00000000E+00
  0.00000000E+00  0.00000000E+00  0.00000000E+00
  0.00000000E+00  0.00000000E+00  0.00000000E+00
  0.00000000E+00  0.00000000E+00  0.00000000E+00
  0.00000000E+00  0.00000000E+00  0.00000000E+00
  0.00000000E+00  0.00000000E+00  0.00000000E+00
  0.00000000E+00  0.00000000E+00  0.00000000E+00
  0.00000000E+00  0.00000000E+00  0.00000000E+00
  0.00000000E+00  0.00000000E+00  0.00000000E+00
  0.00000000E+00  0.00000000E+00  0.00000000E+00
  0.00000000E+00  0.00000000E+00  0.00000000E+00
  0.00000000E+00  0.00000000E+00  0.00000000E+00
  0.00000000E+00  0.00000000E+00  0.00000000E+00
  0.00000000E+00  0.00000000E+00  0.00000000E+00
  0.00000000E+00  0.00000000E+00  0.00000000E+00
  0.00000000E+00  0.00000000E+00  0.00000000E+00
  0.00000000E+00  0.00000000E+00  0.00000000E+00
  0.00000000E+00  0.00000000E+00  0.00000000E+00
  0.00000000E+00  0.00000000E+00  0.00000000E+00
  0.00000000E+00  0.00000000E+00  0.00000000E+00
  0.00000000E+00  0.00000000E+00  0.00000000E+00
  0.00000000E+00  0.00000000E+00  0.00000000E+00
  0.00000000E+00  0.00000000E+00  0.00000000E+00
  0.00000000E+00  0.00000000E+00  0.00000000E+00
  0.00000000E+00  0.00000000E+00  0.00000000E+00
  0.00000000E+00  0.00000000E+00  0.00000000E+00
  0.00000000E+00  0.00000000E+00  0.00000000E+00
  0.00000000E+00  0.00000000E+00  0.00000000E+00
  0.00000000E+00  0.00000000E+00  0.00000000E+00
  0.00000000E+00  0.00000000E+00  0.00000000E+00
  0.00000000E+00  0.00000000E+00  0.00000000E+00
  0.00000000E+00  0.00000000E+00  0.00000000E+00
  0.00000000E+00  0.00000000E+00  0.00000000E+00
  0.00000000E+00  0.00000000E+00  0.00000000E+00
  0.00000000E+00  0.00000000E+00  0.00000000E+00
  0.00000000E+00  0.00000000E+00  0.00000000E+00
  0.00000000E+00  0.00000000E+00  0.00000000E+00
  0.00000000E+00  0.00000000E+00  0.00000000E+00
  0.00000000E+00  0.00000000E+00  0.00000000E+00
  0.00000000E+00  0.00000000E+00  0.00000000E+00
  0.00000000E+00  0.00000000E+00  0.00000000E+00
  0.00000000E+00  0.00000000E+00  0.00000000E+00
  0.00000000E+00  0.00000000E+00  0.00000000E+00
  0.00000000E+00  0.00000000E+00  0.00000000E+00
  0.00000000E+00  0.00000000E+00  0.00000000E+00
  0.00000000E+00  0.00000000E+00  0.00000000E+00
  0.00000000E+00  0.00000000E+00  0.00000000E+00
  0.00000000E+00  0.00000000E+00  0.00000000E+00
  0.00000000E+00  0.00000000E+00  0.00000000E+00
  0.00000000E+00  0.00000000E+00  0.00000000E+00
  0.00000000E+00  0.00000000E+00  0.00000000E+00
  0.00000000E+00  0.00000000E+00  0.00000000E+00
  0.00000000E+00  0.00000000E+00  0.00000000E+00
  0.00000000E+00  0.00000000E+00  0.00000000E+00
  0.00000000E+00  0.00000000E+00  0.00000000E+00
  0.00000000E+00  0.00000000E+00  0.00000000E+00
  0.00000000E+00  0.00000000E+00  0.00000000E+00
  0.00000000E+00  0.00000000E+00  0.00000000E+00
  0.00000000E+00  0.00000000E+00  0.00000000E+00
  0.00000000E+00  0.00000000E+00  0.00000000E+00
  0.00000000E+00  0.00000000E+00  0.00000000E+00
  0.00000000E+00  0.00000000E+00  0.00000000E+00
  0.00000000E+00  0.00000000E+00  0.00000000E+00
  0.00000000E+00  0.00000000E+00  0.00000000E+00
  0.00000000E+00  0.00000000E+00  0.00000000E+00
  0.00000000E+00  0.00000000E+00  0.00000000E+00
  0.00000000E+00  0.00000000E+00  0.00000000E+00
  0.00000000E+00  0.00000000E+00  0.00000000E+00
  0.00000000E+00  0.00000000E+00  0.00000000E+00
  0.00000000E+00  0.00000000E+00  0.00000000E+00
  0.00000000E+00  0.00000000E+00  0.00000000E+00
  0.00000000E+00  0.00000000E+00  0.00000000E+00
  0.00000000E+00  0.00000000E+00  0.00000000E+00
  0.00000000E+00  0.00000000E+00  0.00000000E+00
  0.00000000E+00  0.00000000E+00  0.00000000E+00
  0.00000000E+00  0.00000000E+00  0.00000000E+00
  0.00000000E+00  0.00000000E+00  0.00000000E+00
  0.00000000E+00  0.00000000E+00  0.00000000E+00
  0.00000000E+00  0.00000000E+00  0.00000000E+00
  0.00000000E+00  0.00000000E+00  0.00000000E+00
  0.00000000E+00  0.00000000E+00  0.00000000E+00
  0.00000000E+00  0.00000000E+00  0.00000000E+00
  0.00000000E+00  0.00000000E+00  0.00000000E+00
  0.00000000E+00  0.00000000E+00  0.00000000E+00
  0.00000000E+00  0.00000000E+00  0.00000000E+00
  0.00000000E+00  0.00000000E+00  0.00000000E+00
  0.00000000E+00  0.00000000E+00  0.00000000E+00
  0.00000000E+00  0.00000000E+00  0.00000000E+00
  0.00000000E+00  0.00000000E+00  0.00000000E+00
  0.00000000E+00  0.00000000E+00  0.00000000E+00
  0.00000000E+00  0.00000000E+00  0.00000000E+00
  0.00000000E+00  0.00000000E+00  0.00000000E+00
  0.00000000E+00  0.00000000E+00  0.00000000E+00
  0.00000000E+00  0.00000000E+00  0.00000000E+00
  0.00000000E+00  0.00000000E+00  0.00000000E+00
  0.00000000E+00  0.00000000E+00  0.00000000E+00
  0.00000000E+00  0.00000000E+00  0.00000000E+00
  0.00000000E+00  0.00000000E+00  0.00000000E+00
  0.00000000E+00  0.00000000E+00  0.00000000E+00
  0.00000000E+00  0.00000000E+00  0.00000000E+00
  0.00000000E+00  0.00000000E+00  0.00000000E+00
  0.00000000E+00  0.00000000E+00  0.00000000E+00
  0.00000000E+00  0.00000000E+00  0.00000000E+00
  0.00000000E+00  0.00000000E+00  0.00000000E+00
  0.00000000E+00  0.00000000E+00  0.00000000E+00
  0.00000000E+00  0.00000000E+00  0.00000000E+00
  0.00000000E+00  0.00000000E+00  0.00000000E+00
  0.00000000E+00  0.00000000E+00  0.00000000E+00
  0.00000000E+00  0.00000000E+00  0.00000000E+00
  0.00000000E+00  0.00000000E+00  0.00000000E+00
  0.00000000E+00  0.00000000E+00  0.00000000E+00
  0.00000000E+00  0.00000000E+00  0.00000000E+00
  0.00000000E+00  0.00000000E+00  0.00000000E+00
  0.00000000E+00  0.00000000E+00  0.00000000E+00
  0.00000000E+00  0.00000000E+00  0.00000000E+00
  0.00000000E+00  0.00000000E+00  0.00000000E+00
  0.00000000E+00  0.00000000E+00  0.00000000E+00
  0.00000000E+00  0.00000000E+00  0.00000000E+00
  0.00000000E+00  0.00000000E+00  0.00000000E+00
  0.00000000E+00  0.00000000E+00  0.00000000E+00
  0.00000000E+00  0.00000000E+00  0.00000000E+00
  0.00000000E+00  0.00000000E+00  0.00000000E+00
  0.00000000E+00  0.00000000E+00  0.00000000E+00
  0.00000000E+00  0.00000000E+00  0.00000000E+00
  0.00000000E+00  0.00000000E+00  0.00000000E+00
  0.00000000E+00  0.00000000E+00  0.00000000E+00
  0.00000000E+00  0.00000000E+00  0.00000000E+00
  0.00000000E+00  0.00000000E+00  0.00000000E+00
  0.00000000E+00  0.00000000E+00  0.00000000E+00
  0.00000000E+00  0.00000000E+00  0.00000000E+00
  0.00000000E+00  0.00000000E+00  0.00000000E+00
  0.00000000E+00  0.00000000E+00  0.00000000E+00
  0.00000000E+00  0.00000000E+00  0.00000000E+00
  0.00000000E+00  0.00000000E+00  0.00000000E+00
  0.00000000E+00  0.00000000E+00  0.00000000E+00
  0.00000000E+00  0.00000000E+00  0.00000000E+00
  0.00000000E+00  0.00000000E+00  0.00000000E+00
  0.00000000E+00  0.00000000E+00  0.00000000E+00
  0.00000000E+00  0.00000000E+00  0.00000000E+00
  0.00000000E+00  0.00000000E+00  0.00000000E+00
  0.00000000E+00  0.00000000E+00  0.00000000E+00
  0.00000000E+00  0.00000000E+00  0.00000000E+00
  0.00000000E+00  0.00000000E+00  0.00000000E+00
  0.00000000E+00  0.00000000E+00  0.00000000E+00
  0.00000000E+00  0.00000000E+00  0.00000000E+00
  0.00000000E+00  0.00000000E+00  0.00000000E+00
  0.00000000E+00  0.00000000E+00  0.00000000E+00
  0.00000000E+00  0.00000000E+00  0.00000000E+00
  0.00000000E+00  0.00000000E+00  0.00000000E+00
  0.00000000E+00  0.00000000E+00  0.00000000E+00
  0.00000000E+00  0.00000000E+00  0.00000000E+00
  0.00000000E+00  0.00000000E+00  0.00000000E+00
  0.00000000E+00  0.00000000E+00  0.00000000E+00
  0.00000000E+00  0.00000000E+00  0.00000000E+00
  0.00000000E+00  0.00000000E+00  0.00000000E+00
  0.00000000E+00  0.00000000E+00  0.00000000E+00
  0.00000000E+00  0.00000000E+00  0.00000000E+00
  0.00000000E+00  0.00000000E+00  0.00000000E+00
  0.00000000E+00  0.00000000E+00  0.00000000E+00
  0.00000000E+00  0.00000000E+00  0.00000000E+00
  0.00000000E+00  0.00000000E+00  0.00000000E+00
  0.00000000E+00  0.00000000E+00  0.00000000E+00
  0.00000000E+00  0.00000000E+00  0.00000000E+00
  0.00000000E+00  0.00000000E+00  0.00000000E+00
  0.00000000E+00  0.00000000E+00  0.00000000E+00
  0.00000000E+00  0.00000000E+00  0.00000000E+00
  0.00000000E+00  0.00000000E+00  0.00000000E+00
  0.00000000E+00  0.00000000E+00  0.00000000E+00
  0.00000000E+00  0.00000000E+00  0.00000000E+00
  0.00000000E+00  0.00000000E+00  0.00000000E+00
  0.00000000E+00  0.00000000E+00  0.00000000E+00
  0.00000000E+00  0.00000000E+00  0.00000000E+00
  0.00000000E+00  0.00000000E+00  0.00000000E+00
  0.00000000E+00  0.00000000E+00  0.00000000E+00
  0.00000000E+00  0.00000000E+00  0.00000000E+00
  0.00000000E+00  0.00000000E+00  0.00000000E+00
  0.00000000E+00  0.00000000E+00  0.00000000E+00
  0.00000000E+00  0.00000000E+00  0.00000000E+00
  0.00000000E+00  0.00000000E+00  0.00000000E+00
  0.00000000E+00  0.00000000E+00  0.00000000E+00
  0.00000000E+00  0.00000000E+00  0.00000000E+00
  0.00000000E+00  0.00000000E+00  0.00000000E+00
  0.00000000E+00  0.00000000E+00  0.00000000E+00
  0.00000000E+00  0.00000000E+00  0.00000000E+00
  0.00000000E+00  0.00000000E+00  0.00000000E+00
  0.00000000E+00  0.00000000E+00  0.00000000E+00
  0.00000000E+00  0.00000000E+00  0.00000000E+00
  0.00000000E+00  0.00000000E+00  0.00000000E+00
  0.00000000E+00  0.00000000E+00  0.00000000E+00
  0.00000000E+00  0.00000000E+00  0.00000000E+00
  0.00000000E+00  0.00000000E+00  0.00000000E+00
  0.00000000E+00  0.00000000E+00  0.00000000E+00
  0.00000000E+00  0.00000000E+00  0.00000000E+00
  0.00000000E+00  0.00000000E+00  0.00000000E+00
  0.00000000E+00  0.00000000E+00  0.00000000E+00
  0.00000000E+00  0.00000000E+00  0.00000000E+00
  0.00000000E+00  0.00000000E+00  0.00000000E+00
  0.00000000E+00  0.00000000E+00  0.00000000E+00
  0.00000000E+00  0.00000000E+00  0.00000000E+00
  0.00000000E+00  0.00000000E+00  0.00000000E+00
  0.00000000E+00  0.00000000E+00  0.00000000E+00
  0.00000000E+00  0.00000000E+00  0.00000000E+00
  0.00000000E+00  0.00000000E+00  0.00000000E+00
  0.00000000E+00  0.00000000E+00  0.00000000E+00
  0.00000000E+00  0.00000000E+00  0.00000000E+00
  0.00000000E+00  0.00000000E+00  0.00000000E+00
  0.00000000E+00  0.00000000E+00  0.00000000E+00
