
     Program PWSCF v.7.4.1 starts on  1Aug2026 at  0: 8:11 

     This program is part of the open-source Quantum ESPRESSO suite
     for quantum simulation of materials; please cite
         "P. Giannozzi et al., J. Phys.:Condens. Matter 21 395502 (2009);
         "P. Giannozzi et al., J. Phys.:Condens. Matter 29 465901 (2017);
         "P. Giannozzi et al., J. Chem. Phys. 152 154105 (2020);
          URL http://www.quantum-espresso.org", 
     in publications or presentations arising from this work. More details at
     http://www.quantum-espresso.org/quote

     Parallel version (MPI), running on    40 processors

     MPI processes distributed on     1 nodes
     264063 MiB available memory on the printing compute node when the environment starts
 
     Reading input from diamond_pd_nscf.in

     Current dimensions of program PWSCF are:
     Max number of different atomic species (ntypx) = 10
     Max number of k-points (npk) =  40000
     Max angular momentum in pseudopotentials (lmaxx) =  4
     file C.pbe-n-kjpaw_psl.1.0.0.UPF: wavefunction(s)  2S 2P renormalized
     file N.pbe-n-kjpaw_psl.1.0.0.UPF: wavefunction(s)  2S renormalized

     Atomic positions and unit cell read from directory:
     ../tmp/diamond_pd.save/
 
 
     R & G space division:  proc/nbgrp/npool/nimage =      40
     Subspace diagonalization in iterative solution of the eigenvalue problem:
     one sub-group per band group will be used
     scalapack distributed-memory algorithm (size of sub-group:  6*  6 procs)

 
     Parallelization info
     --------------------
     sticks:   dense  smooth     PW     G-vecs:    dense   smooth      PW
     Min         146     146     36                 8464     8464    1056
     Max         147     147     37                 8471     8471    1063
     Sum        5877    5877   1473               338755   338755   42379
 
     Using Slab Decomposition
 


     bravais-lattice index     =            0
     lattice parameter (alat)  =      20.2515  a.u.
     unit-cell volume          =    8305.5769 (a.u.)^3
     number of atoms/cell      =          215
     number of atomic types    =            2
     number of electrons       =       862.00 (up: 432.00, down: 430.00)
     number of Kohn-Sham states=          862
     kinetic-energy cutoff     =      45.0000  Ry
     charge density cutoff     =     180.0000  Ry
     Exchange-correlation= SLA  PW   PBX  PBC
                           (   1   4   3   4   0   0   0)

     celldm(1)=  20.251472  celldm(2)=   0.000000  celldm(3)=   0.000000
     celldm(4)=   0.000000  celldm(5)=   0.000000  celldm(6)=   0.000000

     crystal axes: (cart. coord. in units of alat)
               a(1) = (  -0.707107   0.000000   0.707107 )  
               a(2) = (   0.408248   0.816497   0.408248 )  
               a(3) = (  -0.577350   0.577350  -0.577350 )  

     reciprocal axes: (cart. coord. in units 2 pi/alat)
               b(1) = ( -0.707107  0.000000  0.707107 )  
               b(2) = (  0.408248  0.816497  0.408248 )  
               b(3) = ( -0.577350  0.577350 -0.577350 )  


     PseudoPot. # 1 for C  read from file:
     ../../../pseudos/C.pbe-n-kjpaw_psl.1.0.0.UPF
     MD5 check sum: 5f16ad9a65e90284d1d834d4ab3b0f7d
     Pseudo is Projector augmented-wave + core cor, Zval =  4.0
     Generated using &quot;atomic&quot; code by A. Dal Corso  v.6.3
     Shape of augmentation charge: PSQ
     Using radial grid of 1073 points,  4 beta functions with: 
                l(1) =   0
                l(2) =   0
                l(3) =   1
                l(4) =   1
     Q(r) pseudized with 0 coefficients 


     PseudoPot. # 2 for N  read from file:
     ../../../pseudos/N.pbe-n-kjpaw_psl.1.0.0.UPF
     MD5 check sum: a6186d50559fdcbe4b2d0187dd61a119
     Pseudo is Projector augmented-wave + core cor, Zval =  5.0
     Generated using &quot;atomic&quot; code by A. Dal Corso  v.6.3
     Shape of augmentation charge: PSQ
     Using radial grid of 1085 points,  4 beta functions with: 
                l(1) =   0
                l(2) =   0
                l(3) =   1
                l(4) =   1
     Q(r) pseudized with 0 coefficients 


     atomic species   valence    mass     pseudopotential
     C                 4.00    12.01070     C ( 1.00)
     N                 5.00    14.00670     N ( 1.00)

     Starting magnetic structure 
     atomic species   magnetization
     C               0.000
     N               0.000

     No symmetry found


                                    s                        frac. trans.

      isym =  1     identity                                     

 cryst.   s( 1) = (     1          0          0      )
                  (     0          1          0      )
                  (     0          0          1      )

 cart.    s( 1) = (  1.0000000  0.0000000 -0.0000000 )
                  (  0.0000000  1.0000000  0.0000000 )
                  ( -0.0000000  0.0000000  1.0000000 )


   Cartesian axes

     site n.     atom                  positions (alat units)
         1        C      tau(   1) = (  -0.0001084   0.0001513   0.0000716  )
         2        C      tau(   2) = (  -0.1925730   0.1927703  -0.1921765  )
         3        C      tau(   3) = (  -0.3849160   0.3850699  -0.3848692  )
         4        C      tau(   4) = (   0.1357380   0.2724319   0.1361346  )
         5        C      tau(   5) = (  -0.0569096   0.4653583  -0.0560052  )
         6        C      tau(   6) = (  -0.2488149   0.6573264  -0.2488700  )
         7        C      tau(   7) = (   0.2720949   0.5444875   0.2721418  )
         8        C      tau(   8) = (   0.0797051   0.7370387   0.0796501  )
         9        C      tau(   9) = (  -0.1128283   0.9291416  -0.1126193  )
        10        C      tau(  10) = (  -0.2357756   0.0001121   0.2357484  )
        11        C      tau(  11) = (  -0.4283078   0.1925369   0.0432320  )
        12        C      tau(  12) = (  -0.6204825   0.3850805  -0.1490298  )
        13        C      tau(  13) = (  -0.0996248   0.2722888   0.3719150  )
        14        C      tau(  14) = (  -0.2950107   0.4647859   0.1822347  )
        15        C      tau(  15) = (  -0.4822829   0.6579144  -0.0122862  )
        16        C      tau(  16) = (   0.0362608   0.5444331   0.5077135  )
        17        C      tau(  17) = (  -0.1569282   0.7368587   0.3130686  )
        18        C      tau(  18) = (  -0.3488245   0.9290965   0.1233878  )
        19        C      tau(  19) = (  -0.4714238  -0.0000265   0.4714302  )
        20        C      tau(  20) = (  -0.6640801   0.1922170   0.2789293  )
        21        C      tau(  21) = (  -0.8561791   0.3850821   0.0865461  )
        22        C      tau(  22) = (  -0.3352488   0.2720048   0.6077605  )
        23        C      tau(  23) = (  -0.5283127   0.4639751   0.4157334  )
        24        C      tau(  24) = (  -0.7188649   0.6568275   0.2225759  )
        25        C      tau(  25) = (  -0.1993188   0.5444631   0.7434064  )
        26        C      tau(  26) = (  -0.3915833   0.7362394   0.5498575  )
        27        C      tau(  27) = (  -0.5840911   0.9293409   0.3585952  )
        28        C      tau(  28) = (  -0.0499439   0.1363627   0.1859318  )
        29        C      tau(  29) = (  -0.2427543   0.3296308  -0.0055779  )
        30        C      tau(  30) = (  -0.4347036   0.5212052  -0.1989281  )
        31        C      tau(  31) = (   0.0860232   0.4084807   0.3219990  )
        32        C      tau(  32) = (  -0.1078353   0.6027354   0.1298556  )
        33        C      tau(  33) = (  -0.2989116   0.7927305  -0.0628899  )
        34        C      tau(  34) = (   0.2222823   0.6805772   0.4580444  )
        35        C      tau(  35) = (   0.0298978   0.8731135   0.2655313  )
        36        C      tau(  36) = (  -0.1626525   1.0652628   0.0733261  )
        37        C      tau(  37) = (  -0.2854332   0.1359048   0.4218449  )
        38        C      tau(  38) = (  -0.4784176   0.3276581   0.2295227  )
        39        C      tau(  39) = (  -0.6692778   0.5213504   0.0375107  )
        40        C      tau(  40) = (  -0.1494000   0.4082771   0.5576781  )
        41        C      tau(  41) = (  -0.3435864   0.5974989   0.3635208  )
        42        C      tau(  42) = (  -0.5318464   0.7933263   0.1726900  )
        43        C      tau(  43) = (  -0.0136178   0.6804780   0.6935358  )
        44        C      tau(  44) = (  -0.2060282   0.8727552   0.5005085  )
        45        C      tau(  45) = (  -0.3982377   1.0655554   0.3087816  )
        46        C      tau(  46) = (  -0.5212686   0.1361527   0.6574544  )
        47        C      tau(  47) = (  -0.7139734   0.3285297   0.4651355  )
        48        C      tau(  48) = (  -0.9059805   0.5211430   0.2724085  )
        49        C      tau(  49) = (  -0.3851938   0.4083330   0.7933871  )
        50        C      tau(  50) = (  -0.5777470   0.6008150   0.6009491  )
        51        C      tau(  51) = (  -0.7698605   0.7931919   0.4084601  )
        52        C      tau(  52) = (  -0.2491257   0.6804796   0.9294171  )
        53        C      tau(  53) = (  -0.4414801   0.8727978   0.7367578  )
        54        C      tau(  54) = (  -0.6339504   1.0654454   0.5445408  )
        55        C      tau(  55) = (  -0.2141842   0.0965113   0.0216916  )
        56        C      tau(  56) = (  -0.4066113   0.2889475  -0.1706354  )
        57        C      tau(  57) = (  -0.5990037   0.4812998  -0.3632416  )
        58        C      tau(  58) = (  -0.0792180   0.3693113   0.1579584  )
        59        C      tau(  59) = (  -0.2712920   0.5630741  -0.0336011  )
        60        C      tau(  60) = (  -0.4628781   0.7535460  -0.2272447  )
        61        C      tau(  61) = (   0.0579599   0.6407454   0.2937353  )
        62        C      tau(  62) = (  -0.1343044   0.8326709   0.1017174  )
        63        C      tau(  63) = (  -0.3269653   1.0253938  -0.0909867  )
        64        C      tau(  64) = (  -0.4499772   0.0959797   0.2573009  )
        65        C      tau(  65) = (  -0.6422350   0.2886953   0.0648431  )
        66        C      tau(  66) = (  -0.8344834   0.4813026  -0.1273298  )
        67        C      tau(  67) = (  -0.3138697   0.3675841   0.3940706  )
        68        C      tau(  68) = (  -0.5037826   0.5586287   0.2033246  )
        69        C      tau(  69) = (  -0.6977981   0.7534318   0.0087386  )
        70        C      tau(  70) = (  -0.1784598   0.6404429   0.5283287  )
        71        C      tau(  71) = (  -0.3699491   0.8326092   0.3345874  )
        72        C      tau(  72) = (  -0.5624935   1.0257002   0.1445259  )
        73        C      tau(  73) = (  -0.6856516   0.0962667   0.4930714  )
        74        C      tau(  74) = (  -0.8779596   0.2887680   0.3006213  )
        75        C      tau(  75) = (  -1.0703544   0.4812161   0.1081884  )
        76        C      tau(  76) = (  -0.5496863   0.3683924   0.6294226  )
        77        C      tau(  77) = (  -0.7418991   0.5609850   0.4367970  )
        78        C      tau(  78) = (  -0.9340346   0.7532840   0.2442033  )
        79        C      tau(  79) = (  -0.4133604   0.6406727   0.7650286  )
        80        C      tau(  80) = (  -0.6057516   0.8330114   0.5725690  )
        81        C      tau(  81) = (  -0.7982254   1.0255856   0.3802658  )
        82        C      tau(  82) = (  -0.0285463   0.2327019  -0.0279167  )
        83        C      tau(  83) = (  -0.2207295   0.4249030  -0.2207834  )
        84        C      tau(  84) = (  -0.4130968   0.6173898  -0.4130122  )
        85        C      tau(  85) = (   0.1080075   0.5046680   0.1079537  )
        86        C      tau(  86) = (  -0.0848896   0.6972730  -0.0842972  )
        87        C      tau(  87) = (  -0.2770116   0.8897324  -0.2776943  )
        88        C      tau(  88) = (   0.2438690   0.7767965   0.2439537  )
        89        C      tau(  89) = (   0.0521203   0.9695932   0.0514375  )
        90        C      tau(  90) = (  -0.1410008   1.1615659  -0.1408424  )
        91        C      tau(  91) = (  -0.2640842   0.2316198   0.2078838  )
        92        C      tau(  92) = (  -0.4562007   0.4251910   0.0154678  )
        93        C      tau(  93) = (  -0.6488086   0.6173205  -0.1775380  )
        94        C      tau(  94) = (  -0.1282892   0.5047556   0.3433793  )
        95        C      tau(  95) = (  -0.5123487   0.8894120  -0.0411145  )
        96        C      tau(  96) = (   0.0084044   0.7767871   0.4796750  )
        97        C      tau(  97) = (  -0.1843484   0.9689982   0.2868858  )
        98        C      tau(  98) = (  -0.3768131   1.1623933   0.0947692  )
        99        C      tau(  99) = (  -0.4997708   0.2320742   0.4434602  )
       100        C      tau( 100) = (  -0.6925246   0.4242010   0.2511648  )
       101        C      tau( 101) = (  -0.8840830   0.6172573   0.0585104  )
       102        C      tau( 102) = (  -0.3637709   0.5039700   0.5799186  )
       103        C      tau( 103) = (  -0.5556315   0.6968424   0.3865491  )
       104        C      tau( 104) = (  -0.7484888   0.8896548   0.1944776  )
       105        C      tau( 105) = (  -0.2276070   0.7765451   0.7149864  )
       106        C      tau( 106) = (  -0.4200135   0.9693563   0.5229529  )
       107        C      tau( 107) = (  -0.6123057   1.1616385   0.3304450  )
       108        C      tau( 108) = (  -0.0732005   0.1164469   0.0449458  )
       109        C      tau( 109) = (  -0.2657257   0.3091850  -0.1471795  )
       110        C      tau( 110) = (  -0.4579461   0.5012115  -0.3400326  )
       111        C      tau( 111) = (   0.0624966   0.3888251   0.1810429  )
       112        C      tau( 112) = (  -0.1300831   0.5816260  -0.0110430  )
       113        C      tau( 113) = (  -0.3215774   0.7742584  -0.2050463  )
       114        C      tau( 114) = (   0.1990774   0.6606321   0.3169908  )
       115        C      tau( 115) = (   0.0074928   0.8541042   0.1240239  )
       116        C      tau( 116) = (  -0.1858351   1.0454118  -0.0678244  )
       117        C      tau( 117) = (  -0.3087828   0.1157862   0.2806884  )
       118        C      tau( 118) = (  -0.5012737   0.3085631   0.0882479  )
       119        C      tau( 119) = (  -0.6931161   0.5012939  -0.1040034  )
       120        C      tau( 120) = (  -0.1727876   0.3882672   0.4167341  )
       121        C      tau( 121) = (  -0.5565315   0.7733105   0.0320376  )
       122        C      tau( 122) = (  -0.0369467   0.6605073   0.5521660  )
       123        C      tau( 123) = (  -0.2293068   0.8527086   0.3592623  )
       124        C      tau( 124) = (  -0.4213594   1.0468677   0.1673467  )
       125        C      tau( 125) = (  -0.5445385   0.1160941   0.5163694  )
       126        C      tau( 126) = (  -0.7372467   0.3083770   0.3239722  )
       127        C      tau( 127) = (  -0.9291365   0.5011816   0.1314133  )
       128        C      tau( 128) = (  -0.4084751   0.3881504   0.6527437  )
       129        C      tau( 129) = (  -0.6008788   0.5806903   0.4599797  )
       130        C      tau( 130) = (  -0.7926403   0.7732007   0.2674293  )
       131        C      tau( 131) = (  -0.2723542   0.6605437   0.7881956  )
       132        C      tau( 132) = (  -0.4646931   0.8527740   0.5953765  )
       133        C      tau( 133) = (  -0.6571724   1.0455076   0.4034898  )
       134        C      tau( 134) = (  -0.1231356   0.2524727   0.2308859  )
       135        C      tau( 135) = (  -0.3162656   0.4466105   0.0397056  )
       136        C      tau( 136) = (  -0.5082642   0.6372095  -0.1543792  )
       137        C      tau( 137) = (   0.0129853   0.5246044   0.3667062  )
       138        C      tau( 138) = (  -0.1703121   0.7198102   0.1746867  )
       139        C      tau( 139) = (  -0.3715182   0.9092736  -0.0179196  )
       140        C      tau( 140) = (   0.1493262   0.7967729   0.5030433  )
       141        C      tau( 141) = (  -0.0432421   0.9891665   0.3104149  )
       142        C      tau( 142) = (  -0.2355705   1.1817506   0.1180432  )
       143        C      tau( 143) = (  -0.3585841   0.2517883   0.4668599  )
       144        C      tau( 144) = (  -0.5522611   0.4433628   0.2747203  )
       145        C      tau( 145) = (  -0.7426577   0.6372641   0.0817596  )
       146        C      tau( 146) = (  -0.2226567   0.5243681   0.6022999  )
       147        C      tau( 147) = (  -0.4148885   0.7160537   0.4077698  )
       148        C      tau( 148) = (  -0.6079246   0.9094880   0.2175623  )
       149        C      tau( 149) = (  -0.0865482   0.7964687   0.7384165  )
       150        C      tau( 150) = (  -0.2789249   0.9889573   0.5459734  )
       151        C      tau( 151) = (  -0.4711716   1.1816602   0.3537682  )
       152        C      tau( 152) = (  -0.5945221   0.2524276   0.7023501  )
       153        C      tau( 153) = (  -0.7868931   0.4449017   0.5098864  )
       154        C      tau( 154) = (  -0.9790152   0.6372635   0.3172155  )
       155        C      tau( 155) = (  -0.4580986   0.5244370   0.8381327  )
       156        C      tau( 156) = (  -0.6507294   0.7170019   0.6457379  )
       157        C      tau( 157) = (  -0.8430104   0.9094553   0.4531873  )
       158        C      tau( 158) = (  -0.3221768   0.7966606   0.9743173  )
       159        C      tau( 159) = (  -0.5143417   0.9893900   0.7817385  )
       160        C      tau( 160) = (  -0.7070083   1.1815388   0.5894519  )
       161        C      tau( 161) = (  -0.2873131   0.2126365   0.0667084  )
       162        C      tau( 162) = (  -0.4794992   0.4051076  -0.1257782  )
       163        C      tau( 163) = (  -0.6721896   0.5974397  -0.3184725  )
       164        C      tau( 164) = (  -0.1528811   0.4862542   0.2030901  )
       165        C      tau( 165) = (  -0.3442225   0.6776125   0.0007763  )
       166        C      tau( 166) = (  -0.5359237   0.8696219  -0.1822668  )
       167        C      tau( 167) = (  -0.0147611   0.7569534   0.3391239  )
       168        C      tau( 168) = (  -0.2075344   0.9490627   0.1460642  )
       169        C      tau( 169) = (  -0.3999452   1.1418666  -0.0463315  )
       170        C      tau( 170) = (  -0.5231108   0.2118675   0.3023332  )
       171        C      tau( 171) = (  -0.7150386   0.4048962   0.1099180  )
       172        C      tau( 172) = (  -0.9075055   0.5972710  -0.0825407  )
       173        C      tau( 173) = (  -0.3871583   0.4834234   0.4398231  )
       174        C      tau( 174) = (  -0.5767488   0.6767798   0.2459095  )
       175        C      tau( 175) = (  -0.7714365   0.8694539   0.0534618  )
       176        C      tau( 176) = (  -0.2508629   0.7565935   0.5735544  )
       177        C      tau( 177) = (  -0.4430933   0.9494828   0.3823936  )
       178        C      tau( 178) = (  -0.6356453   1.1417522   0.1892944  )
       179        C      tau( 179) = (  -0.7587645   0.2125757   0.5381078  )
       180        C      tau( 180) = (  -0.9508764   0.4048690   0.3453549  )
       181        C      tau( 181) = (  -1.1434437   0.5973879   0.1530504  )
       182        C      tau( 182) = (  -0.6226719   0.4847484   0.6741077  )
       183        C      tau( 183) = (  -0.8148796   0.6771724   0.4815877  )
       184        C      tau( 184) = (  -1.0072936   0.8697798   0.2887865  )
       185        C      tau( 185) = (  -0.4863444   0.7568055   0.8098862  )
       186        C      tau( 186) = (  -0.6786952   0.9493248   0.6175026  )
       187        C      tau( 187) = (  -0.8713048   1.1416738   0.4251553  )
       188        C      tau( 188) = (  -0.1017368   0.3491754   0.0170127  )
       189        C      tau( 189) = (  -0.2934507   0.5406522  -0.1760803  )
       190        C      tau( 190) = (  -0.4862549   0.7336102  -0.3682379  )
       191        C      tau( 191) = (   0.0352209   0.6204013   0.1525913  )
       192        C      tau( 192) = (  -0.1578110   0.8132150  -0.0395081  )
       193        C      tau( 193) = (  -0.3501207   1.0057437  -0.2322792  )
       194        C      tau( 194) = (   0.1708896   0.8930602   0.2889066  )
       195        C      tau( 195) = (  -0.0214309   1.0854972   0.0964107  )
       196        C      tau( 196) = (  -0.2140165   1.2777814  -0.0960253  )
       197        C      tau( 197) = (  -0.3370943   0.3466456   0.2529840  )
       198        C      tau( 198) = (  -0.5272084   0.5414293   0.0610164  )
       199        C      tau( 199) = (  -0.7216407   0.7334091  -0.1323792  )
       200        C      tau( 200) = (  -0.2019635   0.6203470   0.3862613  )
       201        C      tau( 201) = (  -0.3969540   0.8216820   0.1975805  )
       202        C      tau( 202) = (  -0.5856983   1.0056082   0.0034941  )
       203        C      tau( 203) = (  -0.0649081   0.8927592   0.5243534  )
       204        C      tau( 204) = (  -0.2571667   1.0853233   0.3320257  )
       205        C      tau( 205) = (  -0.4496625   1.2781547   0.1395302  )
       206        C      tau( 206) = (  -0.5729994   0.3481663   0.4885200  )
       207        C      tau( 207) = (  -0.7648208   0.5409048   0.2957094  )
       208        C      tau( 208) = (  -0.9573081   0.7333335   0.1033247  )
       209        C      tau( 209) = (  -0.4366163   0.6205405   0.6239138  )
       210        C      tau( 210) = (  -0.6288323   0.8130945   0.4315425  )
       211        C      tau( 211) = (  -0.8216123   1.0056699   0.2391807  )
       212        C      tau( 212) = (  -0.3005931   0.8926792   0.7600396  )
       213        C      tau( 213) = (  -0.4928743   1.0854351   0.5679187  )
       214        C      tau( 214) = (  -0.6853662   1.2777481   0.3753325  )
       215        N      tau( 215) = (  -0.3694159   0.5697782   0.2311646  )

   Crystallographic axes

     site n.     atom                  positions (cryst. coord.)
         1        C      tau(   1) = (  0.0001273  0.0001086  0.0001086  )
         2        C      tau(   2) = (  0.0002804  0.0003229  0.3334313  )
         3        C      tau(   3) = (  0.0000331  0.0001448  0.6667559  )
         4        C      tau(   4) = (  0.0002804  0.3334313  0.0003229  )
         5        C      tau(   5) = (  0.0006395  0.3338661  0.3338661  )
         6        C      tau(   6) = ( -0.0000389  0.3335258  0.6668461  )
         7        C      tau(   7) = (  0.0000331  0.6667559  0.0001448  )
         8        C      tau(   8) = ( -0.0000389  0.6668461  0.3335258  )
         9        C      tau(   9) = (  0.0001478  0.6666024  0.6666024  )
        10        C      tau(  10) = (  0.3334178  0.0000804  0.0000804  )
        11        C      tau(  11) = (  0.3334290 -0.0000008  0.3334849  )
        12        C      tau(  12) = (  0.3333674  0.0002649  0.6666044  )
        13        C      tau(  13) = (  0.3334290  0.3334849 -0.0000008  )
        14        C      tau(  14) = (  0.3374635  0.3334555  0.3334555  )
        15        C      tau(  15) = (  0.3323379  0.3352779  0.6653867  )
        16        C      tau(  16) = (  0.3333674  0.6666044  0.0002649  )
        17        C      tau(  17) = (  0.3323379  0.6653867  0.3352779  )
        18        C      tau(  18) = (  0.3339045  0.6665700  0.6665700  )
        19        C      tau(  19) = (  0.6666984 -0.0000190 -0.0000190  )
        20        C      tau(  20) = (  0.6668083 -0.0002927  0.3333434  )
        21        C      tau(  21) = (  0.6666074  0.0002168  0.6666751  )
        22        C      tau(  22) = (  0.6668083  0.3333434 -0.0002927  )
        23        C      tau(  23) = (  0.6675414  0.3328738  0.3328738  )
        24        C      tau(  24) = (  0.6656992  0.3336883  0.6657521  )
        25        C      tau(  25) = (  0.6666074  0.6666751  0.0002168  )
        26        C      tau(  26) = (  0.6656992  0.6657521  0.3336883  )
        27        C      tau(  27) = (  0.6665799  0.6667454  0.6667453  )
        28        C      tau(  28) = (  0.1667893  0.1668565  0.0002164  )
        29        C      tau(  29) = (  0.1677091  0.1677612  0.3336871  )
        30        C      tau(  30) = (  0.1667184  0.1668832  0.6667454  )
        31        C      tau(  31) = (  0.1668601  0.5000975  0.0002647  )
        32        C      tau(  32) = (  0.1680729  0.5011211  0.3352760  )
        33        C      tau(  33) = (  0.1668926  0.4995569  0.6665694  )
        34        C      tau(  34) = (  0.1667090  0.8334311  0.0001446  )
        35        C      tau(  35) = (  0.1666180  0.8335026  0.3335262  )
        36        C      tau(  36) = (  0.1668621  0.8333161  0.6666023  )
        37        C      tau(  37) = (  0.5001211  0.1666557 -0.0002927  )
        38        C      tau(  38) = (  0.5005894  0.1659208  0.3328730  )
        39        C      tau(  39) = (  0.4997750  0.1677630  0.6657528  )
        40        C      tau(  40) = (  0.4999798  0.5000357 -0.0000005  )
        41        C      tau(  41) = (  0.5000003  0.4959939  0.3334570  )
        42        C      tau(  42) = (  0.4981825  0.5011233  0.6653862  )
        43        C      tau(  43) = (  0.5000331  0.8331833  0.0003233  )
        44        C      tau(  44) = (  0.4995969  0.8328227  0.3338672  )
        45        C      tau(  45) = (  0.4999382  0.8335020  0.6668462  )
        46        C      tau(  46) = (  0.8334830  0.1667658 -0.0000191  )
        47        C      tau(  47) = (  0.8337559  0.1666557  0.3333433  )
        48        C      tau(  48) = (  0.8332468  0.1668568  0.6666750  )
        49        C      tau(  49) = (  0.8333825  0.5000467  0.0000807  )
        50        C      tau(  50) = (  0.8334640  0.5000356  0.3334849  )
        51        C      tau(  51) = (  0.8331985  0.5000973  0.6666042  )
        52        C      tau(  52) = (  0.8333556  0.8333371  0.0001087  )
        53        C      tau(  53) = (  0.8331400  0.8331830  0.3334314  )
        54        C      tau(  54) = (  0.8333191  0.8334312  0.6667559  )
        55        C      tau(  55) = (  0.1667893  0.0002164  0.1668565  )
        56        C      tau(  56) = (  0.1668601  0.0002647  0.5000975  )
        57        C      tau(  57) = (  0.1667090  0.0001446  0.8334311  )
        58        C      tau(  58) = (  0.1677091  0.3336871  0.1677612  )
        59        C      tau(  59) = (  0.1680729  0.3352760  0.5011211  )
        60        C      tau(  60) = (  0.1666180  0.3335262  0.8335026  )
        61        C      tau(  61) = (  0.1667184  0.6667454  0.1668832  )
        62        C      tau(  62) = (  0.1668926  0.6665694  0.4995569  )
        63        C      tau(  63) = (  0.1668621  0.6666023  0.8333161  )
        64        C      tau(  64) = (  0.5001211 -0.0002927  0.1666557  )
        65        C      tau(  65) = (  0.4999798 -0.0000005  0.5000357  )
        66        C      tau(  66) = (  0.5000331  0.0003233  0.8331833  )
        67        C      tau(  67) = (  0.5005894  0.3328730  0.1659208  )
        68        C      tau(  68) = (  0.5000003  0.3334570  0.4959939  )
        69        C      tau(  69) = (  0.4995969  0.3338672  0.8328227  )
        70        C      tau(  70) = (  0.4997750  0.6657528  0.1677630  )
        71        C      tau(  71) = (  0.4981825  0.6653862  0.5011233  )
        72        C      tau(  72) = (  0.4999382  0.6668462  0.8335020  )
        73        C      tau(  73) = (  0.8334830 -0.0000191  0.1667658  )
        74        C      tau(  74) = (  0.8333825  0.0000807  0.5000467  )
        75        C      tau(  75) = (  0.8333556  0.0001087  0.8333371  )
        76        C      tau(  76) = (  0.8337559  0.3333434  0.1666557  )
        77        C      tau(  77) = (  0.8334640  0.3334849  0.5000356  )
        78        C      tau(  78) = (  0.8331400  0.3334314  0.8331830  )
        79        C      tau(  79) = (  0.8332468  0.6666750  0.1668568  )
        80        C      tau(  80) = (  0.8331985  0.6666042  0.5000973  )
        81        C      tau(  81) = (  0.8333191  0.6667559  0.8334312  )
        82        C      tau(  82) = (  0.0004452  0.1669494  0.1669494  )
        83        C      tau(  83) = ( -0.0000381  0.1666850  0.5002255  )
        84        C      tau(  84) = (  0.0000599  0.1668391  0.8334044  )
        85        C      tau(  85) = ( -0.0000381  0.5002255  0.1666850  )
        86        C      tau(  86) = (  0.0004188  0.5002508  0.5002508  )
        87        C      tau(  87) = ( -0.0004828  0.5000057  0.8339468  )
        88        C      tau(  88) = (  0.0000599  0.8334044  0.1668391  )
        89        C      tau(  89) = ( -0.0004828  0.8339468  0.5000057  )
        90        C      tau(  90) = (  0.0001120  0.8333526  0.8333526  )
        91        C      tau(  91) = (  0.3337317  0.1661730  0.1661730  )
        92        C      tau(  92) = (  0.3335200  0.1672385  0.4999414  )
        93        C      tau(  93) = (  0.3332386  0.1666855  0.8335016  )
        94        C      tau(  94) = (  0.3335200  0.4999414  0.1672385  )
        95        C      tau(  95) = (  0.3332129  0.5002514  0.8330444  )
        96        C      tau(  96) = (  0.3332386  0.8335016  0.1666855  )
        97        C      tau(  97) = (  0.3332129  0.8330444  0.5002514  )
        98        C      tau(  98) = (  0.3334590  0.8339462  0.8339462  )
        99        C      tau(  99) = (  0.6669650  0.1664990  0.1664990  )
       100        C      tau( 100) = (  0.6672892  0.1661743  0.4997317  )
       101        C      tau( 101) = (  0.6665142  0.1669499  0.8330182  )
       102        C      tau( 102) = (  0.6672892  0.4997317  0.1661743  )
       103        C      tau( 103) = (  0.6662223  0.4999419  0.4999419  )
       104        C      tau( 104) = (  0.6667779  0.5002260  0.8335009  )
       105        C      tau( 105) = (  0.6665142  0.8330182  0.1669499  )
       106        C      tau( 106) = (  0.6667779  0.8335009  0.5002260  )
       107        C      tau( 107) = (  0.6666254  0.8334047  0.8334047  )
       108        C      tau( 108) = (  0.0835421  0.0835435  0.0835435  )
       109        C      tau( 109) = (  0.0838249  0.0838807  0.4168990  )
       110        C      tau( 110) = (  0.0833774  0.0834640  0.7500878  )
       111        C      tau( 111) = (  0.0838249  0.4168990  0.0838807  )
       112        C      tau( 112) = (  0.0841740  0.4172811  0.4172811  )
       113        C      tau( 113) = (  0.0823999  0.4171861  0.7510646  )
       114        C      tau( 114) = (  0.0833774  0.7500878  0.0834640  )
       115        C      tau( 115) = (  0.0823999  0.7510646  0.4171861  )
       116        C      tau( 116) = (  0.0834462  0.7500191  0.7500191  )
       117        C      tau( 117) = (  0.4168191  0.0830695  0.0830695  )
       118        C      tau( 118) = (  0.4168548  0.0833236  0.4166095  )
       119        C      tau( 119) = (  0.4165656  0.0838821  0.7496394  )
       120        C      tau( 120) = (  0.4168548  0.4166095  0.0833236  )
       121        C      tau( 121) = (  0.4161812  0.4172817  0.7492877  )
       122        C      tau( 122) = (  0.4165656  0.7496394  0.0838821  )
       123        C      tau( 123) = (  0.4161812  0.7492877  0.4172817  )
       124        C      tau( 124) = (  0.4162780  0.7510637  0.7510637  )
       125        C      tau( 125) = (  0.7501752  0.0832904  0.0832904  )
       126        C      tau( 126) = (  0.7503951  0.0830702  0.4166457  )
       127        C      tau( 127) = (  0.7499220  0.0835439  0.7499230  )
       128        C      tau( 128) = (  0.7503950  0.4166457  0.0830702  )
       129        C      tau( 129) = (  0.7501403  0.4166099  0.4166099  )
       130        C      tau( 130) = (  0.7495824  0.4168992  0.7496384  )
       131        C      tau( 131) = (  0.7499220  0.7499230  0.0835439  )
       132        C      tau( 132) = (  0.7495824  0.7496384  0.4168992  )
       133        C      tau( 133) = (  0.7500014  0.7500879  0.7500879  )
       134        C      tau( 134) = (  0.2503310  0.2501319  0.0835555  )
       135        C      tau( 135) = (  0.2517096  0.2517508  0.4175226  )
       136        C      tau( 136) = (  0.2502345  0.2497563  0.7504705  )
       137        C      tau( 137) = (  0.2501185  0.5833460  0.0836655  )
       138        C      tau( 138) = (  0.2439510  0.5895085  0.4130569  )
       139        C      tau( 139) = (  0.2500320  0.5834315  0.7498113  )
       140        C      tau( 140) = (  0.2501158  0.9168911  0.0833714  )
       141        C      tau( 141) = (  0.2500732  0.9167239  0.4168433  )
       142        C      tau( 142) = (  0.2500426  0.9169150  0.7501385  )
       143        C      tau( 143) = (  0.5836770  0.2497877  0.0828570  )
       144        C      tau( 144) = (  0.5847642  0.2486987  0.4162139  )
       145        C      tau( 145) = (  0.5829511  0.2505134  0.7494943  )
       146        C      tau( 146) = (  0.5833324  0.5831335  0.0835570  )
       147        C      tau( 147) = (  0.5817073  0.5817491  0.4175238  )
       148        C      tau( 148) = (  0.5837074  0.5832291  0.7504689  )
       149        C      tau( 149) = (  0.5833382  0.9164380  0.0834851  )
       150        C      tau( 150) = (  0.5832912  0.9165023  0.4167942  )
       151        C      tau( 151) = (  0.5833205  0.9168918  0.7500147  )
       152        C      tau( 152) = (  0.9170272  0.2501269  0.0834846  )
       153        C      tau( 153) = (  0.9169616  0.2501732  0.4167940  )
       154        C      tau( 154) = (  0.9165735  0.2501449  0.7500145  )
       155        C      tau( 155) = (  0.9165740  0.5833493  0.0833710  )
       156        C      tau( 156) = (  0.9167408  0.5833918  0.4168431  )
       157        C      tau( 157) = (  0.9165502  0.5834225  0.7501387  )
       158        C      tau( 158) = (  0.9167598  0.9167059  0.0834388  )
       159        C      tau( 159) = (  0.9164671  0.9169979  0.4168430  )
       160        C      tau( 160) = (  0.9167358  0.9167302  0.7500330  )
       161        C      tau( 161) = (  0.2503310  0.0835555  0.2501319  )
       162        C      tau( 162) = (  0.2501185  0.0836655  0.5833460  )
       163        C      tau( 163) = (  0.2501158  0.0833714  0.9168911  )
       164        C      tau( 164) = (  0.2517096  0.4175226  0.2517508  )
       165        C      tau( 165) = (  0.2439510  0.4130569  0.5895085  )
       166        C      tau( 166) = (  0.2500732  0.4168433  0.9167239  )
       167        C      tau( 167) = (  0.2502345  0.7504705  0.2497563  )
       168        C      tau( 168) = (  0.2500320  0.7498113  0.5834315  )
       169        C      tau( 169) = (  0.2500426  0.7501385  0.9169150  )
       170        C      tau( 170) = (  0.5836771  0.0828570  0.2497877  )
       171        C      tau( 171) = (  0.5833324  0.0835570  0.5831335  )
       172        C      tau( 172) = (  0.5833382  0.0834851  0.9164380  )
       173        C      tau( 173) = (  0.5847642  0.4162139  0.2486987  )
       174        C      tau( 174) = (  0.5817073  0.4175238  0.5817491  )
       175        C      tau( 175) = (  0.5832912  0.4167942  0.9165023  )
       176        C      tau( 176) = (  0.5829511  0.7494943  0.2505134  )
       177        C      tau( 177) = (  0.5837074  0.7504689  0.5832291  )
       178        C      tau( 178) = (  0.5833205  0.7500147  0.9168918  )
       179        C      tau( 179) = (  0.9170272  0.0834846  0.2501269  )
       180        C      tau( 180) = (  0.9165740  0.0833710  0.5833493  )
       181        C      tau( 181) = (  0.9167598  0.0834388  0.9167059  )
       182        C      tau( 182) = (  0.9169616  0.4167940  0.2501732  )
       183        C      tau( 183) = (  0.9167408  0.4168431  0.5833918  )
       184        C      tau( 184) = (  0.9164671  0.4168430  0.9169979  )
       185        C      tau( 185) = (  0.9165735  0.7500145  0.2501449  )
       186        C      tau( 186) = (  0.9165502  0.7501387  0.5834225  )
       187        C      tau( 187) = (  0.9167358  0.7500330  0.9167302  )
       188        C      tau( 188) = (  0.0839685  0.2505120  0.2505120  )
       189        C      tau( 189) = (  0.0829934  0.2497554  0.5832296  )
       190        C      tau( 190) = (  0.0834506  0.2501450  0.9168917  )
       191        C      tau( 191) = (  0.0829934  0.5832295  0.2497554  )
       192        C      tau( 192) = (  0.0836528  0.5834321  0.5834321  )
       193        C      tau( 193) = (  0.0833265  0.5834225  0.9169152  )
       194        C      tau( 194) = (  0.0834506  0.9168917  0.2501450  )
       195        C      tau( 195) = (  0.0833265  0.9169152  0.5834225  )
       196        C      tau( 196) = (  0.0834324  0.9167301  0.9167301  )
       197        C      tau( 197) = (  0.4172483  0.2486971  0.2486971  )
       198        C      tau( 198) = (  0.4159377  0.2517531  0.5817504  )
       199        C      tau( 199) = (  0.4166708  0.2501738  0.9165026  )
       200        C      tau( 200) = (  0.4159377  0.5817504  0.2517531  )
       201        C      tau( 201) = (  0.4203993  0.5895067  0.5895067  )
       202        C      tau( 202) = (  0.4166219  0.5833918  0.9167238  )
       203        C      tau( 203) = (  0.4166708  0.9165026  0.2501738  )
       204        C      tau( 204) = (  0.4166219  0.9167238  0.5833918  )
       205        C      tau( 205) = (  0.4166222  0.9169980  0.9169980  )
       206        C      tau( 206) = (  0.7506076  0.2497881  0.2497881  )
       207        C      tau( 207) = (  0.7499081  0.2501330  0.5831331  )
       208        C      tau( 208) = (  0.7499806  0.2501270  0.9164378  )
       209        C      tau( 209) = (  0.7499081  0.5831331  0.2501330  )
       210        C      tau( 210) = (  0.7497982  0.5833456  0.5833456  )
       211        C      tau( 211) = (  0.7500939  0.5833494  0.9168908  )
       212        C      tau( 212) = (  0.7499806  0.9164378  0.2501270  )
       213        C      tau( 213) = (  0.7500939  0.9168908  0.5833494  )
       214        C      tau( 214) = (  0.7500273  0.9167062  0.9167062  )
       215        N      tau( 215) = (  0.4246745  0.4087811  0.4087811  )

     number of k points=     1
                       cart. coord. in units 2pi/alat
        k(    1) = (   0.0000000   0.0000000   0.0000000), wk =   1.0000000

                       cryst. coord.
        k(    1) = (   0.0000000   0.0000000   0.0000000), wk =   1.0000000

     Dense  grid:   338755 G-vectors     FFT dimensions: (  90,  90,  90)

     Dynamical RAM for                 wfc:      13.92 MB

     Dynamical RAM for     wfc (w. buffer):      41.75 MB

     Dynamical RAM for           str. fact:       0.26 MB

     Dynamical RAM for           local pot:       0.00 MB

     Dynamical RAM for          nlocal pot:      27.77 MB

     Dynamical RAM for                qrad:       0.62 MB

     Dynamical RAM for          rho,v,vnew:       1.89 MB

     Dynamical RAM for           G-vectors:       0.55 MB

     Dynamical RAM for          h,s,v(r/c):       3.77 MB

     Dynamical RAM for          <psi|beta>:      22.62 MB

     Dynamical RAM for                 psi:      27.83 MB

     Dynamical RAM for                hpsi:      27.83 MB

     Dynamical RAM for                spsi:      27.83 MB

     Dynamical RAM for      wfcinit/wfcrot:      44.85 MB

     Dynamical RAM for           addusdens:      33.35 MB

     Estimated static dynamical RAM per process >      74.33 MB

     Estimated max dynamical RAM per process >     184.22 MB

     Estimated total dynamical RAM >       7.20 GB

     Check: negative core charge=   -0.000075
     Generating pointlists ...
     new r_m :   0.0568 (alat units)  1.1501 (a.u.) for type    1
     new r_m :   0.0568 (alat units)  1.1501 (a.u.) for type    2

     The potential is recalculated from file :
     ../tmp/diamond_pd.save/charge-density

     Starting wfcs are random
     Checking if some PAW data can be deallocated... 
       PAW data deallocated on   39 nodes for type:  2

     Band Structure Calculation
     Davidson diagonalization with overlap

     Computing kpt #:     1  of     2
     c_bands:  1 eigenvalues not converged
     total cpu time spent up to now is      143.7 secs

     Computing kpt #:     2  of     2
     total cpu time spent up to now is      266.3 secs

     ethr =  1.16E-12,  avg # of iterations = 93.5

     total cpu time spent up to now is      266.3 secs

     End of band structure calculation

 ------ SPIN UP ------------


          k = 0.0000 0.0000 0.0000 ( 42379 PWs)   bands (ev):

    -8.2910  -7.4662  -7.2842  -7.2842  -7.2407  -7.2406  -7.1560  -6.6270
    -6.2845  -6.2845  -6.2758  -6.2758  -6.2628  -6.2378  -6.2378  -6.2255
    -6.1820  -6.1820  -6.0106  -5.5155  -5.2603  -5.2547  -5.2547  -5.2310
    -5.2296  -5.2296  -5.0685  -4.4586  -4.2688  -4.2688  -4.2478  -4.2478
    -4.1906  -3.8685  -3.3803  -3.3803  -3.3731  -3.3729  -3.3729  -3.3589
    -3.3573  -3.3573  -3.3453  -3.3387  -3.3386  -3.3327  -3.3327  -3.3313
    -3.3046  -3.3046  -3.2933  -3.2896  -3.2895  -3.2658  -3.2051  -3.2051
    -3.0293  -2.8323  -2.6114  -2.6114  -2.5809  -2.5799  -2.5799  -2.5663
    -2.5614  -2.5614  -2.5568  -2.5496  -2.5496  -2.5292  -2.5241  -2.5241
    -2.5059  -2.5059  -2.4765  -2.4701  -2.4701  -2.4325  -2.3305  -2.3304
    -1.6558  -1.0703  -0.9057  -0.9057  -0.8697  -0.8697  -0.8613  -0.8587
    -0.8586  -0.8478  -0.8058  -0.8058  -0.4543   0.3456   0.3976   0.3976
     0.4195   0.4195   0.4573   0.6765   0.8546   0.8546   0.8913   0.9009
     0.9009   0.9091   0.9091   0.9123   0.9123   0.9313   0.9313   0.9386
     0.9386   0.9602   0.9946   1.0063   1.0063   1.0331   1.0361   1.0361
     1.0549   1.0549   1.0929   1.1150   1.1150   1.1216   1.1362   1.1375
     1.1375   1.1422   1.1449   1.1450   1.1583   1.1702   1.1702   1.1909
     1.1909   1.1948   1.2020   1.2020   1.2035   1.2035   1.2177   1.4354
     1.5463   1.5463   1.9371   2.1954   2.1968   2.1969   2.2414   2.2429
     2.2429   2.2496   2.2711   2.2711   2.3963   2.3964   3.3602   3.7217
     3.7218   3.7333   3.7915   3.7982   3.8008   3.8008   3.8064   3.8064
     3.8066   3.8138   3.8248   3.8249   3.8252   3.8444   3.8444   3.9655
     3.9655   3.9724   3.9962   4.3557   4.3557   4.3776   4.4505   4.4550
     4.4573   4.4573   4.4609   4.4609   4.4712   4.4712   4.4726   4.4825
     4.4825   4.4869   4.4927   4.4928   4.5080   4.5160   4.5161   4.5174
     4.7155   4.7156   5.2549   5.2549   5.2643   5.3168   5.3168   5.3170
     5.3200   5.3274   5.3274   5.3389   5.3389   5.3450   5.3576   5.3576
     5.4109   5.4109   5.4134   5.4258   5.4318   5.4646   5.4646   5.5284
     5.5438   5.5438   5.6088   5.7451   5.7451   5.8263   5.8417   5.8417
     5.8538   5.8572   5.8572   5.8631   5.8648   5.8648   5.8718   5.8822
     5.8889   5.8889   5.9080   5.9080   5.9092   5.9185   5.9347   5.9348
     5.9406   5.9662   5.9662   6.0080   6.0080   6.2996   6.3384   6.3384
     6.8489   6.8489   6.9074   6.9279   6.9382   6.9382   7.0377   7.3767
     7.3767   7.4522   7.4569   7.4569   7.4711   7.4725   7.4725   7.4990
     7.5534   7.5535   7.7239   7.7239   7.8371   7.8626   7.8658   7.8676
     7.8676   7.8723   7.8724   7.9005   7.9283   7.9284   7.9336   8.0725
     8.0725   8.0944   8.1188   8.1228   8.1228   8.1381   8.1415   8.1415
     8.1433   8.1433   8.1511   8.1523   8.1577   8.1577   8.1880   8.1880
     8.2006   8.2007   8.2041   8.2100   8.2100   8.2155   8.2691   8.2692
     8.2947   8.3217   8.3297   8.3332   8.3332   8.3358   8.3399   8.3399
     8.3401   8.3401   8.3502   8.3504   8.3555   8.3555   8.3601   8.3602
     8.3609   8.3641   8.3641   8.3747   8.3750   8.3750   8.3813   8.3886
     8.3886   8.3930   8.4125   8.4126   8.4239   8.4307   8.4307   8.4487
     8.4487   8.4812   8.4812   8.4812   8.5036   8.5336   8.5336   8.5392
     8.5498   8.6363   8.6363   8.9119   8.9187   8.9187   9.0934   9.0935
     9.1569   9.1569   9.1573   9.1649   9.1929   9.1949   9.1949   9.1982
     9.2153   9.2153   9.2243   9.2243   9.2261   9.2325   9.2325   9.2545
     9.2940   9.2940   9.3576  10.0244  10.1364  10.1365  10.4612  10.5246
    10.5246  10.5754  10.5755  10.5769  10.5954  10.5992  10.5992  10.6023
    10.6711  10.6711  10.6810  10.7705  10.7706  10.8282  10.8326  10.8327
    10.8384  10.8385  10.8436  10.8436  10.8531  10.8701  10.8702  10.8967
    10.8986  10.8987  10.9042  10.9289  10.9289  11.4980  11.5187  11.5188
    11.7434  11.7435  11.7553  11.7795  11.7808  11.7808  11.8050  11.8437
    11.8437  11.8446  12.9220  13.0093  13.0095  13.8791  15.0286  15.0288
    17.3019  17.3019  17.3189  17.3544  17.3545  17.3779  17.8727  17.9417
    17.9417  17.9562  17.9563  18.0176  18.0834  18.0834  18.1371  18.1861
    18.1861  18.2030  18.8108  18.8110  18.8335  19.3921  19.4747  19.4747
    19.4883  19.5207  19.5207  19.5338  19.5339  19.5458  19.5508  19.5508
    19.5904  20.0167  20.1892  20.1892  20.2187  20.2218  20.2218  20.2278
    20.2284  20.2284  20.2358  20.2358  20.2491  20.2575  20.2576  20.2627
    20.2870  20.2871  20.2878  20.3314  20.3314  20.3451  20.3713  20.3715
    20.3715  20.6464  20.6739  20.6739  20.7105  20.7144  20.7291  20.7291
    20.7351  20.7374  20.7374  20.7503  20.7503  20.7690  20.7855  20.7855
    20.8109  20.8133  20.8134  20.8282  20.8282  20.8313  20.8337  20.8549
    20.8564  20.8565  20.8675  20.8675  20.8733  20.8733  20.8952  20.8952
    20.9042  20.9153  20.9153  20.9297  20.9489  21.0113  21.0197  21.0197
    21.0742  21.0742  21.0874  21.2027  21.2924  21.2924  21.3098  21.3346
    21.3346  21.3388  21.3430  21.3430  21.3472  21.3555  21.3555  21.3724
    21.3725  21.3839  21.3954  21.3955  21.4067  21.4096  21.4096  21.4131
    21.4252  21.4252  21.4365  21.4366  21.4371  21.4485  21.4486  21.4634
    21.4635  21.4677  21.4749  21.4961  21.4962  21.5191  21.6074  21.6249
    21.6249  21.6439  21.6559  21.6559  21.6588  21.6795  21.6827  21.6827
    21.6917  21.6917  21.7159  21.7497  21.7498  21.7669  21.7937  21.8173
    21.8173  21.9701  21.9716  21.9716  21.9789  21.9789  22.1165  22.1166
    22.1215  22.1704  22.1704  22.1920  22.1984  22.1984  22.2009  22.3258
    22.3398  22.3399  22.4003  22.4590  22.4591  22.4748  22.4855  22.4855
    22.6651  22.6677  22.6677  22.7989  22.9570  22.9571  22.9713  23.1036
    23.1036  23.1145  23.1214  23.1214  23.1298  23.1299  23.1405  23.1452
    23.1452  23.1471  23.1598  23.1863  23.2048  23.2048  23.2108  23.2659
    23.2948  23.2949  23.3473  23.3474  23.4252  23.4438  23.4439  23.7856
    23.7919  23.7919  23.7970  23.8083  23.8177  23.8178  23.8340  23.8340
    23.8491  23.8510  23.8511  23.8590  23.8612  23.8612  23.8895  23.9016
    23.9568  23.9618  23.9618  24.0990  24.0991  24.1808  24.1808  24.2299
    24.2347  24.2348  24.2506  24.2818  24.2821  24.2821  24.2824  24.2824
    24.2995  24.3406  24.3406  24.3407  24.3820  24.3820  24.3919  24.3919
    24.3979  24.3979  24.4039  24.4247  24.4550  24.4776  24.4776  24.4777
    24.4833  24.4833  24.4912  24.5070  24.5164  24.5165  24.5230  24.5466
    24.5466  24.5619  24.5619  24.5909  24.6185  24.6281  24.6281  24.7419
    24.7420  24.8606  24.8606  25.4663  25.4977  25.4977  25.6034  25.7697
    25.7864  25.7864  25.8013  25.8013  25.9974  26.0074  26.0097  26.0098
    26.0627  26.0628  26.0921  26.1161  26.1341  26.1341  26.2107  26.2746
    26.2747  26.4421  26.5859  26.5859  26.5911  26.6314  26.6456  26.6456
    26.6457  26.6776  26.6776  26.6881  26.6882  26.7020  26.7505  26.7506
    26.7581  26.7639  26.7842  26.7842  26.8295  26.8295  26.8402  26.9260
    26.9260  27.0709  27.0710  27.0951  27.0991  27.1098  27.1099  27.1150
    27.1299  27.1304  27.1304  27.1332  27.1332  27.1601  27.1601  27.1814
    27.1935  27.2206  27.2206  27.2494  27.2510  27.2510  27.2607  27.2607
    27.2738  27.2819  27.2820  27.2820  27.2951  27.3057  27.3057  27.3125
    27.3126  27.3127  27.3233  27.3421  27.3421  27.3604  27.3662  27.3663
    27.3671  27.3771  27.3772  27.3832  27.3901  27.3901  27.4158  27.4276
    27.4463  27.4463  27.4555  27.4691  27.4692  27.4945  27.4945  27.5251
    27.5251  27.5255  27.5450  27.5553  27.5556  27.5557  27.5712  27.5887
    27.5887  27.5941  27.5941  27.5994  27.6144  27.6144  27.6244  27.6609
    27.6610  27.6789  27.7110  27.7110  27.7297  27.8022  27.8022  27.8843
    27.9003  27.9072  27.9072  27.9666  28.0363  28.0364  28.0739  28.0740
    28.1176  28.1448  28.1448  28.2785  28.2786  28.2915  28.3249  28.3515
    28.3560  28.3560  28.5039  28.5256  28.5335  28.5335  29.7109  29.7915
    29.7915  29.8733  29.9286  29.9287  29.9739  30.0577

     occupation numbers 
     1.0000   1.0000   1.0000   1.0000   1.0000   1.0000   1.0000   1.0000
     1.0000   1.0000   1.0000   1.0000   1.0000   1.0000   1.0000   1.0000
     1.0000   1.0000   1.0000   1.0000   1.0000   1.0000   1.0000   1.0000
     1.0000   1.0000   1.0000   1.0000   1.0000   1.0000   1.0000   1.0000
     1.0000   1.0000   1.0000   1.0000   1.0000   1.0000   1.0000   1.0000
     1.0000   1.0000   1.0000   1.0000   1.0000   1.0000   1.0000   1.0000
     1.0000   1.0000   1.0000   1.0000   1.0000   1.0000   1.0000   1.0000
     1.0000   1.0000   1.0000   1.0000   1.0000   1.0000   1.0000   1.0000
     1.0000   1.0000   1.0000   1.0000   1.0000   1.0000   1.0000   1.0000
     1.0000   1.0000   1.0000   1.0000   1.0000   1.0000   1.0000   1.0000
     1.0000   1.0000   1.0000   1.0000   1.0000   1.0000   1.0000   1.0000
     1.0000   1.0000   1.0000   1.0000   1.0000   1.0000   1.0000   1.0000
     1.0000   1.0000   1.0000   1.0000   1.0000   1.0000   1.0000   1.0000
     1.0000   1.0000   1.0000   1.0000   1.0000   1.0000   1.0000   1.0000
     1.0000   1.0000   1.0000   1.0000   1.0000   1.0000   1.0000   1.0000
     1.0000   1.0000   1.0000   1.0000   1.0000   1.0000   1.0000   1.0000
     1.0000   1.0000   1.0000   1.0000   1.0000   1.0000   1.0000   1.0000
     1.0000   1.0000   1.0000   1.0000   1.0000   1.0000   1.0000   1.0000
     1.0000   1.0000   1.0000   1.0000   1.0000   1.0000   1.0000   1.0000
     1.0000   1.0000   1.0000   1.0000   1.0000   1.0000   1.0000   1.0000
     1.0000   1.0000   1.0000   1.0000   1.0000   1.0000   1.0000   1.0000
     1.0000   1.0000   1.0000   1.0000   1.0000   1.0000   1.0000   1.0000
     1.0000   1.0000   1.0000   1.0000   1.0000   1.0000   1.0000   1.0000
     1.0000   1.0000   1.0000   1.0000   1.0000   1.0000   1.0000   1.0000
     1.0000   1.0000   1.0000   1.0000   1.0000   1.0000   1.0000   1.0000
     1.0000   1.0000   1.0000   1.0000   1.0000   1.0000   1.0000   1.0000
     1.0000   1.0000   1.0000   1.0000   1.0000   1.0000   1.0000   1.0000
     1.0000   1.0000   1.0000   1.0000   1.0000   1.0000   1.0000   1.0000
     1.0000   1.0000   1.0000   1.0000   1.0000   1.0000   1.0000   1.0000
     1.0000   1.0000   1.0000   1.0000   1.0000   1.0000   1.0000   1.0000
     1.0000   1.0000   1.0000   1.0000   1.0000   1.0000   1.0000   1.0000
     1.0000   1.0000   1.0000   1.0000   1.0000   1.0000   1.0000   1.0000
     1.0000   1.0000   1.0000   1.0000   1.0000   1.0000   1.0000   1.0000
     1.0000   1.0000   1.0000   1.0000   1.0000   1.0000   1.0000   1.0000
     1.0000   1.0000   1.0000   1.0000   1.0000   1.0000   1.0000   1.0000
     1.0000   1.0000   1.0000   1.0000   1.0000   1.0000   1.0000   1.0000
     1.0000   1.0000   1.0000   1.0000   1.0000   1.0000   1.0000   1.0000
     1.0000   1.0000   1.0000   1.0000   1.0000   1.0000   1.0000   1.0000
     1.0000   1.0000   1.0000   1.0000   1.0000   1.0000   1.0000   1.0000
     1.0000   1.0000   1.0000   1.0000   1.0000   1.0000   1.0000   1.0000
     1.0000   1.0000   1.0000   1.0000   1.0000   1.0000   1.0000   1.0000
     1.0000   1.0000   1.0000   1.0000   1.0000   1.0000   1.0000   1.0000
     1.0000   1.0000   1.0000   1.0000   1.0000   1.0000   1.0000   1.0000
     1.0000   1.0000   1.0000   1.0000   1.0000   1.0000   1.0000   1.0000
     1.0000   1.0000   1.0000   1.0000   1.0000   1.0000   1.0000   1.0000
     1.0000   1.0000   1.0000   1.0000   1.0000   1.0000   1.0000   1.0000
     1.0000   1.0000   1.0000   1.0000   1.0000   1.0000   1.0000   1.0000
     1.0000   1.0000   1.0000   1.0000   1.0000   1.0000   1.0000   1.0000
     1.0000   1.0000   1.0000   1.0000   1.0000   1.0000   1.0000   1.0000
     1.0000   1.0000   1.0000   1.0000   1.0000   1.0000   1.0000   1.0000
     1.0000   1.0000   1.0000   1.0000   1.0000   1.0000   1.0000   1.0000
     1.0000   1.0000   1.0000   1.0000   1.0000   1.0000   1.0000   1.0000
     1.0000   1.0000   1.0000   1.0000   1.0000   1.0000   1.0000   1.0000
     1.0000   1.0000   1.0000   1.0000   1.0000   1.0000   1.0000   1.0000
     0.0000   0.0000   0.0000   0.0000   0.0000   0.0000   0.0000   0.0000
     0.0000   0.0000   0.0000   0.0000   0.0000   0.0000   0.0000   0.0000
     0.0000   0.0000   0.0000   0.0000   0.0000   0.0000   0.0000   0.0000
     0.0000   0.0000   0.0000   0.0000   0.0000   0.0000   0.0000   0.0000
     0.0000   0.0000   0.0000   0.0000   0.0000   0.0000   0.0000   0.0000
     0.0000   0.0000   0.0000   0.0000   0.0000   0.0000   0.0000   0.0000
     0.0000   0.0000   0.0000   0.0000   0.0000   0.0000   0.0000   0.0000
     0.0000   0.0000   0.0000   0.0000   0.0000   0.0000   0.0000   0.0000
     0.0000   0.0000   0.0000   0.0000   0.0000   0.0000   0.0000   0.0000
     0.0000   0.0000   0.0000   0.0000   0.0000   0.0000   0.0000   0.0000
     0.0000   0.0000   0.0000   0.0000   0.0000   0.0000   0.0000   0.0000
     0.0000   0.0000   0.0000   0.0000   0.0000   0.0000   0.0000   0.0000
     0.0000   0.0000   0.0000   0.0000   0.0000   0.0000   0.0000   0.0000
     0.0000   0.0000   0.0000   0.0000   0.0000   0.0000   0.0000   0.0000
     0.0000   0.0000   0.0000   0.0000   0.0000   0.0000   0.0000   0.0000
     0.0000   0.0000   0.0000   0.0000   0.0000   0.0000   0.0000   0.0000
     0.0000   0.0000   0.0000   0.0000   0.0000   0.0000   0.0000   0.0000
     0.0000   0.0000   0.0000   0.0000   0.0000   0.0000   0.0000   0.0000
     0.0000   0.0000   0.0000   0.0000   0.0000   0.0000   0.0000   0.0000
     0.0000   0.0000   0.0000   0.0000   0.0000   0.0000   0.0000   0.0000
     0.0000   0.0000   0.0000   0.0000   0.0000   0.0000   0.0000   0.0000
     0.0000   0.0000   0.0000   0.0000   0.0000   0.0000   0.0000   0.0000
     0.0000   0.0000   0.0000   0.0000   0.0000   0.0000   0.0000   0.0000
     0.0000   0.0000   0.0000   0.0000   0.0000   0.0000   0.0000   0.0000
     0.0000   0.0000   0.0000   0.0000   0.0000   0.0000   0.0000   0.0000
     0.0000   0.0000   0.0000   0.0000   0.0000   0.0000   0.0000   0.0000
     0.0000   0.0000   0.0000   0.0000   0.0000   0.0000   0.0000   0.0000
     0.0000   0.0000   0.0000   0.0000   0.0000   0.0000   0.0000   0.0000
     0.0000   0.0000   0.0000   0.0000   0.0000   0.0000   0.0000   0.0000
     0.0000   0.0000   0.0000   0.0000   0.0000   0.0000   0.0000   0.0000
     0.0000   0.0000   0.0000   0.0000   0.0000   0.0000   0.0000   0.0000
     0.0000   0.0000   0.0000   0.0000   0.0000   0.0000   0.0000   0.0000
     0.0000   0.0000   0.0000   0.0000   0.0000   0.0000   0.0000   0.0000
     0.0000   0.0000   0.0000   0.0000   0.0000   0.0000   0.0000   0.0000
     0.0000   0.0000   0.0000   0.0000   0.0000   0.0000   0.0000   0.0000
     0.0000   0.0000   0.0000   0.0000   0.0000   0.0000   0.0000   0.0000
     0.0000   0.0000   0.0000   0.0000   0.0000   0.0000   0.0000   0.0000
     0.0000   0.0000   0.0000   0.0000   0.0000   0.0000   0.0000   0.0000
     0.0000   0.0000   0.0000   0.0000   0.0000   0.0000   0.0000   0.0000
     0.0000   0.0000   0.0000   0.0000   0.0000   0.0000   0.0000   0.0000
     0.0000   0.0000   0.0000   0.0000   0.0000   0.0000   0.0000   0.0000
     0.0000   0.0000   0.0000   0.0000   0.0000   0.0000   0.0000   0.0000
     0.0000   0.0000   0.0000   0.0000   0.0000   0.0000   0.0000   0.0000
     0.0000   0.0000   0.0000   0.0000   0.0000   0.0000   0.0000   0.0000
     0.0000   0.0000   0.0000   0.0000   0.0000   0.0000   0.0000   0.0000
     0.0000   0.0000   0.0000   0.0000   0.0000   0.0000   0.0000   0.0000
     0.0000   0.0000   0.0000   0.0000   0.0000   0.0000   0.0000   0.0000
     0.0000   0.0000   0.0000   0.0000   0.0000   0.0000   0.0000   0.0000
     0.0000   0.0000   0.0000   0.0000   0.0000   0.0000   0.0000   0.0000
     0.0000   0.0000   0.0000   0.0000   0.0000   0.0000   0.0000   0.0000
     0.0000   0.0000   0.0000   0.0000   0.0000   0.0000   0.0000   0.0000
     0.0000   0.0000   0.0000   0.0000   0.0000   0.0000   0.0000   0.0000
     0.0000   0.0000   0.0000   0.0000   0.0000   0.0000   0.0000   0.0000
     0.0000   0.0000   0.0000   0.0000   0.0000   0.0000

 ------ SPIN DOWN ----------


          k = 0.0000 0.0000 0.0000 ( 42379 PWs)   bands (ev):

    -8.2859  -7.4631  -7.2816  -7.2816  -7.2337  -7.2337  -7.1448  -6.6236
    -6.2823  -6.2823  -6.2736  -6.2736  -6.2584  -6.2314  -6.2314  -6.2223
    -6.1660  -6.1660  -5.9887  -5.5109  -5.2556  -5.2484  -5.2484  -5.2245
    -5.2147  -5.2147  -5.0452  -4.4470  -4.2633  -4.2633  -4.2382  -4.2382
    -4.1830  -3.8563  -3.3771  -3.3770  -3.3722  -3.3701  -3.3701  -3.3556
    -3.3535  -3.3535  -3.3439  -3.3363  -3.3363  -3.3289  -3.3286  -3.3286
    -3.2927  -3.2927  -3.2826  -3.2793  -3.2793  -3.2628  -3.1801  -3.1801
    -3.0170  -2.8288  -2.6095  -2.6095  -2.5785  -2.5755  -2.5754  -2.5640
    -2.5576  -2.5576  -2.5486  -2.5430  -2.5430  -2.5214  -2.5189  -2.5189
    -2.5019  -2.5019  -2.4653  -2.4573  -2.4573  -2.4230  -2.2671  -2.2670
    -1.5967  -1.0626  -0.9017  -0.9017  -0.8602  -0.8602  -0.8569  -0.8524
    -0.8524  -0.8418  -0.7748  -0.7748  -0.3953   0.3578   0.4011   0.4011
     0.4267   0.4267   0.4636   0.6959   0.8576   0.8576   0.8916   0.9027
     0.9027   0.9118   0.9119   0.9143   0.9145   0.9359   0.9360   0.9414
     0.9414   0.9670   1.0057   1.0152   1.0153   1.0393   1.0447   1.0448
     1.0758   1.0758   1.0961   1.1184   1.1184   1.1279   1.1390   1.1416
     1.1416   1.1449   1.1509   1.1510   1.1678   1.1750   1.1751   1.1973
     1.1973   1.2018   1.2083   1.2083   1.2235   1.2235   1.2509   1.4513
     1.5963   1.5963   1.9582   2.2027   2.2027   2.2119   2.2442   2.2468
     2.2468   2.2598   2.2769   2.2769   2.4558   2.4558   3.4272   3.7274
     3.7275   3.7437   3.7932   3.8044   3.8044   3.8068   3.8099   3.8099
     3.8138   3.8166   3.8298   3.8299   3.8329   3.8552   3.8552   3.9803
     3.9803   3.9838   4.0158   4.3620   4.3620   4.3978   4.4514   4.4586
     4.4596   4.4596   4.4671   4.4672   4.4751   4.4751   4.4761   4.4880
     4.4880   4.5000   4.5000   4.5000   4.5189   4.5280   4.5285   4.5286
     4.7735   4.7736   5.2594   5.2594   5.2782   5.3181   5.3181   5.3203
     5.3214   5.3300   5.3300   5.3430   5.3430   5.3473   5.3609   5.3609
     5.4175   5.4176   5.4236   5.4334   5.4392   5.4779   5.4779   5.5312
     5.5539   5.5539   5.6442   5.7505   5.7505   5.8381   5.8436   5.8436
     5.8589   5.8607   5.8607   5.8682   5.8726   5.8726   5.8789   5.8901
     5.8936   5.8936   5.9188   5.9211   5.9211   5.9235   5.9464   5.9464
     5.9624   5.9824   5.9824   6.0216   6.0216   6.3224   6.3814   6.3815
     6.8555   6.8556   6.9169   6.9363   6.9552   6.9552   7.1122   7.3885
     7.3886   7.4597   7.4597   7.4611   7.4761   7.4804   7.4804   7.5138
     7.5685   7.5685   7.7284   7.7284   7.8497   7.8711   7.8711   7.8712
     7.8847   7.8848   7.8868   7.9104   7.9382   7.9383   7.9472   8.0820
     8.0820   8.0971   8.1215   8.1250   8.1251   8.1406   8.1432   8.1432
     8.1463   8.1463   8.1535   8.1574   8.1605   8.1605   8.1940   8.1940
     8.2087   8.2087   8.2094   8.2199   8.2199   8.2204   8.2747   8.2748
     8.3022   8.3308   8.3348   8.3352   8.3352   8.3388   8.3421   8.3422
     8.3435   8.3436   8.3541   8.3541   8.3597   8.3597   8.3645   8.3646
     8.3646   8.3694   8.3694   8.3806   8.3806   8.3813   8.3976   8.3998
     8.3999   8.4006   8.4220   8.4220   8.4308   8.4398   8.4398   8.4546
     8.4546   8.4936   8.4936   8.5051   8.5222   8.5452   8.5554   8.5554
     8.5633   8.6767   8.6767   8.9236   8.9372   8.9372   9.0991   9.0992
     9.1594   9.1594   9.1602   9.1670   9.1990   9.1990   9.2002   9.2073
     9.2223   9.2223   9.2336   9.2390   9.2391   9.2518   9.2519   9.2602
     9.3225   9.3225   9.3941  10.0413  10.2051  10.2053  10.5374  10.5375
    10.5775  10.5776  10.5830  10.5876  10.5985  10.6137  10.6137  10.6314
    10.6764  10.6765  10.6895  10.7750  10.7751  10.8352  10.8366  10.8366
    10.8444  10.8444  10.8568  10.8569  10.8585  10.8834  10.8834  10.9091
    10.9135  10.9135  10.9244  10.9363  10.9364  11.5108  11.5480  11.5480
    11.7510  11.7511  11.7573  11.7844  11.7858  11.7859  11.8191  11.8612
    11.8612  12.1671  13.0301  13.0471  13.0473  14.3910  16.2396  16.2397
    17.3059  17.3059  17.3295  17.3656  17.3656  17.3872  17.8778  17.9499
    17.9499  17.9627  17.9627  18.0262  18.0884  18.0884  18.1632  18.2036
    18.2036  18.2129  18.8302  18.8304  18.8440  19.4003  19.4780  19.4780
    19.4911  19.5304  19.5305  19.5396  19.5396  19.5499  19.5561  19.5561
    19.5968  20.0210  20.1919  20.1919  20.2205  20.2248  20.2248  20.2300
    20.2322  20.2323  20.2437  20.2438  20.2555  20.2632  20.2633  20.2658
    20.2944  20.2962  20.2963  20.3386  20.3387  20.3527  20.3794  20.3795
    20.3795  20.6510  20.6796  20.6796  20.7124  20.7164  20.7312  20.7312
    20.7382  20.7395  20.7395  20.7528  20.7529  20.7709  20.7890  20.7890
    20.8149  20.8168  20.8169  20.8321  20.8321  20.8358  20.8430  20.8587
    20.8691  20.8692  20.8796  20.8796  20.8851  20.8851  20.9025  20.9026
    20.9076  20.9221  20.9221  20.9423  20.9561  21.0233  21.0261  21.0261
    21.0824  21.0824  21.0937  21.2071  21.2975  21.2975  21.3139  21.3383
    21.3383  21.3442  21.3464  21.3465  21.3490  21.3622  21.3622  21.3775
    21.3776  21.3883  21.4020  21.4021  21.4142  21.4143  21.4148  21.4183
    21.4345  21.4346  21.4413  21.4414  21.4440  21.4671  21.4672  21.4715
    21.4715  21.4802  21.4919  21.5216  21.5216  21.5471  21.6137  21.6371
    21.6371  21.6461  21.6604  21.6604  21.6609  21.6885  21.6909  21.6910
    21.7008  21.7008  21.7285  21.7542  21.7542  21.7733  21.8156  21.8377
    21.8377  21.9774  21.9877  21.9877  22.0054  22.0054  22.1193  22.1194
    22.1243  22.1849  22.1849  22.2035  22.2065  22.2076  22.2076  22.3375
    22.3497  22.3498  22.4147  22.4673  22.4674  22.4839  22.4893  22.4893
    22.6840  22.7114  22.7114  22.8651  22.9761  22.9761  22.9943  23.1093
    23.1094  23.1168  23.1240  23.1240  23.1350  23.1351  23.1468  23.1478
    23.1478  23.1523  23.1664  23.1975  23.2212  23.2212  23.2343  23.2931
    23.3432  23.3433  23.3680  23.3681  23.4416  23.4775  23.4775  23.7886
    23.7963  23.7963  23.8032  23.8114  23.8220  23.8220  23.8368  23.8368
    23.8566  23.8642  23.8642  23.8691  23.8691  23.8849  23.8960  23.9201
    23.9691  23.9832  23.9832  24.1141  24.1141  24.1983  24.1983  24.2360
    24.2394  24.2395  24.2542  24.2854  24.2855  24.2867  24.2867  24.2881
    24.3052  24.3462  24.3463  24.3474  24.3902  24.3903  24.4042  24.4042
    24.4085  24.4177  24.4178  24.4326  24.4597  24.4800  24.4888  24.4888
    24.5060  24.5060  24.5090  24.5119  24.5199  24.5200  24.5285  24.5577
    24.5577  24.5818  24.5819  24.6152  24.6480  24.6575  24.6575  24.8646
    24.8646  24.9282  24.9283  25.5178  25.5435  25.5436  25.6324  25.7757
    25.8010  25.8010  25.8135  25.8135  26.0016  26.0110  26.0157  26.0157
    26.0710  26.0710  26.1103  26.1285  26.1532  26.1532  26.2296  26.3035
    26.3035  26.4569  26.5923  26.5923  26.6051  26.6397  26.6505  26.6513
    26.6513  26.6838  26.6838  26.6970  26.6970  26.7140  26.7604  26.7604
    26.7641  26.7775  26.7896  26.7897  26.8428  26.8428  26.8448  26.9521
    26.9521  27.0766  27.0767  27.1020  27.1028  27.1130  27.1130  27.1203
    27.1327  27.1341  27.1342  27.1370  27.1370  27.1651  27.1651  27.1918
    27.1979  27.2251  27.2251  27.2556  27.2571  27.2572  27.2646  27.2646
    27.2779  27.2877  27.2902  27.2902  27.3016  27.3145  27.3145  27.3176
    27.3176  27.3275  27.3276  27.3582  27.3583  27.3669  27.3716  27.3717
    27.3719  27.3829  27.3830  27.3917  27.3975  27.3976  27.4296  27.4458
    27.4556  27.4556  27.4638  27.4822  27.4822  27.5085  27.5085  27.5327
    27.5328  27.5332  27.5504  27.5605  27.5606  27.5614  27.5771  27.5965
    27.5965  27.6011  27.6011  27.6030  27.6200  27.6200  27.6342  27.6949
    27.6950  27.7417  27.7417  27.7436  27.7704  27.8562  27.8563  27.8936
    27.9156  27.9326  27.9326  27.9925  28.0556  28.0556  28.1095  28.1095
    28.1323  28.1718  28.1718  28.3129  28.3208  28.3208  28.3333  28.4010
    28.4077  28.4077  28.5727  28.6410  28.6410  28.6572  29.7433  29.8077
    29.8077  29.9175  29.9532  29.9533  30.0010  30.0656

     occupation numbers 
     1.0000   1.0000   1.0000   1.0000   1.0000   1.0000   1.0000   1.0000
     1.0000   1.0000   1.0000   1.0000   1.0000   1.0000   1.0000   1.0000
     1.0000   1.0000   1.0000   1.0000   1.0000   1.0000   1.0000   1.0000
     1.0000   1.0000   1.0000   1.0000   1.0000   1.0000   1.0000   1.0000
     1.0000   1.0000   1.0000   1.0000   1.0000   1.0000   1.0000   1.0000
     1.0000   1.0000   1.0000   1.0000   1.0000   1.0000   1.0000   1.0000
     1.0000   1.0000   1.0000   1.0000   1.0000   1.0000   1.0000   1.0000
     1.0000   1.0000   1.0000   1.0000   1.0000   1.0000   1.0000   1.0000
     1.0000   1.0000   1.0000   1.0000   1.0000   1.0000   1.0000   1.0000
     1.0000   1.0000   1.0000   1.0000   1.0000   1.0000   1.0000   1.0000
     1.0000   1.0000   1.0000   1.0000   1.0000   1.0000   1.0000   1.0000
     1.0000   1.0000   1.0000   1.0000   1.0000   1.0000   1.0000   1.0000
     1.0000   1.0000   1.0000   1.0000   1.0000   1.0000   1.0000   1.0000
     1.0000   1.0000   1.0000   1.0000   1.0000   1.0000   1.0000   1.0000
     1.0000   1.0000   1.0000   1.0000   1.0000   1.0000   1.0000   1.0000
     1.0000   1.0000   1.0000   1.0000   1.0000   1.0000   1.0000   1.0000
     1.0000   1.0000   1.0000   1.0000   1.0000   1.0000   1.0000   1.0000
     1.0000   1.0000   1.0000   1.0000   1.0000   1.0000   1.0000   1.0000
     1.0000   1.0000   1.0000   1.0000   1.0000   1.0000   1.0000   1.0000
     1.0000   1.0000   1.0000   1.0000   1.0000   1.0000   1.0000   1.0000
     1.0000   1.0000   1.0000   1.0000   1.0000   1.0000   1.0000   1.0000
     1.0000   1.0000   1.0000   1.0000   1.0000   1.0000   1.0000   1.0000
     1.0000   1.0000   1.0000   1.0000   1.0000   1.0000   1.0000   1.0000
     1.0000   1.0000   1.0000   1.0000   1.0000   1.0000   1.0000   1.0000
     1.0000   1.0000   1.0000   1.0000   1.0000   1.0000   1.0000   1.0000
     1.0000   1.0000   1.0000   1.0000   1.0000   1.0000   1.0000   1.0000
     1.0000   1.0000   1.0000   1.0000   1.0000   1.0000   1.0000   1.0000
     1.0000   1.0000   1.0000   1.0000   1.0000   1.0000   1.0000   1.0000
     1.0000   1.0000   1.0000   1.0000   1.0000   1.0000   1.0000   1.0000
     1.0000   1.0000   1.0000   1.0000   1.0000   1.0000   1.0000   1.0000
     1.0000   1.0000   1.0000   1.0000   1.0000   1.0000   1.0000   1.0000
     1.0000   1.0000   1.0000   1.0000   1.0000   1.0000   1.0000   1.0000
     1.0000   1.0000   1.0000   1.0000   1.0000   1.0000   1.0000   1.0000
     1.0000   1.0000   1.0000   1.0000   1.0000   1.0000   1.0000   1.0000
     1.0000   1.0000   1.0000   1.0000   1.0000   1.0000   1.0000   1.0000
     1.0000   1.0000   1.0000   1.0000   1.0000   1.0000   1.0000   1.0000
     1.0000   1.0000   1.0000   1.0000   1.0000   1.0000   1.0000   1.0000
     1.0000   1.0000   1.0000   1.0000   1.0000   1.0000   1.0000   1.0000
     1.0000   1.0000   1.0000   1.0000   1.0000   1.0000   1.0000   1.0000
     1.0000   1.0000   1.0000   1.0000   1.0000   1.0000   1.0000   1.0000
     1.0000   1.0000   1.0000   1.0000   1.0000   1.0000   1.0000   1.0000
     1.0000   1.0000   1.0000   1.0000   1.0000   1.0000   1.0000   1.0000
     1.0000   1.0000   1.0000   1.0000   1.0000   1.0000   1.0000   1.0000
     1.0000   1.0000   1.0000   1.0000   1.0000   1.0000   1.0000   1.0000
     1.0000   1.0000   1.0000   1.0000   1.0000   1.0000   1.0000   1.0000
     1.0000   1.0000   1.0000   1.0000   1.0000   1.0000   1.0000   1.0000
     1.0000   1.0000   1.0000   1.0000   1.0000   1.0000   1.0000   1.0000
     1.0000   1.0000   1.0000   1.0000   1.0000   1.0000   1.0000   1.0000
     1.0000   1.0000   1.0000   1.0000   1.0000   1.0000   1.0000   1.0000
     1.0000   1.0000   1.0000   1.0000   1.0000   1.0000   1.0000   1.0000
     1.0000   1.0000   1.0000   1.0000   1.0000   1.0000   1.0000   1.0000
     1.0000   1.0000   1.0000   1.0000   1.0000   1.0000   1.0000   1.0000
     1.0000   1.0000   1.0000   1.0000   1.0000   1.0000   1.0000   1.0000
     1.0000   1.0000   1.0000   1.0000   1.0000   1.0000   0.0000   0.0000
     0.0000   0.0000   0.0000   0.0000   0.0000   0.0000   0.0000   0.0000
     0.0000   0.0000   0.0000   0.0000   0.0000   0.0000   0.0000   0.0000
     0.0000   0.0000   0.0000   0.0000   0.0000   0.0000   0.0000   0.0000
     0.0000   0.0000   0.0000   0.0000   0.0000   0.0000   0.0000   0.0000
     0.0000   0.0000   0.0000   0.0000   0.0000   0.0000   0.0000   0.0000
     0.0000   0.0000   0.0000   0.0000   0.0000   0.0000   0.0000   0.0000
     0.0000   0.0000   0.0000   0.0000   0.0000   0.0000   0.0000   0.0000
     0.0000   0.0000   0.0000   0.0000   0.0000   0.0000   0.0000   0.0000
     0.0000   0.0000   0.0000   0.0000   0.0000   0.0000   0.0000   0.0000
     0.0000   0.0000   0.0000   0.0000   0.0000   0.0000   0.0000   0.0000
     0.0000   0.0000   0.0000   0.0000   0.0000   0.0000   0.0000   0.0000
     0.0000   0.0000   0.0000   0.0000   0.0000   0.0000   0.0000   0.0000
     0.0000   0.0000   0.0000   0.0000   0.0000   0.0000   0.0000   0.0000
     0.0000   0.0000   0.0000   0.0000   0.0000   0.0000   0.0000   0.0000
     0.0000   0.0000   0.0000   0.0000   0.0000   0.0000   0.0000   0.0000
     0.0000   0.0000   0.0000   0.0000   0.0000   0.0000   0.0000   0.0000
     0.0000   0.0000   0.0000   0.0000   0.0000   0.0000   0.0000   0.0000
     0.0000   0.0000   0.0000   0.0000   0.0000   0.0000   0.0000   0.0000
     0.0000   0.0000   0.0000   0.0000   0.0000   0.0000   0.0000   0.0000
     0.0000   0.0000   0.0000   0.0000   0.0000   0.0000   0.0000   0.0000
     0.0000   0.0000   0.0000   0.0000   0.0000   0.0000   0.0000   0.0000
     0.0000   0.0000   0.0000   0.0000   0.0000   0.0000   0.0000   0.0000
     0.0000   0.0000   0.0000   0.0000   0.0000   0.0000   0.0000   0.0000
     0.0000   0.0000   0.0000   0.0000   0.0000   0.0000   0.0000   0.0000
     0.0000   0.0000   0.0000   0.0000   0.0000   0.0000   0.0000   0.0000
     0.0000   0.0000   0.0000   0.0000   0.0000   0.0000   0.0000   0.0000
     0.0000   0.0000   0.0000   0.0000   0.0000   0.0000   0.0000   0.0000
     0.0000   0.0000   0.0000   0.0000   0.0000   0.0000   0.0000   0.0000
     0.0000   0.0000   0.0000   0.0000   0.0000   0.0000   0.0000   0.0000
     0.0000   0.0000   0.0000   0.0000   0.0000   0.0000   0.0000   0.0000
     0.0000   0.0000   0.0000   0.0000   0.0000   0.0000   0.0000   0.0000
     0.0000   0.0000   0.0000   0.0000   0.0000   0.0000   0.0000   0.0000
     0.0000   0.0000   0.0000   0.0000   0.0000   0.0000   0.0000   0.0000
     0.0000   0.0000   0.0000   0.0000   0.0000   0.0000   0.0000   0.0000
     0.0000   0.0000   0.0000   0.0000   0.0000   0.0000   0.0000   0.0000
     0.0000   0.0000   0.0000   0.0000   0.0000   0.0000   0.0000   0.0000
     0.0000   0.0000   0.0000   0.0000   0.0000   0.0000   0.0000   0.0000
     0.0000   0.0000   0.0000   0.0000   0.0000   0.0000   0.0000   0.0000
     0.0000   0.0000   0.0000   0.0000   0.0000   0.0000   0.0000   0.0000
     0.0000   0.0000   0.0000   0.0000   0.0000   0.0000   0.0000   0.0000
     0.0000   0.0000   0.0000   0.0000   0.0000   0.0000   0.0000   0.0000
     0.0000   0.0000   0.0000   0.0000   0.0000   0.0000   0.0000   0.0000
     0.0000   0.0000   0.0000   0.0000   0.0000   0.0000   0.0000   0.0000
     0.0000   0.0000   0.0000   0.0000   0.0000   0.0000   0.0000   0.0000
     0.0000   0.0000   0.0000   0.0000   0.0000   0.0000   0.0000   0.0000
     0.0000   0.0000   0.0000   0.0000   0.0000   0.0000   0.0000   0.0000
     0.0000   0.0000   0.0000   0.0000   0.0000   0.0000   0.0000   0.0000
     0.0000   0.0000   0.0000   0.0000   0.0000   0.0000   0.0000   0.0000
     0.0000   0.0000   0.0000   0.0000   0.0000   0.0000   0.0000   0.0000
     0.0000   0.0000   0.0000   0.0000   0.0000   0.0000   0.0000   0.0000
     0.0000   0.0000   0.0000   0.0000   0.0000   0.0000   0.0000   0.0000
     0.0000   0.0000   0.0000   0.0000   0.0000   0.0000   0.0000   0.0000
     0.0000   0.0000   0.0000   0.0000   0.0000   0.0000   0.0000   0.0000
     0.0000   0.0000   0.0000   0.0000   0.0000   0.0000

     highest occupied, lowest unoccupied level (ev):    15.02877372   16.23960897

     Writing all to output data dir ../tmp/diamond_pd.save/ :
     XML data file, pseudopotentials, collected wavefunctions
 
     init_run     :      1.07s CPU      1.23s WALL (       1 calls)
     electrons    :    261.05s CPU    264.73s WALL (       1 calls)

     Called by init_run:
     wfcinit      :      0.00s CPU      0.00s WALL (       1 calls)
     wfcinit:wfcr :      3.79s CPU      3.90s WALL (       2 calls)
     potinit      :      0.73s CPU      0.84s WALL (       1 calls)
     hinit0       :      0.14s CPU      0.15s WALL (       1 calls)

     Called by electrons:
     c_bands      :    261.05s CPU    264.71s WALL (       1 calls)
     v_of_rho     :      0.06s CPU      0.06s WALL (       1 calls)
     v_h          :      0.01s CPU      0.01s WALL (       1 calls)
     v_xc         :      0.05s CPU      0.05s WALL (       1 calls)
     newd         :      0.07s CPU      0.08s WALL (       1 calls)
     PAW_pot      :      0.63s CPU      0.73s WALL (       1 calls)

     Called by c_bands:
     init_us_2    :      0.07s CPU      0.08s WALL (       2 calls)
     cegterg      :    256.99s CPU    260.51s WALL (      10 calls)

     Called by sum_band:

     Called by *egterg:
     cdiaghg      :     56.51s CPU     57.49s WALL (     189 calls)
     cegterg:over :     31.27s CPU     31.59s WALL (     187 calls)
     cegterg:upda :     21.07s CPU     21.28s WALL (     187 calls)
     cegterg:last :     55.83s CPU     56.33s WALL (      66 calls)
     cdiaghg:chol :      4.08s CPU      4.11s WALL (     189 calls)
     cdiaghg:inve :      1.90s CPU      1.91s WALL (     189 calls)
     cdiaghg:para :     14.38s CPU     14.54s WALL (     378 calls)
     h_psi        :     69.89s CPU     71.10s WALL (     199 calls)
     s_psi        :     21.26s CPU     21.45s WALL (     199 calls)
     g_psi        :      0.47s CPU      0.48s WALL (     187 calls)

     Called by h_psi:
     h_psi:calbec :     20.20s CPU     20.37s WALL (     199 calls)
     vloc_psi     :     27.54s CPU     28.14s WALL (     199 calls)
     add_vuspsi   :     21.37s CPU     21.71s WALL (     199 calls)

     General routines
     calbec       :     20.19s CPU     20.37s WALL (     199 calls)
     fft          :      0.02s CPU      0.02s WALL (      21 calls)
     fftw         :     24.23s CPU     24.75s WALL (  114894 calls)
 
     Parallel routines

     PAW routines
     PAW_pot      :      0.63s CPU      0.73s WALL (       1 calls)
 
     PWSCF        :   4m37.73s CPU   4m53.01s WALL

 
   This run was terminated on:   0:13: 4   1Aug2026            

=------------------------------------------------------------------------------=
   JOB DONE.
=------------------------------------------------------------------------------=
