
     Program PWSCF v.7.4.1 starts on 23Aug2026 at  0:30:19 

     This program is part of the open-source Quantum ESPRESSO suite
     for quantum simulation of materials; please cite
         "P. Giannozzi et al., J. Phys.:Condens. Matter 21 395502 (2009);
         "P. Giannozzi et al., J. Phys.:Condens. Matter 29 465901 (2017);
         "P. Giannozzi et al., J. Chem. Phys. 152 154105 (2020);
          URL http://www.quantum-espresso.org", 
     in publications or presentations arising from this work. More details at
     http://www.quantum-espresso.org/quote

     Parallel version (MPI), running on    24 processors

     MPI processes distributed on     1 nodes
     124574 MiB available memory on the printing compute node when the environment starts
 
     Reading input from scf.in

     Current dimensions of program PWSCF are:
     Max number of different atomic species (ntypx) = 10
     Max number of k-points (npk) =  40000
     Max angular momentum in pseudopotentials (lmaxx) =  4
     file C.pbe-n-kjpaw_psl.1.0.0.UPF: wavefunction(s)  2S 2P renormalized
     file N.pbe-n-kjpaw_psl.1.0.0.UPF: wavefunction(s)  2S renormalized
 
     R & G space division:  proc/nbgrp/npool/nimage =      24
     Subspace diagonalization in iterative solution of the eigenvalue problem:
     one sub-group per band group will be used
     scalapack distributed-memory algorithm (size of sub-group:  4*  4 procs)

 
     Parallelization info
     --------------------
     sticks:   dense  smooth     PW     G-vecs:    dense   smooth      PW
     Min         244     244     61                14112    14112    1765
     Max         245     245     62                14117    14117    1768
     Sum        5877    5877   1473               338755   338755   42379
 
     Using Slab Decomposition
 


     bravais-lattice index     =            0
     lattice parameter (alat)  =      20.2515  a.u.
     unit-cell volume          =    8305.5769 (a.u.)^3
     number of atoms/cell      =          215
     number of atomic types    =            2
     number of electrons       =       862.00 (up: 432.00, down: 430.00)
     number of Kohn-Sham states=          862
     kinetic-energy cutoff     =      45.0000  Ry
     charge density cutoff     =     180.0000  Ry
     scf convergence threshold =      1.0E-08
     mixing beta               =       0.7000
     number of iterations used =            8  plain     mixing
     Exchange-correlation= SLA  PW   PBX  PBC
                           (   1   4   3   4   0   0   0)

     celldm(1)=  20.251472  celldm(2)=   0.000000  celldm(3)=   0.000000
     celldm(4)=   0.000000  celldm(5)=   0.000000  celldm(6)=   0.000000

     crystal axes: (cart. coord. in units of alat)
               a(1) = (  -0.707107   0.000000   0.707107 )  
               a(2) = (   0.408248   0.816497   0.408248 )  
               a(3) = (  -0.577350   0.577350  -0.577350 )  

     reciprocal axes: (cart. coord. in units 2 pi/alat)
               b(1) = ( -0.707107  0.000000  0.707107 )  
               b(2) = (  0.408248  0.816497  0.408248 )  
               b(3) = ( -0.577350  0.577350 -0.577350 )  


     PseudoPot. # 1 for C  read from file:
     ../../pseudos/C.pbe-n-kjpaw_psl.1.0.0.UPF
     MD5 check sum: 5f16ad9a65e90284d1d834d4ab3b0f7d
     Pseudo is Projector augmented-wave + core cor, Zval =  4.0
     Generated using &quot;atomic&quot; code by A. Dal Corso  v.6.3
     Shape of augmentation charge: PSQ
     Using radial grid of 1073 points,  4 beta functions with: 
                l(1) =   0
                l(2) =   0
                l(3) =   1
                l(4) =   1
     Q(r) pseudized with 0 coefficients 


     PseudoPot. # 2 for N  read from file:
     ../../pseudos/N.pbe-n-kjpaw_psl.1.0.0.UPF
     MD5 check sum: a6186d50559fdcbe4b2d0187dd61a119
     Pseudo is Projector augmented-wave + core cor, Zval =  5.0
     Generated using &quot;atomic&quot; code by A. Dal Corso  v.6.3
     Shape of augmentation charge: PSQ
     Using radial grid of 1085 points,  4 beta functions with: 
                l(1) =   0
                l(2) =   0
                l(3) =   1
                l(4) =   1
     Q(r) pseudized with 0 coefficients 


     atomic species   valence    mass     pseudopotential
     C                 4.00    12.01070     C ( 1.00)
     N                 5.00    14.00670     N ( 1.00)

     Starting magnetic structure 
     atomic species   magnetization
     C               0.000
     N               0.000

     No symmetry found



   Cartesian axes

     site n.     atom                  positions (alat units)
         1        C      tau(   1) = (  -0.0001052   0.0001422   0.0000707  )
         2        C      tau(   2) = (  -0.1925645   0.1927575  -0.1921828  )
         3        C      tau(   3) = (  -0.3849305   0.3850422  -0.3848777  )
         4        C      tau(   4) = (   0.1357474   0.2724193   0.1361291  )
         5        C      tau(   5) = (  -0.0569092   0.4653539  -0.0560046  )
         6        C      tau(   6) = (  -0.2488167   0.6572887  -0.2488850  )
         7        C      tau(   7) = (   0.2721093   0.5444668   0.2721622  )
         8        C      tau(   8) = (   0.0797285   0.7370071   0.0796603  )
         9        C      tau(   9) = (  -0.1128627   0.9290812  -0.1125702  )
        10        C      tau(  10) = (  -0.2357718   0.0001339   0.2357393  )
        11        C      tau(  11) = (  -0.4283046   0.1925381   0.0432290  )
        12        C      tau(  12) = (  -0.6204981   0.3850540  -0.1490345  )
        13        C      tau(  13) = (  -0.0996221   0.2722898   0.3719115  )
        14        C      tau(  14) = (  -0.2948769   0.4649498   0.1820612  )
        15        C      tau(  15) = (  -0.4823675   0.6578275  -0.0124697  )
        16        C      tau(  16) = (   0.0362713   0.5444130   0.5077349  )
        17        C      tau(  17) = (  -0.1567319   0.7368400   0.3131660  )
        18        C      tau(  18) = (  -0.3488659   0.9289548   0.1234636  )
        19        C      tau(  19) = (  -0.4714238  -0.0000158   0.4714277  )
        20        C      tau(  20) = (  -0.6640573   0.1922488   0.2789241  )
        21        C      tau(  21) = (  -0.8561907   0.3850875   0.0865530  )
        22        C      tau(  22) = (  -0.3352506   0.2720306   0.6077307  )
        23        C      tau(  23) = (  -0.5282769   0.4640440   0.4156810  )
        24        C      tau(  24) = (  -0.7189060   0.6568442   0.2225766  )
        25        C      tau(  25) = (  -0.1993272   0.5444693   0.7434165  )
        26        C      tau(  26) = (  -0.3915890   0.7362646   0.5498936  )
        27        C      tau(  27) = (  -0.5841420   0.9293646   0.3586404  )
        28        C      tau(  28) = (  -0.0499465   0.1363536   0.1859209  )
        29        C      tau(  29) = (  -0.2427414   0.3296051  -0.0056114  )
        30        C      tau(  30) = (  -0.4347290   0.5211596  -0.1989777  )
        31        C      tau(  31) = (   0.0860349   0.4084570   0.3220155  )
        32        C      tau(  32) = (  -0.1076289   0.6026889   0.1299148  )
        33        C      tau(  33) = (  -0.2989587   0.7926045  -0.0627932  )
        34        C      tau(  34) = (   0.2222972   0.6805552   0.4580629  )
        35        C      tau(  35) = (   0.0299148   0.8730994   0.2655654  )
        36        C      tau(  36) = (  -0.1626822   1.0651896   0.0733577  )
        37        C      tau(  37) = (  -0.2854383   0.1359402   0.4218280  )
        38        C      tau(  38) = (  -0.4783858   0.3277377   0.2294848  )
        39        C      tau(  39) = (  -0.6693110   0.5213455   0.0374817  )
        40        C      tau(  40) = (  -0.1493984   0.4082812   0.5576788  )
        41        C      tau(  41) = (  -0.3434827   0.5977445   0.3634588  )
        42        C      tau(  42) = (  -0.5320058   0.7934440   0.1727861  )
        43        C      tau(  43) = (  -0.0136142   0.6804811   0.6935518  )
        44        C      tau(  44) = (  -0.2060286   0.8727533   0.5005126  )
        45        C      tau(  45) = (  -0.3982535   1.0655561   0.3088191  )
        46        C      tau(  46) = (  -0.5212670   0.1361585   0.6574453  )
        47        C      tau(  47) = (  -0.7139467   0.3285507   0.4651155  )
        48        C      tau(  48) = (  -0.9059875   0.5211358   0.2723981  )
        49        C      tau(  49) = (  -0.3851882   0.4083494   0.7933709  )
        50        C      tau(  50) = (  -0.5777449   0.6008189   0.6009500  )
        51        C      tau(  51) = (  -0.7698831   0.7931835   0.4084802  )
        52        C      tau(  52) = (  -0.2491254   0.6804782   0.9294267  )
        53        C      tau(  53) = (  -0.4414776   0.8728014   0.7367741  )
        54        C      tau(  54) = (  -0.6339734   1.0654405   0.5445634  )
        55        C      tau(  55) = (  -0.2141715   0.0965059   0.0216960  )
        56        C      tau(  56) = (  -0.4066214   0.2889185  -0.1706407  )
        57        C      tau(  57) = (  -0.5990161   0.4812712  -0.3632504  )
        58        C      tau(  58) = (  -0.0791790   0.3692920   0.1579510  )
        59        C      tau(  59) = (  -0.2713327   0.5629677  -0.0337890  )
        60        C      tau(  60) = (  -0.4629075   0.7535206  -0.2272569  )
        61        C      tau(  61) = (   0.0580180   0.6407201   0.2937694  )
        62        C      tau(  62) = (  -0.1343700   0.8325404   0.1017956  )
        63        C      tau(  63) = (  -0.3269796   1.0253243  -0.0909397  )
        64        C      tau(  64) = (  -0.4499693   0.0960183   0.2572971  )
        65        C      tau(  65) = (  -0.6422367   0.2886986   0.0648406  )
        66        C      tau(  66) = (  -0.8344996   0.4813009  -0.1273336  )
        67        C      tau(  67) = (  -0.3138508   0.3676606   0.3940198  )
        68        C      tau(  68) = (  -0.5037773   0.5588505   0.2031642  )
        69        C      tau(  69) = (  -0.6978016   0.7534292   0.0087396  )
        70        C      tau(  70) = (  -0.1784315   0.6404529   0.5283612  )
        71        C      tau(  71) = (  -0.3700747   0.8327350   0.3347172  )
        72        C      tau(  72) = (  -0.5625305   1.0256958   0.1445421  )
        73        C      tau(  73) = (  -0.6856441   0.0962739   0.4930682  )
        74        C      tau(  74) = (  -0.8779476   0.2887860   0.3006115  )
        75        C      tau(  75) = (  -1.0703634   0.4812125   0.1081887  )
        76        C      tau(  76) = (  -0.5496711   0.3684106   0.6293911  )
        77        C      tau(  77) = (  -0.7419008   0.5609880   0.4367941  )
        78        C      tau(  78) = (  -0.9340512   0.7532830   0.2442005  )
        79        C      tau(  79) = (  -0.4133488   0.6406700   0.7650368  )
        80        C      tau(  80) = (  -0.6057698   0.8330040   0.5725934  )
        81        C      tau(  81) = (  -0.7982468   1.0255810   0.3802899  )
        82        C      tau(  82) = (  -0.0285312   0.2326982  -0.0279308  )
        83        C      tau(  83) = (  -0.2207179   0.4248424  -0.2208575  )
        84        C      tau(  84) = (  -0.4131031   0.6173759  -0.4130121  )
        85        C      tau(  85) = (   0.1080941   0.5046256   0.1079545  )
        86        C      tau(  86) = (  -0.0849062   0.6972345  -0.0842713  )
        87        C      tau(  87) = (  -0.2770189   0.8897137  -0.2776835  )
        88        C      tau(  88) = (   0.2438721   0.7767848   0.2439630  )
        89        C      tau(  89) = (   0.0521140   0.9695747   0.0514494  )
        90        C      tau(  90) = (  -0.1410122   1.1615363  -0.1408238  )
        91        C      tau(  91) = (  -0.2640668   0.2317088   0.2078448  )
        92        C      tau(  92) = (  -0.4562096   0.4251784   0.0154374  )
        93        C      tau(  93) = (  -0.6488734   0.6172944  -0.1776043  )
        94        C      tau(  94) = (  -0.1282570   0.5047530   0.3433900  )
        95        C      tau(  95) = (  -0.5123623   0.8893720  -0.0410889  )
        96        C      tau(  96) = (   0.0084731   0.7767934   0.4797422  )
        97        C      tau(  97) = (  -0.1843643   0.9689576   0.2869091  )
        98        C      tau(  98) = (  -0.3768207   1.1623756   0.0947811  )
        99        C      tau(  99) = (  -0.4997576   0.2321086   0.4434386  )
       100        C      tau( 100) = (  -0.6924765   0.4242762   0.2511228  )
       101        C      tau( 101) = (  -0.8840980   0.6172671   0.0584993  )
       102        C      tau( 102) = (  -0.3637464   0.5040395   0.5798529  )
       103        C      tau( 103) = (  -0.5556529   0.6968639   0.3865654  )
       104        C      tau( 104) = (  -0.7485764   0.8896906   0.1944960  )
       105        C      tau( 105) = (  -0.2275989   0.7765605   0.7149984  )
       106        C      tau( 106) = (  -0.4200423   0.9694064   0.5230301  )
       107        C      tau( 107) = (  -0.6123149   1.1616324   0.3304556  )
       108        C      tau( 108) = (  -0.0731917   0.1164397   0.0449387  )
       109        C      tau( 109) = (  -0.2657213   0.3091546  -0.1472107  )
       110        C      tau( 110) = (  -0.4579631   0.5011774  -0.3400505  )
       111        C      tau( 111) = (   0.0625343   0.3888028   0.1810449  )
       112        C      tau( 112) = (  -0.1300927   0.5816227  -0.0110326  )
       113        C      tau( 113) = (  -0.3216000   0.7742071  -0.2050435  )
       114        C      tau( 114) = (   0.1991023   0.6606082   0.3170148  )
       115        C      tau( 115) = (   0.0075015   0.8540606   0.1240580  )
       116        C      tau( 116) = (  -0.1858586   1.0453504  -0.0677859  )
       117        C      tau( 117) = (  -0.3087852   0.1158457   0.2806763  )
       118        C      tau( 118) = (  -0.5012712   0.3085739   0.0882246  )
       119        C      tau( 119) = (  -0.6931467   0.5012791  -0.1040312  )
       120        C      tau( 120) = (  -0.1727674   0.3882823   0.4167284  )
       121        C      tau( 121) = (  -0.5565259   0.7733005   0.0320464  )
       122        C      tau( 122) = (  -0.0369171   0.6605071   0.5521984  )
       123        C      tau( 123) = (  -0.2293129   0.8526957   0.3592595  )
       124        C      tau( 124) = (  -0.4213917   1.0468427   0.1673850  )
       125        C      tau( 125) = (  -0.5445338   0.1161060   0.5163617  )
       126        C      tau( 126) = (  -0.7372029   0.3084157   0.3239554  )
       127        C      tau( 127) = (  -0.9291484   0.5011837   0.1314083  )
       128        C      tau( 128) = (  -0.4084667   0.3881805   0.6526916  )
       129        C      tau( 129) = (  -0.6008817   0.5807158   0.4599764  )
       130        C      tau( 130) = (  -0.7926810   0.7732136   0.2674392  )
       131        C      tau( 131) = (  -0.2723502   0.6605497   0.7882065  )
       132        C      tau( 132) = (  -0.4647069   0.8527935   0.5954133  )
       133        C      tau( 133) = (  -0.6572021   1.0455084   0.4035193  )
       134        C      tau( 134) = (  -0.1231181   0.2524807   0.2308756  )
       135        C      tau( 135) = (  -0.3162466   0.4465749   0.0396051  )
       136        C      tau( 136) = (  -0.5083874   0.6371525  -0.1544827  )
       137        C      tau( 137) = (   0.0130144   0.5245888   0.3667253  )
       138        C      tau( 138) = (  -0.1696588   0.7196057   0.1750112  )
       139        C      tau( 139) = (  -0.3715612   0.9091561  -0.0178451  )
       140        C      tau( 140) = (   0.1493526   0.7967702   0.5030776  )
       141        C      tau( 141) = (  -0.0432454   0.9891477   0.3104187  )
       142        C      tau( 142) = (  -0.2355861   1.1817061   0.1180490  )
       143        C      tau( 143) = (  -0.3585847   0.2518305   0.4668288  )
       144        C      tau( 144) = (  -0.5521509   0.4434657   0.2746745  )
       145        C      tau( 145) = (  -0.7426793   0.6372699   0.0817495  )
       146        C      tau( 146) = (  -0.2226421   0.5243843   0.6023009  )
       147        C      tau( 147) = (  -0.4149136   0.7161382   0.4078334  )
       148        C      tau( 148) = (  -0.6080852   0.9095334   0.2175982  )
       149        C      tau( 149) = (  -0.0865413   0.7964872   0.7384223  )
       150        C      tau( 150) = (  -0.2789245   0.9889701   0.5459844  )
       151        C      tau( 151) = (  -0.4711829   1.1816604   0.3537761  )
       152        C      tau( 152) = (  -0.5945093   0.2524300   0.7023339  )
       153        C      tau( 153) = (  -0.7868859   0.4448960   0.5098722  )
       154        C      tau( 154) = (  -0.9790227   0.6372535   0.3172094  )
       155        C      tau( 155) = (  -0.4580637   0.5244112   0.8381353  )
       156        C      tau( 156) = (  -0.6507357   0.7169912   0.6457529  )
       157        C      tau( 157) = (  -0.8430334   0.9094312   0.4532211  )
       158        C      tau( 158) = (  -0.3221747   0.7966573   0.9743200  )
       159        C      tau( 159) = (  -0.5143328   0.9893882   0.7817420  )
       160        C      tau( 160) = (  -0.7070256   1.1815222   0.5894591  )
       161        C      tau( 161) = (  -0.2873045   0.2126424   0.0666892  )
       162        C      tau( 162) = (  -0.4795132   0.4050816  -0.1258023  )
       163        C      tau( 163) = (  -0.6722215   0.5974229  -0.3184965  )
       164        C      tau( 164) = (  -0.1527745   0.4862399   0.2030772  )
       165        C      tau( 165) = (  -0.3444709   0.6771892   0.0001993  )
       166        C      tau( 166) = (  -0.5359232   0.8696041  -0.1822590  )
       167        C      tau( 167) = (  -0.0146506   0.7569531   0.3392540  )
       168        C      tau( 168) = (  -0.2075803   0.9489445   0.1461358  )
       169        C      tau( 169) = (  -0.3999408   1.1418269  -0.0463057  )
       170        C      tau( 170) = (  -0.5230905   0.2119147   0.3023229  )
       171        C      tau( 171) = (  -0.7150429   0.4049078   0.1099000  )
       172        C      tau( 172) = (  -0.9075153   0.5972855  -0.0825516  )
       173        C      tau( 173) = (  -0.3871350   0.4835053   0.4396905  )
       174        C      tau( 174) = (  -0.5768313   0.6768504   0.2459157  )
       175        C      tau( 175) = (  -0.7714502   0.8694633   0.0534587  )
       176        C      tau( 176) = (  -0.2508550   0.7566065   0.5735737  )
       177        C      tau( 177) = (  -0.4431435   0.9495549   0.3825400  )
       178        C      tau( 178) = (  -0.6356534   1.1417531   0.1893056  )
       179        C      tau( 179) = (  -0.7587489   0.2125788   0.5380943  )
       180        C      tau( 180) = (  -0.9508719   0.4048359   0.3453271  )
       181        C      tau( 181) = (  -1.1434456   0.5973836   0.1530492  )
       182        C      tau( 182) = (  -0.6226565   0.4847448   0.6741016  )
       183        C      tau( 183) = (  -0.8148918   0.6771603   0.4815968  )
       184        C      tau( 184) = (  -1.0072963   0.8697752   0.2887784  )
       185        C      tau( 185) = (  -0.4863364   0.7567992   0.8098958  )
       186        C      tau( 186) = (  -0.6787230   0.9492996   0.6175316  )
       187        C      tau( 187) = (  -0.8713085   1.1416605   0.4251763  )
       188        C      tau( 188) = (  -0.1017202   0.3491642   0.0169987  )
       189        C      tau( 189) = (  -0.2934300   0.5405305  -0.1761983  )
       190        C      tau( 190) = (  -0.4862582   0.7335982  -0.3682443  )
       191        C      tau( 191) = (   0.0353648   0.6203095   0.1525965  )
       192        C      tau( 192) = (  -0.1578576   0.8130990  -0.0394333  )
       193        C      tau( 193) = (  -0.3501177   1.0057080  -0.2322480  )
       194        C      tau( 194) = (   0.1708986   0.8930512   0.2889125  )
       195        C      tau( 195) = (  -0.0214527   1.0854555   0.0964171  )
       196        C      tau( 196) = (  -0.2140160   1.2777568  -0.0960198  )
       197        C      tau( 197) = (  -0.3370973   0.3467996   0.2529497  )
       198        C      tau( 198) = (  -0.5272641   0.5414272   0.0609234  )
       199        C      tau( 199) = (  -0.7216519   0.7334117  -0.1323917  )
       200        C      tau( 200) = (  -0.2018742   0.6203800   0.3863132  )
       201        C      tau( 201) = (  -0.3974761   0.8220060   0.1980240  )
       202        C      tau( 202) = (  -0.5856995   1.0055953   0.0035086  )
       203        C      tau( 203) = (  -0.0648969   0.8927672   0.5243633  )
       204        C      tau( 204) = (  -0.2571777   1.0853080   0.3320304  )
       205        C      tau( 205) = (  -0.4496689   1.2781597   0.1395353  )
       206        C      tau( 206) = (  -0.5729728   0.3481962   0.4884862  )
       207        C      tau( 207) = (  -0.7648279   0.5409238   0.2957016  )
       208        C      tau( 208) = (  -0.9573170   0.7333457   0.1033106  )
       209        C      tau( 209) = (  -0.4366134   0.6205620   0.6239161  )
       210        C      tau( 210) = (  -0.6288595   0.8131044   0.4315673  )
       211        C      tau( 211) = (  -0.8216533   1.0056783   0.2391910  )
       212        C      tau( 212) = (  -0.3005825   0.8926962   0.7600451  )
       213        C      tau( 213) = (  -0.4928875   1.0854503   0.5679569  )
       214        C      tau( 214) = (  -0.6853692   1.2777471   0.3753358  )
       215        N      tau( 215) = (  -0.3692096   0.5703132   0.2308284  )

     number of k points=     1
                       cart. coord. in units 2pi/alat
        k(    1) = (   0.0000000   0.0000000   0.0000000), wk =   1.0000000

     Dense  grid:   338755 G-vectors     FFT dimensions: (  90,  90,  90)

     Occupations read from input 

      Spin-up

        1.0000   1.0000   1.0000   1.0000   1.0000   1.0000   1.0000   1.0000
        1.0000   1.0000   1.0000   1.0000   1.0000   1.0000   1.0000   1.0000
        1.0000   1.0000   1.0000   1.0000   1.0000   1.0000   1.0000   1.0000
        1.0000   1.0000   1.0000   1.0000   1.0000   1.0000   1.0000   1.0000
        1.0000   1.0000   1.0000   1.0000   1.0000   1.0000   1.0000   1.0000
        1.0000   1.0000   1.0000   1.0000   1.0000   1.0000   1.0000   1.0000
        1.0000   1.0000   1.0000   1.0000   1.0000   1.0000   1.0000   1.0000
        1.0000   1.0000   1.0000   1.0000   1.0000   1.0000   1.0000   1.0000
        1.0000   1.0000   1.0000   1.0000   1.0000   1.0000   1.0000   1.0000
        1.0000   1.0000   1.0000   1.0000   1.0000   1.0000   1.0000   1.0000
        1.0000   1.0000   1.0000   1.0000   1.0000   1.0000   1.0000   1.0000
        1.0000   1.0000   1.0000   1.0000   1.0000   1.0000   1.0000   1.0000
        1.0000   1.0000   1.0000   1.0000   1.0000   1.0000   1.0000   1.0000
        1.0000   1.0000   1.0000   1.0000   1.0000   1.0000   1.0000   1.0000
        1.0000   1.0000   1.0000   1.0000   1.0000   1.0000   1.0000   1.0000
        1.0000   1.0000   1.0000   1.0000   1.0000   1.0000   1.0000   1.0000
        1.0000   1.0000   1.0000   1.0000   1.0000   1.0000   1.0000   1.0000
        1.0000   1.0000   1.0000   1.0000   1.0000   1.0000   1.0000   1.0000
        1.0000   1.0000   1.0000   1.0000   1.0000   1.0000   1.0000   1.0000
        1.0000   1.0000   1.0000   1.0000   1.0000   1.0000   1.0000   1.0000
        1.0000   1.0000   1.0000   1.0000   1.0000   1.0000   1.0000   1.0000
        1.0000   1.0000   1.0000   1.0000   1.0000   1.0000   1.0000   1.0000
        1.0000   1.0000   1.0000   1.0000   1.0000   1.0000   1.0000   1.0000
        1.0000   1.0000   1.0000   1.0000   1.0000   1.0000   1.0000   1.0000
        1.0000   1.0000   1.0000   1.0000   1.0000   1.0000   1.0000   1.0000
        1.0000   1.0000   1.0000   1.0000   1.0000   1.0000   1.0000   1.0000
        1.0000   1.0000   1.0000   1.0000   1.0000   1.0000   1.0000   1.0000
        1.0000   1.0000   1.0000   1.0000   1.0000   1.0000   1.0000   1.0000
        1.0000   1.0000   1.0000   1.0000   1.0000   1.0000   1.0000   1.0000
        1.0000   1.0000   1.0000   1.0000   1.0000   1.0000   1.0000   1.0000
        1.0000   1.0000   1.0000   1.0000   1.0000   1.0000   1.0000   1.0000
        1.0000   1.0000   1.0000   1.0000   1.0000   1.0000   1.0000   1.0000
        1.0000   1.0000   1.0000   1.0000   1.0000   1.0000   1.0000   1.0000
        1.0000   1.0000   1.0000   1.0000   1.0000   1.0000   1.0000   1.0000
        1.0000   1.0000   1.0000   1.0000   1.0000   1.0000   1.0000   1.0000
        1.0000   1.0000   1.0000   1.0000   1.0000   1.0000   1.0000   1.0000
        1.0000   1.0000   1.0000   1.0000   1.0000   1.0000   1.0000   1.0000
        1.0000   1.0000   1.0000   1.0000   1.0000   1.0000   1.0000   1.0000
        1.0000   1.0000   1.0000   1.0000   1.0000   1.0000   1.0000   1.0000
        1.0000   1.0000   1.0000   1.0000   1.0000   1.0000   1.0000   1.0000
        1.0000   1.0000   1.0000   1.0000   1.0000   1.0000   1.0000   1.0000
        1.0000   1.0000   1.0000   1.0000   1.0000   1.0000   1.0000   1.0000
        1.0000   1.0000   1.0000   1.0000   1.0000   1.0000   1.0000   1.0000
        1.0000   1.0000   1.0000   1.0000   1.0000   1.0000   1.0000   1.0000
        1.0000   1.0000   1.0000   1.0000   1.0000   1.0000   1.0000   1.0000
        1.0000   1.0000   1.0000   1.0000   1.0000   1.0000   1.0000   1.0000
        1.0000   1.0000   1.0000   1.0000   1.0000   1.0000   1.0000   1.0000
        1.0000   1.0000   1.0000   1.0000   1.0000   1.0000   1.0000   1.0000
        1.0000   1.0000   1.0000   1.0000   1.0000   1.0000   1.0000   1.0000
        1.0000   1.0000   1.0000   1.0000   1.0000   1.0000   1.0000   1.0000
        1.0000   1.0000   1.0000   1.0000   1.0000   1.0000   1.0000   1.0000
        1.0000   1.0000   1.0000   1.0000   1.0000   1.0000   1.0000   1.0000
        1.0000   1.0000   1.0000   1.0000   1.0000   1.0000   1.0000   1.0000
        1.0000   1.0000   1.0000   1.0000   1.0000   1.0000   1.0000   1.0000
        0.0000   0.0000   0.0000   0.0000   0.0000   0.0000   0.0000   0.0000
        0.0000   0.0000   0.0000   0.0000   0.0000   0.0000   0.0000   0.0000
        0.0000   0.0000   0.0000   0.0000   0.0000   0.0000   0.0000   0.0000
        0.0000   0.0000   0.0000   0.0000   0.0000   0.0000   0.0000   0.0000
        0.0000   0.0000   0.0000   0.0000   0.0000   0.0000   0.0000   0.0000
        0.0000   0.0000   0.0000   0.0000   0.0000   0.0000   0.0000   0.0000
        0.0000   0.0000   0.0000   0.0000   0.0000   0.0000   0.0000   0.0000
        0.0000   0.0000   0.0000   0.0000   0.0000   0.0000   0.0000   0.0000
        0.0000   0.0000   0.0000   0.0000   0.0000   0.0000   0.0000   0.0000
        0.0000   0.0000   0.0000   0.0000   0.0000   0.0000   0.0000   0.0000
        0.0000   0.0000   0.0000   0.0000   0.0000   0.0000   0.0000   0.0000
        0.0000   0.0000   0.0000   0.0000   0.0000   0.0000   0.0000   0.0000
        0.0000   0.0000   0.0000   0.0000   0.0000   0.0000   0.0000   0.0000
        0.0000   0.0000   0.0000   0.0000   0.0000   0.0000   0.0000   0.0000
        0.0000   0.0000   0.0000   0.0000   0.0000   0.0000   0.0000   0.0000
        0.0000   0.0000   0.0000   0.0000   0.0000   0.0000   0.0000   0.0000
        0.0000   0.0000   0.0000   0.0000   0.0000   0.0000   0.0000   0.0000
        0.0000   0.0000   0.0000   0.0000   0.0000   0.0000   0.0000   0.0000
        0.0000   0.0000   0.0000   0.0000   0.0000   0.0000   0.0000   0.0000
        0.0000   0.0000   0.0000   0.0000   0.0000   0.0000   0.0000   0.0000
        0.0000   0.0000   0.0000   0.0000   0.0000   0.0000   0.0000   0.0000
        0.0000   0.0000   0.0000   0.0000   0.0000   0.0000   0.0000   0.0000
        0.0000   0.0000   0.0000   0.0000   0.0000   0.0000   0.0000   0.0000
        0.0000   0.0000   0.0000   0.0000   0.0000   0.0000   0.0000   0.0000
        0.0000   0.0000   0.0000   0.0000   0.0000   0.0000   0.0000   0.0000
        0.0000   0.0000   0.0000   0.0000   0.0000   0.0000   0.0000   0.0000
        0.0000   0.0000   0.0000   0.0000   0.0000   0.0000   0.0000   0.0000
        0.0000   0.0000   0.0000   0.0000   0.0000   0.0000   0.0000   0.0000
        0.0000   0.0000   0.0000   0.0000   0.0000   0.0000   0.0000   0.0000
        0.0000   0.0000   0.0000   0.0000   0.0000   0.0000   0.0000   0.0000
        0.0000   0.0000   0.0000   0.0000   0.0000   0.0000   0.0000   0.0000
        0.0000   0.0000   0.0000   0.0000   0.0000   0.0000   0.0000   0.0000
        0.0000   0.0000   0.0000   0.0000   0.0000   0.0000   0.0000   0.0000
        0.0000   0.0000   0.0000   0.0000   0.0000   0.0000   0.0000   0.0000
        0.0000   0.0000   0.0000   0.0000   0.0000   0.0000   0.0000   0.0000
        0.0000   0.0000   0.0000   0.0000   0.0000   0.0000   0.0000   0.0000
        0.0000   0.0000   0.0000   0.0000   0.0000   0.0000   0.0000   0.0000
        0.0000   0.0000   0.0000   0.0000   0.0000   0.0000   0.0000   0.0000
        0.0000   0.0000   0.0000   0.0000   0.0000   0.0000   0.0000   0.0000
        0.0000   0.0000   0.0000   0.0000   0.0000   0.0000   0.0000   0.0000
        0.0000   0.0000   0.0000   0.0000   0.0000   0.0000   0.0000   0.0000
        0.0000   0.0000   0.0000   0.0000   0.0000   0.0000   0.0000   0.0000
        0.0000   0.0000   0.0000   0.0000   0.0000   0.0000   0.0000   0.0000
        0.0000   0.0000   0.0000   0.0000   0.0000   0.0000   0.0000   0.0000
        0.0000   0.0000   0.0000   0.0000   0.0000   0.0000   0.0000   0.0000
        0.0000   0.0000   0.0000   0.0000   0.0000   0.0000   0.0000   0.0000
        0.0000   0.0000   0.0000   0.0000   0.0000   0.0000   0.0000   0.0000
        0.0000   0.0000   0.0000   0.0000   0.0000   0.0000   0.0000   0.0000
        0.0000   0.0000   0.0000   0.0000   0.0000   0.0000   0.0000   0.0000
        0.0000   0.0000   0.0000   0.0000   0.0000   0.0000   0.0000   0.0000
        0.0000   0.0000   0.0000   0.0000   0.0000   0.0000   0.0000   0.0000
        0.0000   0.0000   0.0000   0.0000   0.0000   0.0000   0.0000   0.0000
        0.0000   0.0000   0.0000   0.0000   0.0000   0.0000   0.0000   0.0000
        0.0000   0.0000   0.0000   0.0000   0.0000   0.0000

      Spin-down

        1.0000   1.0000   1.0000   1.0000   1.0000   1.0000   1.0000   1.0000
        1.0000   1.0000   1.0000   1.0000   1.0000   1.0000   1.0000   1.0000
        1.0000   1.0000   1.0000   1.0000   1.0000   1.0000   1.0000   1.0000
        1.0000   1.0000   1.0000   1.0000   1.0000   1.0000   1.0000   1.0000
        1.0000   1.0000   1.0000   1.0000   1.0000   1.0000   1.0000   1.0000
        1.0000   1.0000   1.0000   1.0000   1.0000   1.0000   1.0000   1.0000
        1.0000   1.0000   1.0000   1.0000   1.0000   1.0000   1.0000   1.0000
        1.0000   1.0000   1.0000   1.0000   1.0000   1.0000   1.0000   1.0000
        1.0000   1.0000   1.0000   1.0000   1.0000   1.0000   1.0000   1.0000
        1.0000   1.0000   1.0000   1.0000   1.0000   1.0000   1.0000   1.0000
        1.0000   1.0000   1.0000   1.0000   1.0000   1.0000   1.0000   1.0000
        1.0000   1.0000   1.0000   1.0000   1.0000   1.0000   1.0000   1.0000
        1.0000   1.0000   1.0000   1.0000   1.0000   1.0000   1.0000   1.0000
        1.0000   1.0000   1.0000   1.0000   1.0000   1.0000   1.0000   1.0000
        1.0000   1.0000   1.0000   1.0000   1.0000   1.0000   1.0000   1.0000
        1.0000   1.0000   1.0000   1.0000   1.0000   1.0000   1.0000   1.0000
        1.0000   1.0000   1.0000   1.0000   1.0000   1.0000   1.0000   1.0000
        1.0000   1.0000   1.0000   1.0000   1.0000   1.0000   1.0000   1.0000
        1.0000   1.0000   1.0000   1.0000   1.0000   1.0000   1.0000   1.0000
        1.0000   1.0000   1.0000   1.0000   1.0000   1.0000   1.0000   1.0000
        1.0000   1.0000   1.0000   1.0000   1.0000   1.0000   1.0000   1.0000
        1.0000   1.0000   1.0000   1.0000   1.0000   1.0000   1.0000   1.0000
        1.0000   1.0000   1.0000   1.0000   1.0000   1.0000   1.0000   1.0000
        1.0000   1.0000   1.0000   1.0000   1.0000   1.0000   1.0000   1.0000
        1.0000   1.0000   1.0000   1.0000   1.0000   1.0000   1.0000   1.0000
        1.0000   1.0000   1.0000   1.0000   1.0000   1.0000   1.0000   1.0000
        1.0000   1.0000   1.0000   1.0000   1.0000   1.0000   1.0000   1.0000
        1.0000   1.0000   1.0000   1.0000   1.0000   1.0000   1.0000   1.0000
        1.0000   1.0000   1.0000   1.0000   1.0000   1.0000   1.0000   1.0000
        1.0000   1.0000   1.0000   1.0000   1.0000   1.0000   1.0000   1.0000
        1.0000   1.0000   1.0000   1.0000   1.0000   1.0000   1.0000   1.0000
        1.0000   1.0000   1.0000   1.0000   1.0000   1.0000   1.0000   1.0000
        1.0000   1.0000   1.0000   1.0000   1.0000   1.0000   1.0000   1.0000
        1.0000   1.0000   1.0000   1.0000   1.0000   1.0000   1.0000   1.0000
        1.0000   1.0000   1.0000   1.0000   1.0000   1.0000   1.0000   1.0000
        1.0000   1.0000   1.0000   1.0000   1.0000   1.0000   1.0000   1.0000
        1.0000   1.0000   1.0000   1.0000   1.0000   1.0000   1.0000   1.0000
        1.0000   1.0000   1.0000   1.0000   1.0000   1.0000   1.0000   1.0000
        1.0000   1.0000   1.0000   1.0000   1.0000   1.0000   1.0000   1.0000
        1.0000   1.0000   1.0000   1.0000   1.0000   1.0000   1.0000   1.0000
        1.0000   1.0000   1.0000   1.0000   1.0000   1.0000   1.0000   1.0000
        1.0000   1.0000   1.0000   1.0000   1.0000   1.0000   1.0000   1.0000
        1.0000   1.0000   1.0000   1.0000   1.0000   1.0000   1.0000   1.0000
        1.0000   1.0000   1.0000   1.0000   1.0000   1.0000   1.0000   1.0000
        1.0000   1.0000   1.0000   1.0000   1.0000   1.0000   1.0000   1.0000
        1.0000   1.0000   1.0000   1.0000   1.0000   1.0000   1.0000   1.0000
        1.0000   1.0000   1.0000   1.0000   1.0000   1.0000   1.0000   1.0000
        1.0000   1.0000   1.0000   1.0000   1.0000   1.0000   1.0000   1.0000
        1.0000   1.0000   1.0000   1.0000   1.0000   1.0000   1.0000   1.0000
        1.0000   1.0000   1.0000   1.0000   1.0000   1.0000   1.0000   1.0000
        1.0000   1.0000   1.0000   1.0000   1.0000   1.0000   1.0000   1.0000
        1.0000   1.0000   1.0000   1.0000   1.0000   1.0000   1.0000   1.0000
        1.0000   1.0000   1.0000   1.0000   1.0000   1.0000   1.0000   1.0000
        1.0000   1.0000   1.0000   1.0000   1.0000   0.0000   0.5000   0.5000
        0.0000   0.0000   0.0000   0.0000   0.0000   0.0000   0.0000   0.0000
        0.0000   0.0000   0.0000   0.0000   0.0000   0.0000   0.0000   0.0000
        0.0000   0.0000   0.0000   0.0000   0.0000   0.0000   0.0000   0.0000
        0.0000   0.0000   0.0000   0.0000   0.0000   0.0000   0.0000   0.0000
        0.0000   0.0000   0.0000   0.0000   0.0000   0.0000   0.0000   0.0000
        0.0000   0.0000   0.0000   0.0000   0.0000   0.0000   0.0000   0.0000
        0.0000   0.0000   0.0000   0.0000   0.0000   0.0000   0.0000   0.0000
        0.0000   0.0000   0.0000   0.0000   0.0000   0.0000   0.0000   0.0000
        0.0000   0.0000   0.0000   0.0000   0.0000   0.0000   0.0000   0.0000
        0.0000   0.0000   0.0000   0.0000   0.0000   0.0000   0.0000   0.0000
        0.0000   0.0000   0.0000   0.0000   0.0000   0.0000   0.0000   0.0000
        0.0000   0.0000   0.0000   0.0000   0.0000   0.0000   0.0000   0.0000
        0.0000   0.0000   0.0000   0.0000   0.0000   0.0000   0.0000   0.0000
        0.0000   0.0000   0.0000   0.0000   0.0000   0.0000   0.0000   0.0000
        0.0000   0.0000   0.0000   0.0000   0.0000   0.0000   0.0000   0.0000
        0.0000   0.0000   0.0000   0.0000   0.0000   0.0000   0.0000   0.0000
        0.0000   0.0000   0.0000   0.0000   0.0000   0.0000   0.0000   0.0000
        0.0000   0.0000   0.0000   0.0000   0.0000   0.0000   0.0000   0.0000
        0.0000   0.0000   0.0000   0.0000   0.0000   0.0000   0.0000   0.0000
        0.0000   0.0000   0.0000   0.0000   0.0000   0.0000   0.0000   0.0000
        0.0000   0.0000   0.0000   0.0000   0.0000   0.0000   0.0000   0.0000
        0.0000   0.0000   0.0000   0.0000   0.0000   0.0000   0.0000   0.0000
        0.0000   0.0000   0.0000   0.0000   0.0000   0.0000   0.0000   0.0000
        0.0000   0.0000   0.0000   0.0000   0.0000   0.0000   0.0000   0.0000
        0.0000   0.0000   0.0000   0.0000   0.0000   0.0000   0.0000   0.0000
        0.0000   0.0000   0.0000   0.0000   0.0000   0.0000   0.0000   0.0000
        0.0000   0.0000   0.0000   0.0000   0.0000   0.0000   0.0000   0.0000
        0.0000   0.0000   0.0000   0.0000   0.0000   0.0000   0.0000   0.0000
        0.0000   0.0000   0.0000   0.0000   0.0000   0.0000   0.0000   0.0000
        0.0000   0.0000   0.0000   0.0000   0.0000   0.0000   0.0000   0.0000
        0.0000   0.0000   0.0000   0.0000   0.0000   0.0000   0.0000   0.0000
        0.0000   0.0000   0.0000   0.0000   0.0000   0.0000   0.0000   0.0000
        0.0000   0.0000   0.0000   0.0000   0.0000   0.0000   0.0000   0.0000
        0.0000   0.0000   0.0000   0.0000   0.0000   0.0000   0.0000   0.0000
        0.0000   0.0000   0.0000   0.0000   0.0000   0.0000   0.0000   0.0000
        0.0000   0.0000   0.0000   0.0000   0.0000   0.0000   0.0000   0.0000
        0.0000   0.0000   0.0000   0.0000   0.0000   0.0000   0.0000   0.0000
        0.0000   0.0000   0.0000   0.0000   0.0000   0.0000   0.0000   0.0000
        0.0000   0.0000   0.0000   0.0000   0.0000   0.0000   0.0000   0.0000
        0.0000   0.0000   0.0000   0.0000   0.0000   0.0000   0.0000   0.0000
        0.0000   0.0000   0.0000   0.0000   0.0000   0.0000   0.0000   0.0000
        0.0000   0.0000   0.0000   0.0000   0.0000   0.0000   0.0000   0.0000
        0.0000   0.0000   0.0000   0.0000   0.0000   0.0000   0.0000   0.0000
        0.0000   0.0000   0.0000   0.0000   0.0000   0.0000   0.0000   0.0000
        0.0000   0.0000   0.0000   0.0000   0.0000   0.0000   0.0000   0.0000
        0.0000   0.0000   0.0000   0.0000   0.0000   0.0000   0.0000   0.0000
        0.0000   0.0000   0.0000   0.0000   0.0000   0.0000   0.0000   0.0000
        0.0000   0.0000   0.0000   0.0000   0.0000   0.0000   0.0000   0.0000
        0.0000   0.0000   0.0000   0.0000   0.0000   0.0000   0.0000   0.0000
        0.0000   0.0000   0.0000   0.0000   0.0000   0.0000   0.0000   0.0000
        0.0000   0.0000   0.0000   0.0000   0.0000   0.0000   0.0000   0.0000
        0.0000   0.0000   0.0000   0.0000   0.0000   0.0000   0.0000   0.0000
        0.0000   0.0000   0.0000   0.0000   0.0000   0.0000   0.0000   0.0000
        0.0000   0.0000   0.0000   0.0000   0.0000   0.0000

     Estimated max dynamical RAM per process >     300.93 MB

     Estimated total dynamical RAM >       7.05 GB

     Check: negative core charge=   -0.000075
     Generating pointlists ...
     new r_m :   0.0569 (alat units)  1.1516 (a.u.) for type    1
     new r_m :   0.0569 (alat units)  1.1516 (a.u.) for type    2

     Initial potential from superposition of free atoms

     starting charge     860.9911, renormalised to     862.0000
     Starting wfcs are random
     Checking if some PAW data can be deallocated... 

     total cpu time spent up to now is       12.0 secs

     per-process dynamical memory:   204.2 Mb

     Self-consistent Calculation

     iteration #  1     ecut=    45.00 Ry     beta= 0.70
     Davidson diagonalization with overlap
     ethr =  1.00E-02,  avg # of iterations =  9.0

     total cpu time spent up to now is      153.1 secs

     total energy              =   -3970.06278757 Ry
     estimated scf accuracy    <      12.72065657 Ry

     total magnetization       =     2.00 Bohr mag/cell
     absolute magnetization    =     2.13 Bohr mag/cell

     iteration #  2     ecut=    45.00 Ry     beta= 0.70
     Davidson diagonalization with overlap
     ethr =  1.48E-03,  avg # of iterations =  3.0

     total cpu time spent up to now is      189.5 secs

     total energy              =   -3967.93265619 Ry
     estimated scf accuracy    <       5.56707209 Ry

     total magnetization       =     2.00 Bohr mag/cell
     absolute magnetization    =     2.34 Bohr mag/cell

     iteration #  3     ecut=    45.00 Ry     beta= 0.70
     Davidson diagonalization with overlap
     ethr =  6.46E-04,  avg # of iterations =  5.0

     total cpu time spent up to now is      243.7 secs

     total energy              =   -3969.11809668 Ry
     estimated scf accuracy    <      20.50401928 Ry

     total magnetization       =     2.00 Bohr mag/cell
     absolute magnetization    =     2.12 Bohr mag/cell

     iteration #  4     ecut=    45.00 Ry     beta= 0.70
     Davidson diagonalization with overlap
     ethr =  6.46E-04,  avg # of iterations =  6.0

     total cpu time spent up to now is      287.3 secs

     total energy              =   -3971.10652634 Ry
     estimated scf accuracy    <       1.34664176 Ry

     total magnetization       =     2.00 Bohr mag/cell
     absolute magnetization    =     2.08 Bohr mag/cell

     iteration #  5     ecut=    45.00 Ry     beta= 0.70
     Davidson diagonalization with overlap
     ethr =  1.56E-04,  avg # of iterations =  9.5

     total cpu time spent up to now is      329.5 secs

     total energy              =   -3971.21614616 Ry
     estimated scf accuracy    <       0.35334130 Ry

     total magnetization       =     2.00 Bohr mag/cell
     absolute magnetization    =     2.06 Bohr mag/cell

     iteration #  6     ecut=    45.00 Ry     beta= 0.70
     Davidson diagonalization with overlap
     ethr =  4.10E-05,  avg # of iterations = 10.0

     total cpu time spent up to now is      372.9 secs

     total energy              =   -3971.20457285 Ry
     estimated scf accuracy    <       0.13372135 Ry

     total magnetization       =     2.00 Bohr mag/cell
     absolute magnetization    =     2.09 Bohr mag/cell

     iteration #  7     ecut=    45.00 Ry     beta= 0.70
     Davidson diagonalization with overlap
     ethr =  1.55E-05,  avg # of iterations =  3.0

     total cpu time spent up to now is      409.9 secs

     total energy              =   -3971.21070112 Ry
     estimated scf accuracy    <       0.02443479 Ry

     total magnetization       =     2.00 Bohr mag/cell
     absolute magnetization    =     2.12 Bohr mag/cell

     iteration #  8     ecut=    45.00 Ry     beta= 0.70
     Davidson diagonalization with overlap
     ethr =  2.83E-06,  avg # of iterations = 10.5

     total cpu time spent up to now is      457.3 secs

     total energy              =   -3971.21488361 Ry
     estimated scf accuracy    <       0.00271316 Ry

     total magnetization       =     2.00 Bohr mag/cell
     absolute magnetization    =     2.16 Bohr mag/cell

     iteration #  9     ecut=    45.00 Ry     beta= 0.70
     Davidson diagonalization with overlap
     ethr =  3.15E-07,  avg # of iterations =  2.5

     total cpu time spent up to now is      493.3 secs

     total energy              =   -3971.21552349 Ry
     estimated scf accuracy    <       0.00048838 Ry

     total magnetization       =     2.00 Bohr mag/cell
     absolute magnetization    =     2.17 Bohr mag/cell

     iteration # 10     ecut=    45.00 Ry     beta= 0.70
     Davidson diagonalization with overlap
     ethr =  5.67E-08,  avg # of iterations =  2.0

     total cpu time spent up to now is      529.0 secs

     total energy              =   -3971.21566862 Ry
     estimated scf accuracy    <       0.00012173 Ry

     total magnetization       =     2.00 Bohr mag/cell
     absolute magnetization    =     2.18 Bohr mag/cell

     iteration # 11     ecut=    45.00 Ry     beta= 0.70
     Davidson diagonalization with overlap
     ethr =  1.41E-08,  avg # of iterations =  2.5

     total cpu time spent up to now is      565.2 secs

     total energy              =   -3971.21570433 Ry
     estimated scf accuracy    <       0.00003356 Ry

     total magnetization       =     2.00 Bohr mag/cell
     absolute magnetization    =     2.19 Bohr mag/cell

     iteration # 12     ecut=    45.00 Ry     beta= 0.70
     Davidson diagonalization with overlap
     ethr =  3.89E-09,  avg # of iterations =  2.0

     total cpu time spent up to now is      600.7 secs

     total energy              =   -3971.21571402 Ry
     estimated scf accuracy    <       0.00000516 Ry

     total magnetization       =     2.00 Bohr mag/cell
     absolute magnetization    =     2.19 Bohr mag/cell

     iteration # 13     ecut=    45.00 Ry     beta= 0.70
     Davidson diagonalization with overlap
     ethr =  5.99E-10,  avg # of iterations =  3.0

     total cpu time spent up to now is      637.7 secs

     total energy              =   -3971.21571560 Ry
     estimated scf accuracy    <       0.00000161 Ry

     total magnetization       =     2.00 Bohr mag/cell
     absolute magnetization    =     2.20 Bohr mag/cell

     iteration # 14     ecut=    45.00 Ry     beta= 0.70
     Davidson diagonalization with overlap
     ethr =  1.87E-10,  avg # of iterations =  2.5

     total cpu time spent up to now is      673.7 secs

     total energy              =   -3971.21571602 Ry
     estimated scf accuracy    <       0.00000024 Ry

     total magnetization       =     2.00 Bohr mag/cell
     absolute magnetization    =     2.20 Bohr mag/cell

     iteration # 15     ecut=    45.00 Ry     beta= 0.70
     Davidson diagonalization with overlap
     ethr =  2.78E-11,  avg # of iterations =  3.0

     total cpu time spent up to now is      710.9 secs

     total energy              =   -3971.21571610 Ry
     estimated scf accuracy    <       0.00000011 Ry

     total magnetization       =     2.00 Bohr mag/cell
     absolute magnetization    =     2.20 Bohr mag/cell

     iteration # 16     ecut=    45.00 Ry     beta= 0.70
     Davidson diagonalization with overlap
     ethr =  1.33E-11,  avg # of iterations =  2.0

     total cpu time spent up to now is      746.3 secs

     total energy              =   -3971.21571612 Ry
     estimated scf accuracy    <       0.00000001 Ry

     total magnetization       =     2.00 Bohr mag/cell
     absolute magnetization    =     2.20 Bohr mag/cell

     iteration # 17     ecut=    45.00 Ry     beta= 0.70
     Davidson diagonalization with overlap
     ethr =  1.64E-12,  avg # of iterations =  2.0
 
     Magnetic moment per site  (integrated on atomic sphere of radius R)
     atom   1 (R=0.057)  charge=  1.8215  magn=  0.0001
     atom   2 (R=0.057)  charge=  1.8210  magn= -0.0000
     atom   3 (R=0.057)  charge=  1.8229  magn=  0.0000
     atom   4 (R=0.057)  charge=  1.8210  magn=  0.0000
     atom   5 (R=0.057)  charge=  1.8196  magn= -0.0002
     atom   6 (R=0.057)  charge=  1.8210  magn= -0.0008
     atom   7 (R=0.057)  charge=  1.8229  magn=  0.0000
     atom   8 (R=0.057)  charge=  1.8210  magn= -0.0008
     atom   9 (R=0.057)  charge=  1.8210  magn= -0.0002
     atom  10 (R=0.057)  charge=  1.8265  magn=  0.0015
     atom  11 (R=0.057)  charge=  1.8227  magn= -0.0001
     atom  12 (R=0.057)  charge=  1.8225  magn= -0.0001
     atom  13 (R=0.057)  charge=  1.8227  magn= -0.0001
     atom  14 (R=0.057)  charge=  1.7940  magn=  0.0003
     atom  15 (R=0.057)  charge=  1.8183  magn= -0.0025
     atom  16 (R=0.057)  charge=  1.8225  magn= -0.0001
     atom  17 (R=0.057)  charge=  1.8183  magn= -0.0025
     atom  18 (R=0.057)  charge=  1.8257  magn=  0.0019
     atom  19 (R=0.057)  charge=  1.8211  magn=  0.0001
     atom  20 (R=0.057)  charge=  1.8230  magn=  0.0000
     atom  21 (R=0.057)  charge=  1.8224  magn= -0.0001
     atom  22 (R=0.057)  charge=  1.8230  magn=  0.0000
     atom  23 (R=0.057)  charge=  1.8230  magn= -0.0002
     atom  24 (R=0.057)  charge=  1.8150  magn= -0.0002
     atom  25 (R=0.057)  charge=  1.8224  magn= -0.0001
     atom  26 (R=0.057)  charge=  1.8150  magn= -0.0002
     atom  27 (R=0.057)  charge=  1.8217  magn= -0.0009
     atom  28 (R=0.057)  charge=  1.8223  magn= -0.0001
     atom  29 (R=0.057)  charge=  1.8148  magn= -0.0002
     atom  30 (R=0.057)  charge=  1.8217  magn= -0.0009
     atom  31 (R=0.057)  charge=  1.8225  magn= -0.0001
     atom  32 (R=0.057)  charge=  1.8181  magn= -0.0025
     atom  33 (R=0.057)  charge=  1.8258  magn=  0.0018
     atom  34 (R=0.057)  charge=  1.8229  magn=  0.0000
     atom  35 (R=0.057)  charge=  1.8210  magn= -0.0008
     atom  36 (R=0.057)  charge=  1.8210  magn= -0.0002
     atom  37 (R=0.057)  charge=  1.8230  magn=  0.0000
     atom  38 (R=0.057)  charge=  1.8230  magn= -0.0002
     atom  39 (R=0.057)  charge=  1.8149  magn= -0.0002
     atom  40 (R=0.057)  charge=  1.8227  magn= -0.0001
     atom  41 (R=0.057)  charge=  1.7942  magn=  0.0003
     atom  42 (R=0.057)  charge=  1.8184  magn= -0.0025
     atom  43 (R=0.057)  charge=  1.8210  magn= -0.0000
     atom  44 (R=0.057)  charge=  1.8197  magn= -0.0002
     atom  45 (R=0.057)  charge=  1.8210  magn= -0.0008
     atom  46 (R=0.057)  charge=  1.8211  magn=  0.0001
     atom  47 (R=0.057)  charge=  1.8229  magn=  0.0000
     atom  48 (R=0.057)  charge=  1.8224  magn= -0.0001
     atom  49 (R=0.057)  charge=  1.8265  magn=  0.0015
     atom  50 (R=0.057)  charge=  1.8227  magn= -0.0001
     atom  51 (R=0.057)  charge=  1.8226  magn= -0.0001
     atom  52 (R=0.057)  charge=  1.8215  magn=  0.0001
     atom  53 (R=0.057)  charge=  1.8212  magn= -0.0000
     atom  54 (R=0.057)  charge=  1.8229  magn=  0.0000
     atom  55 (R=0.057)  charge=  1.8223  magn= -0.0001
     atom  56 (R=0.057)  charge=  1.8225  magn= -0.0001
     atom  57 (R=0.057)  charge=  1.8229  magn=  0.0000
     atom  58 (R=0.057)  charge=  1.8148  magn= -0.0002
     atom  59 (R=0.057)  charge=  1.8181  magn= -0.0025
     atom  60 (R=0.057)  charge=  1.8210  magn= -0.0008
     atom  61 (R=0.057)  charge=  1.8217  magn= -0.0009
     atom  62 (R=0.057)  charge=  1.8258  magn=  0.0018
     atom  63 (R=0.057)  charge=  1.8210  magn= -0.0002
     atom  64 (R=0.057)  charge=  1.8230  magn=  0.0000
     atom  65 (R=0.057)  charge=  1.8227  magn= -0.0001
     atom  66 (R=0.057)  charge=  1.8210  magn=  0.0000
     atom  67 (R=0.057)  charge=  1.8230  magn= -0.0002
     atom  68 (R=0.057)  charge=  1.7942  magn=  0.0003
     atom  69 (R=0.057)  charge=  1.8197  magn= -0.0002
     atom  70 (R=0.057)  charge=  1.8149  magn= -0.0002
     atom  71 (R=0.057)  charge=  1.8185  magn= -0.0025
     atom  72 (R=0.057)  charge=  1.8210  magn= -0.0008
     atom  73 (R=0.057)  charge=  1.8211  magn=  0.0001
     atom  74 (R=0.057)  charge=  1.8265  magn=  0.0015
     atom  75 (R=0.057)  charge=  1.8215  magn=  0.0001
     atom  76 (R=0.057)  charge=  1.8229  magn=  0.0000
     atom  77 (R=0.057)  charge=  1.8227  magn= -0.0001
     atom  78 (R=0.057)  charge=  1.8212  magn=  0.0000
     atom  79 (R=0.057)  charge=  1.8224  magn= -0.0001
     atom  80 (R=0.057)  charge=  1.8226  magn= -0.0001
     atom  81 (R=0.057)  charge=  1.8229  magn=  0.0000
     atom  82 (R=0.057)  charge=  1.8210  magn=  0.0001
     atom  83 (R=0.057)  charge=  1.8259  magn=  0.0018
     atom  84 (R=0.057)  charge=  1.8218  magn=  0.0000
     atom  85 (R=0.057)  charge=  1.8259  magn=  0.0018
     atom  86 (R=0.057)  charge=  1.8221  magn= -0.0007
     atom  87 (R=0.057)  charge=  1.8257  magn=  0.0035
     atom  88 (R=0.057)  charge=  1.8218  magn=  0.0000
     atom  89 (R=0.057)  charge=  1.8257  magn=  0.0035
     atom  90 (R=0.057)  charge=  1.8221  magn=  0.0005
     atom  91 (R=0.057)  charge=  1.8262  magn=  0.0012
     atom  92 (R=0.057)  charge=  1.8252  magn= -0.0006
     atom  93 (R=0.057)  charge=  1.8259  magn=  0.0018
     atom  94 (R=0.057)  charge=  1.8252  magn= -0.0006
     atom  95 (R=0.057)  charge=  1.8222  magn= -0.0007
     atom  96 (R=0.057)  charge=  1.8259  magn=  0.0018
     atom  97 (R=0.057)  charge=  1.8222  magn= -0.0007
     atom  98 (R=0.057)  charge=  1.8256  magn=  0.0035
     atom  99 (R=0.057)  charge=  1.8223  magn=  0.0001
     atom 100 (R=0.057)  charge=  1.8262  magn=  0.0012
     atom 101 (R=0.057)  charge=  1.8211  magn=  0.0001
     atom 102 (R=0.057)  charge=  1.8262  magn=  0.0012
     atom 103 (R=0.057)  charge=  1.8253  magn= -0.0006
     atom 104 (R=0.057)  charge=  1.8258  magn=  0.0018
     atom 105 (R=0.057)  charge=  1.8211  magn=  0.0001
     atom 106 (R=0.057)  charge=  1.8258  magn=  0.0018
     atom 107 (R=0.057)  charge=  1.8218  magn=  0.0000
     atom 108 (R=0.057)  charge=  1.8203  magn=  0.0002
     atom 109 (R=0.057)  charge=  1.8168  magn=  0.0001
     atom 110 (R=0.057)  charge=  1.8201  magn=  0.0014
     atom 111 (R=0.057)  charge=  1.8168  magn=  0.0001
     atom 112 (R=0.057)  charge=  1.8185  magn=  0.0048
     atom 113 (R=0.057)  charge=  1.8194  magn=  0.0153
     atom 114 (R=0.057)  charge=  1.8201  magn=  0.0014
     atom 115 (R=0.057)  charge=  1.8194  magn=  0.0153
     atom 116 (R=0.057)  charge=  1.8190  magn=  0.0008
     atom 117 (R=0.057)  charge=  1.8219  magn=  0.0010
     atom 118 (R=0.057)  charge=  1.8200  magn=  0.0010
     atom 119 (R=0.057)  charge=  1.8169  magn=  0.0001
     atom 120 (R=0.057)  charge=  1.8200  magn=  0.0010
     atom 121 (R=0.057)  charge=  1.8186  magn=  0.0048
     atom 122 (R=0.057)  charge=  1.8169  magn=  0.0001
     atom 123 (R=0.057)  charge=  1.8186  magn=  0.0048
     atom 124 (R=0.057)  charge=  1.8194  magn=  0.0153
     atom 125 (R=0.057)  charge=  1.8202  magn=  0.0008
     atom 126 (R=0.057)  charge=  1.8219  magn=  0.0010
     atom 127 (R=0.057)  charge=  1.8204  magn=  0.0002
     atom 128 (R=0.057)  charge=  1.8219  magn=  0.0010
     atom 129 (R=0.057)  charge=  1.8200  magn=  0.0010
     atom 130 (R=0.057)  charge=  1.8169  magn=  0.0001
     atom 131 (R=0.057)  charge=  1.8204  magn=  0.0002
     atom 132 (R=0.057)  charge=  1.8169  magn=  0.0001
     atom 133 (R=0.057)  charge=  1.8201  magn=  0.0014
     atom 134 (R=0.057)  charge=  1.8192  magn=  0.0001
     atom 135 (R=0.057)  charge=  1.8120  magn=  0.0039
     atom 136 (R=0.057)  charge=  1.8169  magn=  0.0150
     atom 137 (R=0.057)  charge=  1.8195  magn=  0.0012
     atom 138 (R=0.057)  charge=  1.8346  magn=  0.1900
     atom 139 (R=0.057)  charge=  1.8191  magn=  0.0046
     atom 140 (R=0.057)  charge=  1.8210  magn=  0.0013
     atom 141 (R=0.057)  charge=  1.8199  magn=  0.0009
     atom 142 (R=0.057)  charge=  1.8188  magn=  0.0002
     atom 143 (R=0.057)  charge=  1.8220  magn=  0.0012
     atom 144 (R=0.057)  charge=  1.8253  magn=  0.0079
     atom 145 (R=0.057)  charge=  1.8197  magn=  0.0001
     atom 146 (R=0.057)  charge=  1.8192  magn=  0.0001
     atom 147 (R=0.057)  charge=  1.8122  magn=  0.0039
     atom 148 (R=0.057)  charge=  1.8168  magn=  0.0150
     atom 149 (R=0.057)  charge=  1.8204  magn=  0.0003
     atom 150 (R=0.057)  charge=  1.8192  magn=  0.0001
     atom 151 (R=0.057)  charge=  1.8203  magn=  0.0012
     atom 152 (R=0.057)  charge=  1.8204  magn=  0.0003
     atom 153 (R=0.057)  charge=  1.8192  magn=  0.0001
     atom 154 (R=0.057)  charge=  1.8203  magn=  0.0012
     atom 155 (R=0.057)  charge=  1.8210  magn=  0.0013
     atom 156 (R=0.057)  charge=  1.8199  magn=  0.0009
     atom 157 (R=0.057)  charge=  1.8188  magn=  0.0002
     atom 158 (R=0.057)  charge=  1.8200  magn=  0.0006
     atom 159 (R=0.057)  charge=  1.8207  magn=  0.0017
     atom 160 (R=0.057)  charge=  1.8200  magn=  0.0004
     atom 161 (R=0.057)  charge=  1.8192  magn=  0.0001
     atom 162 (R=0.057)  charge=  1.8195  magn=  0.0012
     atom 163 (R=0.057)  charge=  1.8210  magn=  0.0013
     atom 164 (R=0.057)  charge=  1.8120  magn=  0.0039
     atom 165 (R=0.057)  charge=  1.8346  magn=  0.1900
     atom 166 (R=0.057)  charge=  1.8199  magn=  0.0009
     atom 167 (R=0.057)  charge=  1.8169  magn=  0.0150
     atom 168 (R=0.057)  charge=  1.8191  magn=  0.0046
     atom 169 (R=0.057)  charge=  1.8188  magn=  0.0002
     atom 170 (R=0.057)  charge=  1.8220  magn=  0.0012
     atom 171 (R=0.057)  charge=  1.8192  magn=  0.0001
     atom 172 (R=0.057)  charge=  1.8204  magn=  0.0003
     atom 173 (R=0.057)  charge=  1.8253  magn=  0.0079
     atom 174 (R=0.057)  charge=  1.8122  magn=  0.0039
     atom 175 (R=0.057)  charge=  1.8192  magn=  0.0001
     atom 176 (R=0.057)  charge=  1.8197  magn=  0.0001
     atom 177 (R=0.057)  charge=  1.8168  magn=  0.0150
     atom 178 (R=0.057)  charge=  1.8203  magn=  0.0012
     atom 179 (R=0.057)  charge=  1.8204  magn=  0.0003
     atom 180 (R=0.057)  charge=  1.8210  magn=  0.0013
     atom 181 (R=0.057)  charge=  1.8200  magn=  0.0006
     atom 182 (R=0.057)  charge=  1.8192  magn=  0.0001
     atom 183 (R=0.057)  charge=  1.8199  magn=  0.0009
     atom 184 (R=0.057)  charge=  1.8207  magn=  0.0017
     atom 185 (R=0.057)  charge=  1.8203  magn=  0.0012
     atom 186 (R=0.057)  charge=  1.8188  magn=  0.0002
     atom 187 (R=0.057)  charge=  1.8200  magn=  0.0004
     atom 188 (R=0.057)  charge=  1.8194  magn=  0.0001
     atom 189 (R=0.057)  charge=  1.8170  magn=  0.0150
     atom 190 (R=0.057)  charge=  1.8203  magn=  0.0012
     atom 191 (R=0.057)  charge=  1.8170  magn=  0.0150
     atom 192 (R=0.057)  charge=  1.8191  magn=  0.0046
     atom 193 (R=0.057)  charge=  1.8188  magn=  0.0002
     atom 194 (R=0.057)  charge=  1.8203  magn=  0.0012
     atom 195 (R=0.057)  charge=  1.8188  magn=  0.0002
     atom 196 (R=0.057)  charge=  1.8200  magn=  0.0004
     atom 197 (R=0.057)  charge=  1.8253  magn=  0.0079
     atom 198 (R=0.057)  charge=  1.8122  magn=  0.0039
     atom 199 (R=0.057)  charge=  1.8192  magn=  0.0001
     atom 200 (R=0.057)  charge=  1.8122  magn=  0.0039
     atom 201 (R=0.057)  charge=  1.8348  magn=  0.1900
     atom 202 (R=0.057)  charge=  1.8199  magn=  0.0009
     atom 203 (R=0.057)  charge=  1.8192  magn=  0.0001
     atom 204 (R=0.057)  charge=  1.8199  magn=  0.0009
     atom 205 (R=0.057)  charge=  1.8207  magn=  0.0017
     atom 206 (R=0.057)  charge=  1.8219  magn=  0.0012
     atom 207 (R=0.057)  charge=  1.8192  magn=  0.0001
     atom 208 (R=0.057)  charge=  1.8204  magn=  0.0003
     atom 209 (R=0.057)  charge=  1.8192  magn=  0.0001
     atom 210 (R=0.057)  charge=  1.8195  magn=  0.0012
     atom 211 (R=0.057)  charge=  1.8210  magn=  0.0013
     atom 212 (R=0.057)  charge=  1.8204  magn=  0.0003
     atom 213 (R=0.057)  charge=  1.8210  magn=  0.0013
     atom 214 (R=0.057)  charge=  1.8200  magn=  0.0006
     atom 215 (R=0.057)  charge=  2.8833  magn=  0.1268

     total cpu time spent up to now is      781.9 secs

     End of self-consistent calculation

 ------ SPIN UP ------------


          k = 0.0000 0.0000 0.0000 ( 42379 PWs)   bands (ev):

    -8.3231  -7.6533  -7.2884  -7.2884  -7.2323  -7.2323  -7.1654  -6.7411
    -6.2991  -6.2991  -6.2772  -6.2772  -6.2544  -6.2379  -6.2297  -6.2297
    -6.1665  -6.1665  -6.0130  -5.5673  -5.2617  -5.2617  -5.2616  -5.2237
    -5.2205  -5.2205  -5.0613  -4.5063  -4.2741  -4.2741  -4.2464  -4.2464
    -4.1948  -3.9258  -3.4185  -3.4185  -3.3822  -3.3822  -3.3747  -3.3606
    -3.3606  -3.3591  -3.3518  -3.3518  -3.3516  -3.3272  -3.3256  -3.3256
    -3.2969  -3.2969  -3.2770  -3.2748  -3.2746  -3.2746  -3.1901  -3.1901
    -3.0334  -2.8582  -2.6459  -2.6459  -2.5905  -2.5799  -2.5799  -2.5704
    -2.5667  -2.5667  -2.5647  -2.5415  -2.5415  -2.5254  -2.5254  -2.5196
    -2.5005  -2.5005  -2.4605  -2.4518  -2.4518  -2.4134  -2.2842  -2.2842
    -1.6476  -1.0878  -0.9246  -0.9246  -0.8671  -0.8671  -0.8599  -0.8542
    -0.8542  -0.8420  -0.7901  -0.7900  -0.4459   0.3311   0.3847   0.3847
     0.4159   0.4159   0.4542   0.6486   0.7922   0.7922   0.8900   0.8921
     0.8921   0.8985   0.8985   0.9037   0.9095   0.9095   0.9181   0.9491
     0.9491   0.9676   0.9967   1.0178   1.0179   1.0305   1.0305   1.0489
     1.0735   1.0735   1.0791   1.1069   1.1069   1.1091   1.1276   1.1370
     1.1370   1.1385   1.1504   1.1508   1.1509   1.1742   1.1742   1.1982
     1.1982   1.2112   1.2113   1.2118   1.2171   1.2171   1.2373   1.4265
     1.5703   1.5703   1.9407   2.1829   2.1829   2.1864   2.2424   2.2424
     2.2450   2.2585   2.2770   2.2770   2.4258   2.4258   3.3528   3.6645
     3.6645   3.7194   3.7833   3.7930   3.7951   3.7951   3.7996   3.7996
     3.8102   3.8143   3.8285   3.8323   3.8324   3.8568   3.8568   3.9621
     3.9621   3.9645   4.0053   4.3191   4.3191   4.3651   4.4445   4.4506
     4.4506   4.4554   4.4578   4.4578   4.4661   4.4661   4.4772   4.4820
     4.4899   4.4899   4.4913   4.4913   4.5064   4.5324   4.5324   4.5373
     4.7457   4.7457   5.1893   5.1893   5.2470   5.3106   5.3107   5.3123
     5.3157   5.3157   5.3162   5.3313   5.3363   5.3363   5.3604   5.3604
     5.4129   5.4129   5.4219   5.4341   5.4444   5.4712   5.4712   5.5036
     5.5409   5.5409   5.6102   5.7185   5.7186   5.8198   5.8323   5.8323
     5.8535   5.8610   5.8610   5.8660   5.8710   5.8716   5.8716   5.8806
     5.8806   5.8936   5.8988   5.9163   5.9163   5.9252   5.9449   5.9449
     5.9510   5.9769   5.9769   6.0184   6.0184   6.2811   6.3503   6.3503
     6.8285   6.8285   6.9080   6.9082   6.9445   6.9445   7.0466   7.3416
     7.3416   7.4422   7.4517   7.4517   7.4749   7.4783   7.4783   7.5005
     7.5588   7.5588   7.6840   7.6840   7.8133   7.8601   7.8633   7.8633
     7.8641   7.8793   7.8794   7.9070   7.9292   7.9292   7.9416   8.0484
     8.0485   8.0837   8.1055   8.1129   8.1129   8.1300   8.1345   8.1345
     8.1347   8.1347   8.1440   8.1500   8.1500   8.1565   8.1832   8.1832
     8.1955   8.2030   8.2031   8.2057   8.2057   8.2211   8.2650   8.2650
     8.2926   8.3185   8.3195   8.3195   8.3230   8.3276   8.3336   8.3336
     8.3388   8.3388   8.3521   8.3526   8.3542   8.3542   8.3612   8.3612
     8.3649   8.3664   8.3664   8.3727   8.3826   8.3826   8.3910   8.3960
     8.3961   8.3996   8.4077   8.4077   8.4326   8.4326   8.4354   8.4537
     8.4538   8.4938   8.4952   8.4952   8.5252   8.5496   8.5517   8.5517
     8.5633   8.6734   8.6734   8.9028   8.9229   8.9229   9.0801   9.0801
     9.1540   9.1555   9.1555   9.1615   9.1933   9.1933   9.1997   9.2018
     9.2248   9.2248   9.2294   9.2375   9.2376   9.2475   9.2476   9.2674
     9.3152   9.3152   9.3979   9.9046  10.1524  10.1525  10.4547  10.5039
    10.5039  10.5701  10.5701  10.5791  10.6019  10.6087  10.6119  10.6120
    10.6690  10.6690  10.6900  10.7617  10.7618  10.8250  10.8326  10.8326
    10.8395  10.8395  10.8468  10.8468  10.8586  10.8801  10.8801  10.9057
    10.9144  10.9144  10.9174  10.9360  10.9360  11.4173  11.5252  11.5253
    11.6960  11.7366  11.7366  11.7524  11.7812  11.7812  11.7861  11.8276
    11.8610  11.8610  12.9207  13.0189  13.0191  13.6892  15.3108  15.3109
    17.2965  17.2966  17.3028  17.3531  17.3531  17.3729  17.8487  17.9382
    17.9382  17.9559  17.9559  18.0160  18.0806  18.0806  18.1319  18.1871
    18.1871  18.2033  18.8058  18.8059  18.8355  19.3445  19.4684  19.4685
    19.4870  19.5160  19.5160  19.5334  19.5334  19.5391  19.5484  19.5485
    19.5870  19.9564  20.1706  20.1706  20.2118  20.2185  20.2186  20.2224
    20.2263  20.2263  20.2358  20.2358  20.2501  20.2502  20.2539  20.2619
    20.2856  20.2865  20.2865  20.3289  20.3289  20.3526  20.3681  20.3682
    20.3711  20.6042  20.6337  20.6337  20.7002  20.7087  20.7168  20.7169
    20.7280  20.7281  20.7379  20.7492  20.7492  20.7617  20.7799  20.7800
    20.8101  20.8101  20.8112  20.8288  20.8291  20.8291  20.8364  20.8593
    20.8593  20.8629  20.8710  20.8710  20.8789  20.8790  20.8840  20.8840
    20.8966  20.9126  20.9126  20.9492  20.9523  21.0091  21.0150  21.0151
    21.0735  21.0735  21.0844  21.1845  21.2782  21.2782  21.3072  21.3283
    21.3284  21.3410  21.3431  21.3432  21.3518  21.3518  21.3524  21.3674
    21.3674  21.3941  21.3958  21.4000  21.4001  21.4065  21.4065  21.4174
    21.4215  21.4215  21.4288  21.4352  21.4353  21.4510  21.4511  21.4611
    21.4672  21.4673  21.4933  21.5063  21.5063  21.5205  21.5952  21.6119
    21.6119  21.6305  21.6532  21.6533  21.6588  21.6835  21.6858  21.6858
    21.7020  21.7021  21.7251  21.7514  21.7514  21.7735  21.8042  21.8259
    21.8259  21.9483  21.9483  21.9693  21.9830  21.9831  22.1119  22.1119
    22.1304  22.1756  22.1756  22.1909  22.2014  22.2027  22.2028  22.3278
    22.3451  22.3452  22.3933  22.4549  22.4550  22.4845  22.4875  22.4875
    22.6509  22.6856  22.6856  22.7991  22.9512  22.9512  22.9774  23.1001
    23.1001  23.1094  23.1211  23.1211  23.1264  23.1264  23.1432  23.1432
    23.1436  23.1489  23.1760  23.1780  23.2044  23.2044  23.2067  23.2609
    23.3000  23.3000  23.3533  23.3533  23.4182  23.4524  23.4524  23.7743
    23.7744  23.7785  23.7869  23.7996  23.8077  23.8078  23.8099  23.8294
    23.8294  23.8447  23.8447  23.8594  23.8594  23.8664  23.8937  23.8985
    23.9690  23.9749  23.9750  24.0988  24.0989  24.1790  24.1790  24.2209
    24.2273  24.2273  24.2446  24.2755  24.2757  24.2758  24.2828  24.2828
    24.2984  24.3307  24.3307  24.3471  24.3786  24.3787  24.3985  24.3986
    24.4014  24.4032  24.4032  24.4149  24.4619  24.4777  24.4777  24.4790
    24.4831  24.4862  24.4863  24.5067  24.5142  24.5143  24.5311  24.5311
    24.5366  24.5610  24.5610  24.5868  24.6445  24.6445  24.6630  24.7940
    24.7940  24.8823  24.8824  25.4725  25.5002  25.5003  25.5962  25.7449
    25.7915  25.7915  25.8040  25.8040  25.9940  25.9941  25.9974  26.0110
    26.0476  26.0477  26.0893  26.1185  26.1421  26.1421  26.1959  26.2786
    26.2787  26.4327  26.5602  26.5602  26.5712  26.6300  26.6419  26.6419
    26.6424  26.6762  26.6762  26.6855  26.6855  26.6972  26.7490  26.7496
    26.7496  26.7697  26.7849  26.7849  26.8290  26.8332  26.8332  26.9393
    26.9393  27.0335  27.0335  27.0745  27.0864  27.1000  27.1000  27.1077
    27.1214  27.1229  27.1229  27.1280  27.1280  27.1526  27.1526  27.1764
    27.1852  27.2116  27.2116  27.2438  27.2438  27.2548  27.2628  27.2628
    27.2752  27.2812  27.2935  27.2935  27.3003  27.3102  27.3102  27.3109
    27.3124  27.3124  27.3339  27.3451  27.3451  27.3509  27.3634  27.3635
    27.3645  27.3769  27.3829  27.3829  27.3977  27.3978  27.4108  27.4191
    27.4354  27.4354  27.4590  27.4784  27.4785  27.5050  27.5050  27.5127
    27.5128  27.5343  27.5477  27.5522  27.5522  27.5557  27.5771  27.5869
    27.5869  27.5967  27.5967  27.6086  27.6146  27.6173  27.6173  27.6514
    27.6515  27.7143  27.7143  27.7146  27.7451  27.8344  27.8344  27.8805
    27.9088  27.9241  27.9241  27.9746  28.0474  28.0475  28.0888  28.0888
    28.1230  28.1514  28.1514  28.2954  28.2955  28.2980  28.3247  28.3611
    28.3710  28.3710  28.5490  28.6090  28.6090  28.6552  29.7043  29.7956
    29.7957  29.8629  29.9352  29.9353  29.9917  30.0615

 ------ SPIN DOWN ----------


          k = 0.0000 0.0000 0.0000 ( 42379 PWs)   bands (ev):

    -8.3108  -7.6076  -7.2856  -7.2856  -7.2267  -7.2267  -7.1531  -6.7129
    -6.2959  -6.2959  -6.2751  -6.2751  -6.2509  -6.2334  -6.2244  -6.2244
    -6.1532  -6.1532  -5.9915  -5.5490  -5.2570  -5.2551  -5.2551  -5.2166
    -5.2082  -5.2082  -5.0392  -4.4806  -4.2683  -4.2683  -4.2387  -4.2387
    -4.1872  -3.9004  -3.4110  -3.4110  -3.3795  -3.3795  -3.3739  -3.3567
    -3.3567  -3.3565  -3.3492  -3.3492  -3.3491  -3.3255  -3.3218  -3.3218
    -3.2878  -3.2878  -3.2700  -3.2680  -3.2654  -3.2654  -3.1700  -3.1700
    -3.0213  -2.8489  -2.6411  -2.6411  -2.5867  -2.5756  -2.5756  -2.5630
    -2.5629  -2.5625  -2.5625  -2.5370  -2.5369  -2.5192  -2.5192  -2.5110
    -2.4959  -2.4959  -2.4505  -2.4407  -2.4407  -2.4022  -2.2314  -2.2314
    -1.5939  -1.0737  -0.9192  -0.9192  -0.8580  -0.8580  -0.8547  -0.8474
    -0.8474  -0.8370  -0.7640  -0.7640  -0.3935   0.3475   0.3898   0.3898
     0.4222   0.4222   0.4602   0.6740   0.8012   0.8012   0.8904   0.8943
     0.8943   0.9008   0.9009   0.9070   0.9152   0.9152   0.9200   0.9519
     0.9519   0.9747   1.0057   1.0266   1.0266   1.0405   1.0405   1.0544
     1.0835   1.0854   1.0854   1.1120   1.1120   1.1175   1.1314   1.1406
     1.1419   1.1419   1.1572   1.1573   1.1597   1.1780   1.1781   1.2042
     1.2042   1.2168   1.2168   1.2178   1.2360   1.2360   1.2683   1.4468
     1.6108   1.6108   1.9607   2.1909   2.1909   2.2063   2.2465   2.2465
     2.2489   2.2665   2.2831   2.2832   2.4765   2.4765   3.4204   3.6774
     3.6774   3.7320   3.7904   3.8001   3.8001   3.8001   3.8016   3.8016
     3.8130   3.8204   3.8360   3.8367   3.8367   3.8649   3.8649   3.9759
     3.9759   3.9780   4.0234   4.3302   4.3302   4.3893   4.4464   4.4532
     4.4532   4.4574   4.4626   4.4626   4.4723   4.4723   4.4846   4.4948
     4.4948   4.4958   4.4995   4.4995   4.5173   4.5423   4.5423   4.5453
     4.7943   4.7944   5.2024   5.2024   5.2636   5.3124   5.3124   5.3171
     5.3180   5.3190   5.3190   5.3331   5.3402   5.3402   5.3642   5.3642
     5.4191   5.4191   5.4281   5.4438   5.4517   5.4830   5.4830   5.5156
     5.5497   5.5497   5.6428   5.7274   5.7274   5.8329   5.8355   5.8355
     5.8577   5.8647   5.8647   5.8706   5.8772   5.8772   5.8807   5.8870
     5.8871   5.9002   5.9117   5.9283   5.9283   5.9285   5.9544   5.9544
     5.9693   5.9886   5.9886   6.0331   6.0331   6.3167   6.3865   6.3865
     6.8384   6.8384   6.9153   6.9261   6.9592   6.9592   7.1163   7.3579
     7.3579   7.4544   7.4549   7.4550   7.4786   7.4845   7.4845   7.5186
     7.5718   7.5718   7.6940   7.6940   7.8370   7.8645   7.8686   7.8686
     7.8847   7.8887   7.8887   7.9142   7.9383   7.9383   7.9564   8.0593
     8.0593   8.0880   8.1086   8.1163   8.1164   8.1331   8.1371   8.1371
     8.1385   8.1385   8.1463   8.1525   8.1525   8.1621   8.1888   8.1888
     8.1998   8.2081   8.2081   8.2174   8.2174   8.2284   8.2708   8.2709
     8.3005   8.3223   8.3223   8.3247   8.3297   8.3337   8.3361   8.3361
     8.3418   8.3418   8.3549   8.3576   8.3576   8.3579   8.3676   8.3676
     8.3691   8.3700   8.3700   8.3774   8.3883   8.3883   8.4028   8.4039
     8.4039   8.4122   8.4210   8.4210   8.4392   8.4392   8.4433   8.4590
     8.4590   8.5076   8.5076   8.5223   8.5373   8.5536   8.5716   8.5716
     8.5783   8.7061   8.7061   8.9229   8.9382   8.9383   9.0869   9.0869
     9.1566   9.1588   9.1589   9.1635   9.1984   9.1984   9.2038   9.2149
     9.2314   9.2315   9.2367   9.2512   9.2513   9.2649   9.2650   9.2727
     9.3465   9.3465   9.4283   9.9897  10.2056  10.2057  10.5180  10.5180
    10.5733  10.5734  10.5833  10.5839  10.6043  10.6233  10.6233  10.6392
    10.6739  10.6739  10.6992  10.7662  10.7663  10.8343  10.8386  10.8386
    10.8454  10.8454  10.8587  10.8587  10.8632  10.8910  10.8910  10.9201
    10.9290  10.9291  10.9343  10.9446  10.9446  11.4933  11.5490  11.5491
    11.7449  11.7450  11.7546  11.7883  11.7883  11.7895  11.8388  11.8785
    11.8785  12.0016  13.0475  13.0476  13.0493  14.4040  16.2616  16.2616
    17.3006  17.3006  17.3180  17.3637  17.3637  17.3824  17.8602  17.9454
    17.9454  17.9616  17.9616  18.0250  18.0860  18.0860  18.1592  18.2031
    18.2031  18.2142  18.8233  18.8235  18.8478  19.3638  19.4717  19.4717
    19.4895  19.5243  19.5244  19.5385  19.5385  19.5449  19.5529  19.5530
    19.5943  19.9735  20.1745  20.1745  20.2145  20.2219  20.2220  20.2255
    20.2302  20.2302  20.2419  20.2419  20.2565  20.2566  20.2588  20.2667
    20.2912  20.2945  20.2946  20.3347  20.3348  20.3620  20.3762  20.3762
    20.3791  20.6173  20.6438  20.6438  20.7021  20.7101  20.7198  20.7198
    20.7313  20.7313  20.7402  20.7516  20.7516  20.7652  20.7842  20.7842
    20.8143  20.8143  20.8146  20.8329  20.8329  20.8400  20.8406  20.8668
    20.8687  20.8688  20.8803  20.8803  20.8898  20.8899  20.8925  20.8925
    20.9018  20.9185  20.9186  20.9558  20.9609  21.0202  21.0213  21.0213
    21.0811  21.0811  21.0918  21.1936  21.2855  21.2855  21.3103  21.3324
    21.3325  21.3446  21.3464  21.3465  21.3562  21.3573  21.3573  21.3724
    21.3724  21.3971  21.4052  21.4053  21.4073  21.4109  21.4109  21.4225
    21.4302  21.4303  21.4361  21.4406  21.4407  21.4675  21.4676  21.4775
    21.4777  21.4777  21.5052  21.5262  21.5263  21.5433  21.6009  21.6222
    21.6223  21.6341  21.6578  21.6578  21.6618  21.6931  21.6931  21.6973
    21.7100  21.7100  21.7374  21.7570  21.7571  21.7786  21.8254  21.8430
    21.8430  21.9704  21.9704  21.9766  21.9999  21.9999  22.1156  22.1157
    22.1323  22.1902  22.1902  22.1985  22.2095  22.2104  22.2104  22.3406
    22.3554  22.3554  22.4139  22.4638  22.4639  22.4917  22.4917  22.4917
    22.6739  22.7201  22.7201  22.8637  22.9689  22.9690  22.9958  23.1063
    23.1064  23.1113  23.1242  23.1242  23.1304  23.1305  23.1464  23.1464
    23.1491  23.1529  23.1806  23.1953  23.2166  23.2166  23.2318  23.2955
    23.3367  23.3368  23.3736  23.3737  23.4426  23.4804  23.4804  23.7823
    23.7833  23.7833  23.7902  23.8125  23.8126  23.8129  23.8350  23.8350
    23.8420  23.8540  23.8541  23.8663  23.8664  23.8729  23.9043  23.9109
    23.9776  23.9937  23.9937  24.1115  24.1115  24.1932  24.1932  24.2286
    24.2326  24.2326  24.2475  24.2797  24.2797  24.2818  24.2877  24.2878
    24.3054  24.3376  24.3376  24.3521  24.3886  24.3886  24.4064  24.4064
    24.4080  24.4179  24.4179  24.4250  24.4654  24.4813  24.4923  24.4923
    24.5048  24.5061  24.5061  24.5152  24.5209  24.5209  24.5409  24.5413
    24.5413  24.5669  24.5669  24.6105  24.6797  24.6797  24.6851  24.8942
    24.8942  24.9399  24.9400  25.5303  25.5444  25.5444  25.6239  25.7574
    25.8032  25.8033  25.8152  25.8152  25.9998  26.0046  26.0047  26.0158
    26.0574  26.0574  26.1170  26.1277  26.1577  26.1577  26.2198  26.3059
    26.3060  26.4483  26.5701  26.5701  26.5910  26.6360  26.6478  26.6478
    26.6483  26.6822  26.6822  26.6931  26.6931  26.7107  26.7578  26.7578
    26.7626  26.7745  26.7908  26.7908  26.8371  26.8456  26.8457  26.9606
    26.9606  27.0453  27.0454  27.0840  27.0890  27.1042  27.1042  27.1121
    27.1258  27.1267  27.1267  27.1314  27.1314  27.1586  27.1586  27.1882
    27.1891  27.2165  27.2165  27.2496  27.2496  27.2589  27.2675  27.2675
    27.2834  27.2850  27.3019  27.3019  27.3074  27.3153  27.3153  27.3204
    27.3204  27.3230  27.3362  27.3560  27.3560  27.3573  27.3696  27.3708
    27.3708  27.3870  27.3882  27.3882  27.4048  27.4048  27.4269  27.4362
    27.4459  27.4459  27.4652  27.4882  27.4882  27.5153  27.5153  27.5242
    27.5242  27.5419  27.5520  27.5566  27.5566  27.5632  27.5824  27.5954
    27.5954  27.6051  27.6051  27.6119  27.6239  27.6239  27.6266  27.6811
    27.6812  27.7390  27.7390  27.7695  27.7801  27.8765  27.8765  27.8951
    27.9188  27.9419  27.9419  28.0020  28.0639  28.0639  28.1190  28.1190
    28.1353  28.1792  28.1792  28.3138  28.3372  28.3376  28.3376  28.4148
    28.4246  28.4246  28.6098  28.6934  28.6934  28.7514  29.7397  29.8109
    29.8110  29.9255  29.9576  29.9576  30.0088  30.0691

     highest occupied, lowest unoccupied level (ev):    15.31085459   14.40404598

!    total energy              =   -3971.21571612 Ry
     total all-electron energy =    -16414.031319 Ry
     estimated scf accuracy    <          1.9E-09 Ry

     The total energy is the sum of the following terms:
     one-electron contribution =     886.15889952 Ry
     hartree contribution      =     217.96188609 Ry
     xc contribution           =   -1009.02570022 Ry
     ewald contribution        =   -2739.53611131 Ry
     one-center paw contrib.   =   -1326.77469020 Ry

     total magnetization       =     2.00 Bohr mag/cell
     absolute magnetization    =     2.20 Bohr mag/cell

     convergence has been achieved in  17 iterations

     Forces acting on atoms (cartesian axes, Ry/au):

     atom    1 type  1   force =     0.00020091    0.00030216   -0.00027415
     atom    2 type  1   force =    -0.00014818    0.00002352    0.00017664
     atom    3 type  1   force =     0.00036003    0.00064487   -0.00025351
     atom    4 type  1   force =    -0.00018129    0.00001526    0.00014347
     atom    5 type  1   force =    -0.00032067    0.00008613    0.00029972
     atom    6 type  1   force =     0.00030014    0.00027474    0.00109165
     atom    7 type  1   force =     0.00010463    0.00058265   -0.00050894
     atom    8 type  1   force =    -0.00111672   -0.00006909   -0.00032510
     atom    9 type  1   force =     0.00086036   -0.00006973   -0.00084345
     atom   10 type  1   force =     0.00118902    0.00048988   -0.00130767
     atom   11 type  1   force =     0.00006824   -0.00017814    0.00021243
     atom   12 type  1   force =     0.00006460   -0.00011991    0.00042431
     atom   13 type  1   force =    -0.00016241   -0.00023425   -0.00001824
     atom   14 type  1   force =     0.01029955    0.00139974   -0.01063922
     atom   15 type  1   force =     0.01003065    0.00146541   -0.00514977
     atom   16 type  1   force =    -0.00038201   -0.00022838   -0.00002235
     atom   17 type  1   force =     0.00494395    0.00023108   -0.01023674
     atom   18 type  1   force =     0.00843601   -0.00975447   -0.00606908
     atom   19 type  1   force =     0.00011185    0.00015216   -0.00014870
     atom   20 type  1   force =     0.00006297    0.00035488   -0.00034012
     atom   21 type  1   force =    -0.00007033   -0.00003965    0.00004277
     atom   22 type  1   force =     0.00024854    0.00039976   -0.00015449
     atom   23 type  1   force =    -0.00020666    0.00088851   -0.00000896
     atom   24 type  1   force =     0.00042780   -0.00112121   -0.00020576
     atom   25 type  1   force =    -0.00003413   -0.00003104    0.00007901
     atom   26 type  1   force =     0.00047630   -0.00110938   -0.00015725
     atom   27 type  1   force =     0.00111936   -0.00033759   -0.00103751
     atom   28 type  1   force =    -0.00000557   -0.00009520   -0.00001008
     atom   29 type  1   force =     0.00011721   -0.00011803    0.00119611
     atom   30 type  1   force =     0.00059589    0.00110510    0.00091868
     atom   31 type  1   force =    -0.00040523   -0.00016400    0.00007009
     atom   32 type  1   force =     0.00115353    0.01060107    0.00393010
     atom   33 type  1   force =     0.00328153    0.00433315    0.01315706
     atom   34 type  1   force =     0.00007320    0.00067952   -0.00038417
     atom   35 type  1   force =    -0.00113689   -0.00000519   -0.00023822
     atom   36 type  1   force =     0.00049466    0.00094966    0.00054610
     atom   37 type  1   force =     0.00027812    0.00033038   -0.00025459
     atom   38 type  1   force =     0.00002945    0.00024879   -0.00088369
     atom   39 type  1   force =     0.00005129   -0.00008237    0.00120527
     atom   40 type  1   force =    -0.00020799   -0.00011393    0.00014486
     atom   41 type  1   force =     0.00617017    0.01266133    0.00474606
     atom   42 type  1   force =     0.00777614    0.00761071    0.00326095
     atom   43 type  1   force =    -0.00011229   -0.00017135   -0.00011979
     atom   44 type  1   force =    -0.00016732   -0.00033216   -0.00027030
     atom   45 type  1   force =     0.00071048   -0.00083636   -0.00042333
     atom   46 type  1   force =     0.00008871    0.00021035   -0.00006228
     atom   47 type  1   force =     0.00002843    0.00043753   -0.00022356
     atom   48 type  1   force =    -0.00006066   -0.00007309    0.00000284
     atom   49 type  1   force =     0.00076011    0.00163267    0.00027005
     atom   50 type  1   force =     0.00008750   -0.00024885    0.00012070
     atom   51 type  1   force =     0.00016681   -0.00042473    0.00001972
     atom   52 type  1   force =     0.00016107    0.00039880   -0.00014116
     atom   53 type  1   force =    -0.00007260   -0.00019601   -0.00011822
     atom   54 type  1   force =     0.00039616    0.00052853   -0.00040785
     atom   55 type  1   force =     0.00003215   -0.00008593    0.00002765
     atom   56 type  1   force =    -0.00004105   -0.00007549    0.00043430
     atom   57 type  1   force =     0.00021530    0.00071402   -0.00024215
     atom   58 type  1   force =    -0.00113077   -0.00042088   -0.00005185
     atom   59 type  1   force =    -0.00628328    0.00879650   -0.00350689
     atom   60 type  1   force =     0.00020015    0.00031922    0.00109879
     atom   61 type  1   force =    -0.00113592    0.00068489   -0.00081314
     atom   62 type  1   force =    -0.01370832    0.00021075   -0.00383276
     atom   63 type  1   force =    -0.00074018    0.00065004   -0.00068875
     atom   64 type  1   force =     0.00017745    0.00030601   -0.00035524
     atom   65 type  1   force =    -0.00011984   -0.00009240    0.00023302
     atom   66 type  1   force =     0.00015369   -0.00010678    0.00014623
     atom   67 type  1   force =     0.00080059    0.00043588   -0.00011251
     atom   68 type  1   force =    -0.00741853    0.00936436   -0.00884256
     atom   69 type  1   force =     0.00033594   -0.00021014    0.00023311
     atom   70 type  1   force =    -0.00114989   -0.00037391    0.00000400
     atom   71 type  1   force =    -0.00473920    0.00457398   -0.00925454
     atom   72 type  1   force =     0.00062870   -0.00085634   -0.00050514
     atom   73 type  1   force =     0.00001345    0.00019209   -0.00013747
     atom   74 type  1   force =    -0.00062544    0.00129678   -0.00111552
     atom   75 type  1   force =     0.00004778    0.00037140   -0.00025445
     atom   76 type  1   force =     0.00011485    0.00045837   -0.00013709
     atom   77 type  1   force =    -0.00005621   -0.00028371   -0.00002302
     atom   78 type  1   force =     0.00015895   -0.00013993    0.00011331
     atom   79 type  1   force =     0.00001272   -0.00005534    0.00007625
     atom   80 type  1   force =     0.00008564   -0.00044439   -0.00006144
     atom   81 type  1   force =     0.00028295    0.00050092   -0.00052105
     atom   82 type  1   force =     0.00013535   -0.00032597   -0.00005631
     atom   83 type  1   force =    -0.00034640   -0.00003367   -0.00176278
     atom   84 type  1   force =     0.00011170    0.00021987    0.00008506
     atom   85 type  1   force =     0.00171031    0.00046533    0.00029403
     atom   86 type  1   force =    -0.00078154   -0.00036366    0.00086973
     atom   87 type  1   force =     0.00075363    0.00159755    0.00030608
     atom   88 type  1   force =    -0.00013125    0.00016105   -0.00015788
     atom   89 type  1   force =    -0.00065236    0.00125645   -0.00109985
     atom   90 type  1   force =     0.00029959    0.00076674   -0.00048552
     atom   91 type  1   force =     0.00201767    0.00230785   -0.00257762
     atom   92 type  1   force =     0.00017165    0.00031944    0.00023390
     atom   93 type  1   force =    -0.00007796   -0.00014788   -0.00178841
     atom   94 type  1   force =    -0.00029762    0.00020555   -0.00023548
     atom   95 type  1   force =     0.00039255   -0.00089765    0.00074738
     atom   96 type  1   force =     0.00177003    0.00030048    0.00005940
     atom   97 type  1   force =    -0.00050325   -0.00111497   -0.00014849
     atom   98 type  1   force =     0.00118608    0.00043637   -0.00129189
     atom   99 type  1   force =     0.00024627    0.00062811   -0.00039866
     atom  100 type  1   force =    -0.00001391    0.00322217   -0.00236547
     atom  101 type  1   force =    -0.00032767   -0.00011431   -0.00000736
     atom  102 type  1   force =     0.00153792    0.00359856   -0.00081366
     atom  103 type  1   force =     0.00031610   -0.00007812   -0.00029731
     atom  104 type  1   force =    -0.00070620    0.00154508    0.00053794
     atom  105 type  1   force =     0.00002478   -0.00002865    0.00034513
     atom  106 type  1   force =    -0.00090704    0.00149663    0.00033714
     atom  107 type  1   force =     0.00018395    0.00001809   -0.00018823
     atom  108 type  1   force =     0.00008569   -0.00052178    0.00004101
     atom  109 type  1   force =    -0.00023855    0.00051918   -0.00037836
     atom  110 type  1   force =    -0.00012522   -0.00032096    0.00027100
     atom  111 type  1   force =     0.00023831    0.00063475    0.00009857
     atom  112 type  1   force =    -0.00070135    0.00096460    0.00046731
     atom  113 type  1   force =    -0.00150091   -0.00310546   -0.00099786
     atom  114 type  1   force =    -0.00019114   -0.00033699    0.00020516
     atom  115 type  1   force =     0.00165830   -0.00233889    0.00216141
     atom  116 type  1   force =    -0.00024959   -0.00062750    0.00040183
     atom  117 type  1   force =    -0.00136947    0.00053518    0.00123964
     atom  118 type  1   force =    -0.00032952   -0.00052158   -0.00084367
     atom  119 type  1   force =     0.00045750    0.00019575   -0.00044881
     atom  120 type  1   force =     0.00093303   -0.00021536    0.00041889
     atom  121 type  1   force =     0.00124315    0.00009808    0.00027229
     atom  122 type  1   force =     0.00040303    0.00018247   -0.00050339
     atom  123 type  1   force =    -0.00025210   -0.00026477   -0.00122292
     atom  124 type  1   force =    -0.00246920   -0.00048166    0.00258610
     atom  125 type  1   force =    -0.00031576   -0.00081204    0.00051283
     atom  126 type  1   force =     0.00148391   -0.00074364    0.00094040
     atom  127 type  1   force =    -0.00044436   -0.00028232    0.00008620
     atom  128 type  1   force =    -0.00069585   -0.00127268   -0.00123928
     atom  129 type  1   force =    -0.00070531    0.00052129    0.00057874
     atom  130 type  1   force =     0.00031883    0.00059987    0.00008638
     atom  131 type  1   force =    -0.00002982   -0.00018181    0.00050076
     atom  132 type  1   force =    -0.00021627    0.00047019   -0.00044869
     atom  133 type  1   force =    -0.00009711   -0.00037680    0.00018859
     atom  134 type  1   force =     0.00046746   -0.00009098    0.00021355
     atom  135 type  1   force =    -0.00054944   -0.00138264   -0.00153654
     atom  136 type  1   force =    -0.00392416   -0.00218099    0.00022217
     atom  137 type  1   force =     0.00017800    0.00042919   -0.00025439
     atom  138 type  1   force =     0.03748102   -0.02214864    0.02625917
     atom  139 type  1   force =    -0.00151811    0.00068589   -0.00089367
     atom  140 type  1   force =    -0.00052012   -0.00023048    0.00093763
     atom  141 type  1   force =     0.00017241    0.00026421   -0.00046062
     atom  142 type  1   force =    -0.00011501   -0.00017348   -0.00020835
     atom  143 type  1   force =    -0.00081845   -0.00098468    0.00050920
     atom  144 type  1   force =     0.00530501   -0.00395783    0.00431985
     atom  145 type  1   force =    -0.00029024    0.00025448   -0.00025837
     atom  146 type  1   force =     0.00047784   -0.00010354    0.00020281
     atom  147 type  1   force =    -0.00135143    0.00081580    0.00145800
     atom  148 type  1   force =    -0.00403370   -0.00186396    0.00063489
     atom  149 type  1   force =    -0.00007503   -0.00018937    0.00057077
     atom  150 type  1   force =    -0.00015926   -0.00053684   -0.00019346
     atom  151 type  1   force =    -0.00011451   -0.00050055   -0.00001988
     atom  152 type  1   force =     0.00007882   -0.00058770    0.00001092
     atom  153 type  1   force =    -0.00034015   -0.00003178    0.00049387
     atom  154 type  1   force =    -0.00023043   -0.00016919    0.00042438
     atom  155 type  1   force =    -0.00021396   -0.00104250   -0.00018829
     atom  156 type  1   force =     0.00007029    0.00055933   -0.00006404
     atom  157 type  1   force =    -0.00020840    0.00011688    0.00017743
     atom  158 type  1   force =    -0.00005512   -0.00035534    0.00024914
     atom  159 type  1   force =     0.00034468   -0.00040037    0.00038505
     atom  160 type  1   force =    -0.00015763   -0.00009214    0.00002535
     atom  161 type  1   force =    -0.00017260   -0.00024621   -0.00042655
     atom  162 type  1   force =     0.00015104    0.00042277   -0.00028137
     atom  163 type  1   force =    -0.00087122   -0.00031568    0.00058655
     atom  164 type  1   force =     0.00180275   -0.00081183    0.00081568
     atom  165 type  1   force =    -0.01921590   -0.03590553   -0.03043790
     atom  166 type  1   force =     0.00039011    0.00031686   -0.00024291
     atom  167 type  1   force =     0.00018596   -0.00118363    0.00433239
     atom  168 type  1   force =     0.00066301    0.00121514    0.00128746
     atom  169 type  1   force =     0.00024000   -0.00008738    0.00014666
     atom  170 type  1   force =    -0.00028592   -0.00085543    0.00104163
     atom  171 type  1   force =    -0.00015900   -0.00025790   -0.00043405
     atom  172 type  1   force =    -0.00051189   -0.00029543    0.00013393
     atom  173 type  1   force =    -0.00311177   -0.00600005   -0.00409691
     atom  174 type  1   force =    -0.00164734    0.00074400    0.00116223
     atom  175 type  1   force =     0.00030991   -0.00042321    0.00027571
     atom  176 type  1   force =     0.00018275    0.00036932    0.00021458
     atom  177 type  1   force =    -0.00029272   -0.00095625    0.00437586
     atom  178 type  1   force =     0.00013411   -0.00044031    0.00022869
     atom  179 type  1   force =     0.00013021   -0.00057522    0.00006235
     atom  180 type  1   force =     0.00042248   -0.00088787    0.00044811
     atom  181 type  1   force =    -0.00015979   -0.00038075    0.00014448
     atom  182 type  1   force =    -0.00048211   -0.00006630    0.00035197
     atom  183 type  1   force =    -0.00006776    0.00052583   -0.00020208
     atom  184 type  1   force =    -0.00026982   -0.00054966   -0.00022945
     atom  185 type  1   force =    -0.00037895   -0.00020513    0.00027583
     atom  186 type  1   force =    -0.00020589    0.00011750    0.00017994
     atom  187 type  1   force =    -0.00000730   -0.00005572    0.00017564
     atom  188 type  1   force =     0.00032124   -0.00001467   -0.00031768
     atom  189 type  1   force =     0.00095985   -0.00437323   -0.00027358
     atom  190 type  1   force =     0.00008755   -0.00031548    0.00039601
     atom  191 type  1   force =     0.00132395   -0.00428491    0.00009048
     atom  192 type  1   force =     0.00133210   -0.00060015   -0.00118648
     atom  193 type  1   force =     0.00024575   -0.00009041    0.00013818
     atom  194 type  1   force =    -0.00030777   -0.00041127    0.00000063
     atom  195 type  1   force =    -0.00010592   -0.00017567   -0.00021353
     atom  196 type  1   force =     0.00002807   -0.00017969    0.00001570
     atom  197 type  1   force =    -0.00567355    0.00097831    0.00543616
     atom  198 type  1   force =    -0.00093114   -0.00121460   -0.00150285
     atom  199 type  1   force =     0.00026527   -0.00031122    0.00043612
     atom  200 type  1   force =     0.00171953   -0.00057139    0.00114766
     atom  201 type  1   force =    -0.03641105    0.01108172    0.03372225
     atom  202 type  1   force =     0.00034804    0.00043306   -0.00008375
     atom  203 type  1   force =    -0.00034273   -0.00045865   -0.00017185
     atom  204 type  1   force =    -0.00001078    0.00034617   -0.00044262
     atom  205 type  1   force =    -0.00046701   -0.00004440    0.00047792
     atom  206 type  1   force =    -0.00011915   -0.00129817    0.00043416
     atom  207 type  1   force =    -0.00034846    0.00027467    0.00028848
     atom  208 type  1   force =    -0.00048872   -0.00033368    0.00006805
     atom  209 type  1   force =    -0.00035503    0.00027298    0.00028194
     atom  210 type  1   force =     0.00014961    0.00044820   -0.00025845
     atom  211 type  1   force =    -0.00066809   -0.00083766   -0.00014272
     atom  212 type  1   force =    -0.00000134   -0.00021544    0.00055533
     atom  213 type  1   force =     0.00031696   -0.00059838    0.00084234
     atom  214 type  1   force =    -0.00018924   -0.00029808    0.00026161
     atom  215 type  2   force =     0.00660057    0.01710561   -0.01075098

     Total force =     0.104041     Total SCF correction =     0.000128


     Computing stress (Cartesian axis) and pressure

          total   stress  (Ry/bohr**3)                   (kbar)     P=       27.32
   0.00018253   0.00000341  -0.00000212           26.85        0.50       -0.31
   0.00000341   0.00018996  -0.00000553            0.50       27.94       -0.81
  -0.00000212  -0.00000553   0.00018470           -0.31       -0.81       27.17


     Writing all to output data dir ./tmp/diamond_pd.save/ :
     XML data file, charge density
     init_run     :     11.05s CPU     11.71s WALL (       1 calls)
     electrons    :    756.80s CPU    770.25s WALL (       1 calls)
     forces       :      8.14s CPU      8.30s WALL (       1 calls)
     stress       :     27.42s CPU     27.72s WALL (       1 calls)

     Called by init_run:
     wfcinit      :      9.75s CPU     10.07s WALL (       1 calls)
     potinit      :      0.94s CPU      1.15s WALL (       1 calls)
     hinit0       :      0.16s CPU      0.21s WALL (       1 calls)

     Called by electrons:
     c_bands      :    691.05s CPU    702.49s WALL (      17 calls)
     sum_band     :     46.99s CPU     48.14s WALL (      17 calls)
     v_of_rho     :      0.83s CPU      0.85s WALL (      18 calls)
     newd         :      2.41s CPU      2.89s WALL (      18 calls)
     PAW_pot      :     15.99s CPU     16.28s WALL (      18 calls)
     mix_rho      :      0.49s CPU      0.50s WALL (      17 calls)

     Called by c_bands:
     init_us_2    :      5.20s CPU      5.31s WALL (      74 calls)
     cegterg      :    684.81s CPU    695.85s WALL (      34 calls)

     Called by *egterg:
     cdiaghg      :    118.48s CPU    122.49s WALL (     189 calls)
     h_psi        :    202.78s CPU    205.89s WALL (     191 calls)
     s_psi        :     75.55s CPU     76.02s WALL (     191 calls)
     g_psi        :      0.84s CPU      0.85s WALL (     155 calls)

     Called by h_psi:
     h_psi:calbec :     74.38s CPU     74.85s WALL (     191 calls)
     vloc_psi     :     50.88s CPU     51.87s WALL (     191 calls)
     add_vuspsi   :     75.83s CPU     76.70s WALL (     191 calls)

     General routines
     calbec       :    133.67s CPU    134.53s WALL (     259 calls)
     fft          :      0.32s CPU      0.36s WALL (     420 calls)
     ffts         :      0.03s CPU      0.03s WALL (      34 calls)
     fftw         :     53.12s CPU     54.12s WALL (  173474 calls)
 
     Parallel routines
 
     PWSCF        :  13m23.57s CPU  13m38.64s WALL

 
   This run was terminated on:   0:43:58  23Aug2026            

=------------------------------------------------------------------------------=
   JOB DONE.
=------------------------------------------------------------------------------=
