B108 N108                               
   1.00000000000000     
    10.7937974929999996    0.0000000000000000    0.0000000000000000
     0.0000000000000000   10.7937974929999996    0.0000000000000000
     0.0000000000000000    0.0000000000000000   10.7937974929999996
   B    N    Si
   106   108     1
Direct
  0.0000099349364708  0.0000988566142923  0.0000146856888628
  0.0000025140616594  0.0001996805850670  0.3331417550343488
  0.0000953469850961  0.0002546248236961  0.6667993854523779
 -0.0000426474915566  0.3331764533863121  0.0000658511396187
  0.0001210937405938  0.3331071758734961  0.3330261157339255
 -0.0001083024818843  0.3330667913442318  0.6668306443970091
  0.0000161546502396  0.6667369657887101  0.0000879658344345
  0.0000599450966330  0.6667941118910068  0.3330333389375695
  0.0000292097471001  0.6667289498495177  0.6667720201051955
  0.3331046223306529  0.0001891985423564 -0.0000031491214551
  0.3329081202173495  0.0007358289949731  0.3329487155591910
  0.3328508240101836  0.0005993570547867  0.6670686819594021
  0.3328807263430219  0.3331257262580575  0.0002450852196396
  0.3327654481967782  0.3328319798192490  0.3329274104732999
  0.3319076062173124  0.3325665002709001  0.6658637223525201
  0.3330171810322993  0.6667881507211134 -0.0000340259961783
  0.3301010031587212  0.6663826897052915  0.3304949204642212
  0.3302377520972449  0.6649305906129154  0.6700958163972980
  0.6668680510582058  0.0003599220463061  0.0001033673701883
  0.6670964605590137  0.0005468567123951  0.3328071654555699
  0.6670339693322931  0.0009738634940973  0.6670173915386742
  0.6667817534795297  0.3331378152401149 -0.0001176569455609
  0.6673294391994095  0.3322331835221766  0.3322819928462410
  0.6671977265613087  0.3328271450406493  0.6679594383501661
  0.6669817526637355  0.6669219481707941  0.0003320080435698
  0.6699274700581376  0.6669785153193052  0.3299503047996511
  0.6713622015839472  0.6679794422395187  0.6694417520846863
  0.1665209437078776  0.1666180322222816  0.0000486347777197
  0.1664714862240874  0.1666696554549290  0.3331472148306200
  0.1659908520617954  0.1662684181862195  0.6666111477956567
  0.1659908520617954  0.5000555192043445  0.0003982488137816
  0.1659074521876699  0.4995779873185626  0.3328347922306861
  0.1654788831083619  0.4994793723284289  0.6671872946715725
  0.1664714862240874  0.8335194511693775 -0.0000029884549278
  0.1658518996240701  0.8337217990982310  0.3329448669017665
  0.1659074521876699  0.8338318737693114  0.6670886796814386
  0.5001286896722344  0.1666110911755715  0.0000555758244297
  0.4997418029694098  0.1663156288964745  0.3326512903690650
  0.4998538813027030  0.1669209276934931  0.6667116323502714
  0.4998538813027030  0.4999550346497301 -0.0002542606934919
  0.4997480152984062  0.4964634228154839  0.3300444911109884
  0.4997418029694098  0.8340153756309326  0.0003510381035268
  0.5001849954178118  0.8362344371279459  0.3304322288720515
  0.4997480152984062  0.8366221748890091  0.6702032441845172
  0.8334373020006481  0.1666632409587664  0.0000034260412348
  0.8336221511262171  0.1665565412841036  0.3330479481726025
  0.8338644626574361  0.1664077199313865  0.6670636569732648
  0.8338644626574361  0.4996030100267364  0.0002589470686147
  0.8348362759609997  0.4998606342203459  0.3322186558660916
  0.8339756729757831  0.4996551407552883  0.6670115262447128
  0.8336221511262171  0.8336187178273952  0.0001101257158976
  0.8339877570999926  0.8338569580932720  0.3328097079067254
  0.8348362759609997  0.8344480101339060  0.6668060327796554
  0.1664959963583271  0.0001717944571396  0.1664948725428617
  0.1658819007824529  0.0007587824288684  0.4999223728353717
  0.1664621954639423  0.0001133194225078  0.8335028776249233
  0.1664621954639423  0.3331637883750742  0.1665533475774934
  0.1654069717205810  0.3323637867994498  0.4998909564914826
  0.1659404936035061  0.3329556906952255  0.8337109753047721
  0.1658819007824529  0.6667442941646295  0.1659078845711328
  0.1659442241715669  0.6667464762222911  0.4999201907777102
  0.1654069717205810  0.6667757105085185  0.8343028792005477
  0.4999774379662220  0.0007747301203891  0.1658919368796122
  0.4999533152819222  0.0006560017333603  0.4999903282280567
  0.4999176449723955  0.0009681598056423  0.8341898401383816
  0.4999176449723955  0.3324768258616160  0.1656985071943590
  0.4989794558029279  0.3326131378232565  0.4993554362667493
  0.5007176556567990  0.3333225449118273  0.8333441210881702
  0.4999533152819222  0.6666763387719445  0.1660106652666408
  0.4989794558029279  0.6673112307332519  0.8340535281767409
  0.8335341867399937  0.0001873091697757  0.1664793578302255
  0.8342220982989013  0.0008480369902265  0.4998651788663249
  0.8336049421680698  0.0003633699280734  0.8335782754190629
  0.8336049421680698  0.3330883905809345  0.1663032970719278
  0.8347703591105523  0.3323079278194310  0.4996449574089495
  0.8335476547951827  0.3331038269675035  0.8335628390324943
  0.8342220982989013  0.6668014881336761  0.1658186300097747
  0.8342962310647241  0.6669105552022103  0.4997561117977906
  0.8347703591105523  0.6670217095910519  0.8343587381805665
  0.0000099349364708  0.1666519813111385  0.1665678103857090
  0.0000161546502396  0.1665787011655667  0.4999297012112910
 -0.0000426474915566  0.1666008158603824  0.8334902126136857
  0.0000953469850961  0.4998672815476232  0.1664120421763051
  0.0000292097471001  0.4998946468948056  0.4999377171504836
 -0.0001083024818843  0.4998360226029921  0.8335998746557659
  0.0000025140616594  0.8335249109656490  0.1664669864149342
  0.0000599450966330  0.8336333270624280  0.4998725551089944
  0.0001210937405938  0.8336405502660722  0.8335594901265018
  0.3331046223306529  0.1666698161214564  0.1664774684576449
  0.3330171810322993  0.1667006929961795  0.4998785162788879
  0.3328807263430219  0.1664215817803616  0.8335409397419401
  0.3328508240101836  0.4995979850405993  0.1660673099452145
  0.3302377520972449  0.4965708506027031  0.5017360763870858
  0.3319076062173124  0.5008029446474811  0.8341001657290974
  0.3329081202173495  0.8337179504408068  0.1659308380050281
  0.3301010031587212  0.8361717455357762  0.5002839772947097
  0.3327654481967782  0.8337392555266978  0.8338346861807484
  0.6668680510582058  0.1665632996298130  0.1663067449536951
  0.6669817526637355  0.1663346589564313  0.4997447188292073
  0.6667817534795297  0.1667843239455621  0.8335288507598825
  0.6670339693322931  0.4996492754613269  0.1656928035059039
  0.6713622015839472  0.4972249149153151  0.4986872247604824
  0.6671977265613087  0.4987072286498350  0.8338395209593484
  0.6670964605590137  0.8338595005444279  0.1661198102876062
  0.6699274700581376  0.8367163612003466  0.4996881516806961
  0.6673294391994095  0.8343846731537564  0.8344334824778210
  0.0832689835241872  0.0833672915485842  0.0832993744514134
  0.0831056427710012  0.0835567976215106  0.4165619397769930
  0.0831472766855559  0.0832606855226173  0.7501246295124607
  0.0831472766855559  0.4165420374875403  0.0834059804773803
  0.0829316523981824  0.4164511794947154  0.4164454141329422
  0.0828011050974311  0.4163551555697239  0.7503115114302776
  0.0831056427710012  0.7501047272230082  0.0831098683784870
  0.0831017857429295  0.7501994464641331  0.4164672205358683
  0.0829316523981824  0.7502212528670589  0.7502154875052858
  0.4165476183434437  0.0836047261536065  0.0830619398463911
  0.4165763160890025  0.0833933775997474  0.4165597603575024
  0.4165617491789739  0.0836537964808446  0.7501207627090073
  0.4165617491789739  0.4165459042909938  0.0830128695191530
  0.4163908474379374  0.4162895088958388  0.4165924255439646
  0.4067908163916198  0.4083596859309109  0.7583069810690902
  0.4165763160890025  0.7501069066424989  0.0832732884002502
  0.4113778334922099  0.7555066014423900  0.4111600655576113
  0.4163908474379374  0.7500742414560365  0.7503771581041627
  0.7500950410818685  0.0834201830415078  0.0832464829584897
  0.7502393361619762  0.0834077835756761  0.4164281150160671
  0.7501265705536128  0.0836417614343265  0.7501803460197016
  0.7501265705536128  0.4164863209802996  0.0830249045656711
  0.7527521444273748  0.4150023638202930  0.4151190545322776
  0.7499781171909027  0.4167003831780128  0.7499662838219884
  0.7502393361619762  0.7502385519839344  0.0832588824243215
  0.7503704011241875  0.7502097448163797  0.4164569221836215
  0.7527521444273748  0.7515476124677237  0.7516643031797081
  0.2498143105193543  0.2499033902699861  0.0833728210468916
  0.2497174274451879  0.2498082738982458  0.4165192135007150
  0.2488038310905967  0.2489757482140724  0.7503696853640474
  0.2497978155637486  0.5833300221093706  0.0831963870429006
  0.2488705667660680  0.5831735324778912  0.4160997122032725
  0.2475356569126155  0.5832363835078689  0.7519696239839877
  0.2498377691303285  0.9168560459372950  0.0831643822737536
  0.2487883735591136  0.9178777931379883  0.4164706319373407
  0.2498336596682006  0.9168526777756209  0.7501018176052291
  0.5833627004762206  0.2497706248608408  0.0829205894630554
  0.5837286161384965  0.2490966740801602  0.4156017265768249
  0.5832357533689857  0.2503259843431889  0.7498700616317864
  0.5833536381380320  0.5833053842029896  0.0830860736218582
  0.5899394961367432  0.5768036332008668  0.4103679693332302
  0.5928096443447762  0.5930088054613124  0.7590602617739226
  0.5834328148476817  0.9170332225335253  0.0832844509972648
  0.5835040672744195  0.9170566542113568  0.4165568917464173
  0.5835269691430111  0.9181454045372816  0.7514230785071812
  0.9166665526052746  0.2499516773282002  0.0832222278121473
  0.9171235068693872  0.2495571733884606  0.4164067409190605
  0.9166265311987519  0.2499424358461237  0.7501402488091360
  0.9169581384597439  0.5833736314870468  0.0831283429200947
  0.9168593821376532  0.5833983820925726  0.4164349571608243
  0.9167651606604008  0.5833065046618068  0.7501758967971138
  0.9167046682377944  0.9168101060116872  0.0833136396471530
  0.9168016070538664  0.9168891929418398  0.4165102329980608
  0.9170704553728130  0.9172035153401782  0.7502112320566361
  0.2498377691303285  0.0835022837262439  0.2498106210627063
  0.2497978155637486  0.0834702789570969  0.5833366438906270
  0.2498143105193543  0.0832938449531059  0.9167632767300148
  0.2498336596682006  0.4165648493947724  0.2498139892243803
  0.2475356569126155  0.4146970430160135  0.5834302824921287
  0.2488038310905967  0.4162969816359539  0.9176909187859288
  0.2487883735591136  0.7501960350626604  0.2487888738620129
  0.2488705667660680  0.7505669547967289  0.5834931335221064
  0.2497174274451879  0.7501474534992865  0.9168583931017554
  0.5834328148476817  0.0833822150027327  0.2496334444664763
  0.5833536381380320  0.0835805923781394  0.5833612817970080
  0.5833627004762206  0.0837460765369422  0.9168960421391604
  0.5835269691430111  0.4152435884928198  0.2485212624627197
  0.5928096443447762  0.4076064052260787  0.5736578605386852
  0.5832357533689857  0.4167966053682150  0.9163406826568122
  0.5835040672744195  0.7501097752535839  0.2496100127886445
  0.5899394961367432  0.7562986976667708  0.5898630327991308
  0.5837286161384965  0.7510649404231762  0.9175699929198410
  0.9167046682377944  0.0833530263528446  0.2498565609883140
  0.9169581384597439  0.0835383230799028  0.5832930345129508
  0.9166665526052746  0.0834444381878503  0.9167149896718013
  0.9170704553728130  0.4164554349433652  0.2494631516598229
  0.9167651606604008  0.4164907702028873  0.5833601613381908
  0.9166265311987519  0.4165264181908653  0.9167242311538778
  0.9168016070538664  0.7501564340019405  0.2497774740581614
  0.9168593821376532  0.7502317098391766  0.5832682839074250
  0.9171235068693872  0.7502599260809406  0.9171094936115405
  0.0833235448607207  0.2499537222115411  0.2498598502500868
  0.0827246482315863  0.2495040280680611  0.5833122630599000
  0.0830775600537228  0.2498351243784065  0.9168315426215948
  0.0830526969849411  0.5833412576929898  0.2496601544353255
  0.0830866590708031  0.5832807526294674  0.5833859133705301
  0.0827246482315863  0.5833544029400975  0.9171626389319401
  0.0831433840730290  0.9168733641865308  0.2497933028134705
  0.0830526969849411  0.9170065125646755  0.5833254083070077
  0.0833235448607207  0.9168068167499145  0.9167129447884601
  0.4165096959235788  0.2498244400812864  0.2497043879304801
  0.4165588133023554  0.2502285863448123  0.5833206589048179
  0.4162395032168714  0.2495643887965186  0.9171022782034826
  0.4165935928666127  0.5831193325316809  0.2496813201997186
  0.4047731240456933  0.5779064602470797  0.5887602057529179
  0.4165588133023554  0.5833460070951797  0.9164380806551891
  0.4165209357987259  0.9178623662510057  0.2488043007489954
  0.4165935928666127  0.9169853468002828  0.5835473334683167
  0.4165096959235788  0.9169622790695211  0.9168422269187145
  0.7503169077159983  0.2496512094535956  0.2495078212549687
  0.7508889968266024  0.2492369859301613  0.5829514040437244
  0.7500061235154166  0.2500462941809061  0.9166203728190950
  0.7513659816173168  0.5832639290126712  0.2484988008363120
  0.7505908369155718  0.5833325673828830  0.5833340986171146
  0.7508889968266024  0.5837152619562732  0.9174296810698399
  0.7501061217495728  0.9168135551417954  0.2498531118582060
  0.7513659816173168  0.9181678661636894  0.5834027369873264
  0.7503169077159983  0.9171588457450325  0.9170154575464057
  0.4992917298355892  0.6627032694498914  0.5039633975501098
 
  0.00000000E+00  0.00000000E+00  0.00000000E+00
  0.00000000E+00  0.00000000E+00  0.00000000E+00
  0.00000000E+00  0.00000000E+00  0.00000000E+00
  0.00000000E+00  0.00000000E+00  0.00000000E+00
  0.00000000E+00  0.00000000E+00  0.00000000E+00
  0.00000000E+00  0.00000000E+00  0.00000000E+00
  0.00000000E+00  0.00000000E+00  0.00000000E+00
  0.00000000E+00  0.00000000E+00  0.00000000E+00
  0.00000000E+00  0.00000000E+00  0.00000000E+00
  0.00000000E+00  0.00000000E+00  0.00000000E+00
  0.00000000E+00  0.00000000E+00  0.00000000E+00
  0.00000000E+00  0.00000000E+00  0.00000000E+00
  0.00000000E+00  0.00000000E+00  0.00000000E+00
  0.00000000E+00  0.00000000E+00  0.00000000E+00
  0.00000000E+00  0.00000000E+00  0.00000000E+00
  0.00000000E+00  0.00000000E+00  0.00000000E+00
  0.00000000E+00  0.00000000E+00  0.00000000E+00
  0.00000000E+00  0.00000000E+00  0.00000000E+00
  0.00000000E+00  0.00000000E+00  0.00000000E+00
  0.00000000E+00  0.00000000E+00  0.00000000E+00
  0.00000000E+00  0.00000000E+00  0.00000000E+00
  0.00000000E+00  0.00000000E+00  0.00000000E+00
  0.00000000E+00  0.00000000E+00  0.00000000E+00
  0.00000000E+00  0.00000000E+00  0.00000000E+00
  0.00000000E+00  0.00000000E+00  0.00000000E+00
  0.00000000E+00  0.00000000E+00  0.00000000E+00
  0.00000000E+00  0.00000000E+00  0.00000000E+00
  0.00000000E+00  0.00000000E+00  0.00000000E+00
  0.00000000E+00  0.00000000E+00  0.00000000E+00
  0.00000000E+00  0.00000000E+00  0.00000000E+00
  0.00000000E+00  0.00000000E+00  0.00000000E+00
  0.00000000E+00  0.00000000E+00  0.00000000E+00
  0.00000000E+00  0.00000000E+00  0.00000000E+00
  0.00000000E+00  0.00000000E+00  0.00000000E+00
  0.00000000E+00  0.00000000E+00  0.00000000E+00
  0.00000000E+00  0.00000000E+00  0.00000000E+00
  0.00000000E+00  0.00000000E+00  0.00000000E+00
  0.00000000E+00  0.00000000E+00  0.00000000E+00
  0.00000000E+00  0.00000000E+00  0.00000000E+00
  0.00000000E+00  0.00000000E+00  0.00000000E+00
  0.00000000E+00  0.00000000E+00  0.00000000E+00
  0.00000000E+00  0.00000000E+00  0.00000000E+00
  0.00000000E+00  0.00000000E+00  0.00000000E+00
  0.00000000E+00  0.00000000E+00  0.00000000E+00
  0.00000000E+00  0.00000000E+00  0.00000000E+00
  0.00000000E+00  0.00000000E+00  0.00000000E+00
  0.00000000E+00  0.00000000E+00  0.00000000E+00
  0.00000000E+00  0.00000000E+00  0.00000000E+00
  0.00000000E+00  0.00000000E+00  0.00000000E+00
  0.00000000E+00  0.00000000E+00  0.00000000E+00
  0.00000000E+00  0.00000000E+00  0.00000000E+00
  0.00000000E+00  0.00000000E+00  0.00000000E+00
  0.00000000E+00  0.00000000E+00  0.00000000E+00
  0.00000000E+00  0.00000000E+00  0.00000000E+00
  0.00000000E+00  0.00000000E+00  0.00000000E+00
  0.00000000E+00  0.00000000E+00  0.00000000E+00
  0.00000000E+00  0.00000000E+00  0.00000000E+00
  0.00000000E+00  0.00000000E+00  0.00000000E+00
  0.00000000E+00  0.00000000E+00  0.00000000E+00
  0.00000000E+00  0.00000000E+00  0.00000000E+00
  0.00000000E+00  0.00000000E+00  0.00000000E+00
  0.00000000E+00  0.00000000E+00  0.00000000E+00
  0.00000000E+00  0.00000000E+00  0.00000000E+00
  0.00000000E+00  0.00000000E+00  0.00000000E+00
  0.00000000E+00  0.00000000E+00  0.00000000E+00
  0.00000000E+00  0.00000000E+00  0.00000000E+00
  0.00000000E+00  0.00000000E+00  0.00000000E+00
  0.00000000E+00  0.00000000E+00  0.00000000E+00
  0.00000000E+00  0.00000000E+00  0.00000000E+00
  0.00000000E+00  0.00000000E+00  0.00000000E+00
  0.00000000E+00  0.00000000E+00  0.00000000E+00
  0.00000000E+00  0.00000000E+00  0.00000000E+00
  0.00000000E+00  0.00000000E+00  0.00000000E+00
  0.00000000E+00  0.00000000E+00  0.00000000E+00
  0.00000000E+00  0.00000000E+00  0.00000000E+00
  0.00000000E+00  0.00000000E+00  0.00000000E+00
  0.00000000E+00  0.00000000E+00  0.00000000E+00
  0.00000000E+00  0.00000000E+00  0.00000000E+00
  0.00000000E+00  0.00000000E+00  0.00000000E+00
  0.00000000E+00  0.00000000E+00  0.00000000E+00
  0.00000000E+00  0.00000000E+00  0.00000000E+00
  0.00000000E+00  0.00000000E+00  0.00000000E+00
  0.00000000E+00  0.00000000E+00  0.00000000E+00
  0.00000000E+00  0.00000000E+00  0.00000000E+00
  0.00000000E+00  0.00000000E+00  0.00000000E+00
  0.00000000E+00  0.00000000E+00  0.00000000E+00
  0.00000000E+00  0.00000000E+00  0.00000000E+00
  0.00000000E+00  0.00000000E+00  0.00000000E+00
  0.00000000E+00  0.00000000E+00  0.00000000E+00
  0.00000000E+00  0.00000000E+00  0.00000000E+00
  0.00000000E+00  0.00000000E+00  0.00000000E+00
  0.00000000E+00  0.00000000E+00  0.00000000E+00
  0.00000000E+00  0.00000000E+00  0.00000000E+00
  0.00000000E+00  0.00000000E+00  0.00000000E+00
  0.00000000E+00  0.00000000E+00  0.00000000E+00
  0.00000000E+00  0.00000000E+00  0.00000000E+00
  0.00000000E+00  0.00000000E+00  0.00000000E+00
  0.00000000E+00  0.00000000E+00  0.00000000E+00
  0.00000000E+00  0.00000000E+00  0.00000000E+00
  0.00000000E+00  0.00000000E+00  0.00000000E+00
  0.00000000E+00  0.00000000E+00  0.00000000E+00
  0.00000000E+00  0.00000000E+00  0.00000000E+00
  0.00000000E+00  0.00000000E+00  0.00000000E+00
  0.00000000E+00  0.00000000E+00  0.00000000E+00
  0.00000000E+00  0.00000000E+00  0.00000000E+00
  0.00000000E+00  0.00000000E+00  0.00000000E+00
  0.00000000E+00  0.00000000E+00  0.00000000E+00
  0.00000000E+00  0.00000000E+00  0.00000000E+00
  0.00000000E+00  0.00000000E+00  0.00000000E+00
  0.00000000E+00  0.00000000E+00  0.00000000E+00
  0.00000000E+00  0.00000000E+00  0.00000000E+00
  0.00000000E+00  0.00000000E+00  0.00000000E+00
  0.00000000E+00  0.00000000E+00  0.00000000E+00
  0.00000000E+00  0.00000000E+00  0.00000000E+00
  0.00000000E+00  0.00000000E+00  0.00000000E+00
  0.00000000E+00  0.00000000E+00  0.00000000E+00
  0.00000000E+00  0.00000000E+00  0.00000000E+00
  0.00000000E+00  0.00000000E+00  0.00000000E+00
  0.00000000E+00  0.00000000E+00  0.00000000E+00
  0.00000000E+00  0.00000000E+00  0.00000000E+00
  0.00000000E+00  0.00000000E+00  0.00000000E+00
  0.00000000E+00  0.00000000E+00  0.00000000E+00
  0.00000000E+00  0.00000000E+00  0.00000000E+00
  0.00000000E+00  0.00000000E+00  0.00000000E+00
  0.00000000E+00  0.00000000E+00  0.00000000E+00
  0.00000000E+00  0.00000000E+00  0.00000000E+00
  0.00000000E+00  0.00000000E+00  0.00000000E+00
  0.00000000E+00  0.00000000E+00  0.00000000E+00
  0.00000000E+00  0.00000000E+00  0.00000000E+00
  0.00000000E+00  0.00000000E+00  0.00000000E+00
  0.00000000E+00  0.00000000E+00  0.00000000E+00
  0.00000000E+00  0.00000000E+00  0.00000000E+00
  0.00000000E+00  0.00000000E+00  0.00000000E+00
  0.00000000E+00  0.00000000E+00  0.00000000E+00
  0.00000000E+00  0.00000000E+00  0.00000000E+00
  0.00000000E+00  0.00000000E+00  0.00000000E+00
  0.00000000E+00  0.00000000E+00  0.00000000E+00
  0.00000000E+00  0.00000000E+00  0.00000000E+00
  0.00000000E+00  0.00000000E+00  0.00000000E+00
  0.00000000E+00  0.00000000E+00  0.00000000E+00
  0.00000000E+00  0.00000000E+00  0.00000000E+00
  0.00000000E+00  0.00000000E+00  0.00000000E+00
  0.00000000E+00  0.00000000E+00  0.00000000E+00
  0.00000000E+00  0.00000000E+00  0.00000000E+00
  0.00000000E+00  0.00000000E+00  0.00000000E+00
  0.00000000E+00  0.00000000E+00  0.00000000E+00
  0.00000000E+00  0.00000000E+00  0.00000000E+00
  0.00000000E+00  0.00000000E+00  0.00000000E+00
  0.00000000E+00  0.00000000E+00  0.00000000E+00
  0.00000000E+00  0.00000000E+00  0.00000000E+00
  0.00000000E+00  0.00000000E+00  0.00000000E+00
  0.00000000E+00  0.00000000E+00  0.00000000E+00
  0.00000000E+00  0.00000000E+00  0.00000000E+00
  0.00000000E+00  0.00000000E+00  0.00000000E+00
  0.00000000E+00  0.00000000E+00  0.00000000E+00
  0.00000000E+00  0.00000000E+00  0.00000000E+00
  0.00000000E+00  0.00000000E+00  0.00000000E+00
  0.00000000E+00  0.00000000E+00  0.00000000E+00
  0.00000000E+00  0.00000000E+00  0.00000000E+00
  0.00000000E+00  0.00000000E+00  0.00000000E+00
  0.00000000E+00  0.00000000E+00  0.00000000E+00
  0.00000000E+00  0.00000000E+00  0.00000000E+00
  0.00000000E+00  0.00000000E+00  0.00000000E+00
  0.00000000E+00  0.00000000E+00  0.00000000E+00
  0.00000000E+00  0.00000000E+00  0.00000000E+00
  0.00000000E+00  0.00000000E+00  0.00000000E+00
  0.00000000E+00  0.00000000E+00  0.00000000E+00
  0.00000000E+00  0.00000000E+00  0.00000000E+00
  0.00000000E+00  0.00000000E+00  0.00000000E+00
  0.00000000E+00  0.00000000E+00  0.00000000E+00
  0.00000000E+00  0.00000000E+00  0.00000000E+00
  0.00000000E+00  0.00000000E+00  0.00000000E+00
  0.00000000E+00  0.00000000E+00  0.00000000E+00
  0.00000000E+00  0.00000000E+00  0.00000000E+00
  0.00000000E+00  0.00000000E+00  0.00000000E+00
  0.00000000E+00  0.00000000E+00  0.00000000E+00
  0.00000000E+00  0.00000000E+00  0.00000000E+00
  0.00000000E+00  0.00000000E+00  0.00000000E+00
  0.00000000E+00  0.00000000E+00  0.00000000E+00
  0.00000000E+00  0.00000000E+00  0.00000000E+00
  0.00000000E+00  0.00000000E+00  0.00000000E+00
  0.00000000E+00  0.00000000E+00  0.00000000E+00
  0.00000000E+00  0.00000000E+00  0.00000000E+00
  0.00000000E+00  0.00000000E+00  0.00000000E+00
  0.00000000E+00  0.00000000E+00  0.00000000E+00
  0.00000000E+00  0.00000000E+00  0.00000000E+00
  0.00000000E+00  0.00000000E+00  0.00000000E+00
  0.00000000E+00  0.00000000E+00  0.00000000E+00
  0.00000000E+00  0.00000000E+00  0.00000000E+00
  0.00000000E+00  0.00000000E+00  0.00000000E+00
  0.00000000E+00  0.00000000E+00  0.00000000E+00
  0.00000000E+00  0.00000000E+00  0.00000000E+00
  0.00000000E+00  0.00000000E+00  0.00000000E+00
  0.00000000E+00  0.00000000E+00  0.00000000E+00
  0.00000000E+00  0.00000000E+00  0.00000000E+00
  0.00000000E+00  0.00000000E+00  0.00000000E+00
  0.00000000E+00  0.00000000E+00  0.00000000E+00
  0.00000000E+00  0.00000000E+00  0.00000000E+00
  0.00000000E+00  0.00000000E+00  0.00000000E+00
  0.00000000E+00  0.00000000E+00  0.00000000E+00
  0.00000000E+00  0.00000000E+00  0.00000000E+00
  0.00000000E+00  0.00000000E+00  0.00000000E+00
  0.00000000E+00  0.00000000E+00  0.00000000E+00
  0.00000000E+00  0.00000000E+00  0.00000000E+00
  0.00000000E+00  0.00000000E+00  0.00000000E+00
  0.00000000E+00  0.00000000E+00  0.00000000E+00
  0.00000000E+00  0.00000000E+00  0.00000000E+00
  0.00000000E+00  0.00000000E+00  0.00000000E+00
  0.00000000E+00  0.00000000E+00  0.00000000E+00
  0.00000000E+00  0.00000000E+00  0.00000000E+00
  0.00000000E+00  0.00000000E+00  0.00000000E+00
  0.00000000E+00  0.00000000E+00  0.00000000E+00
  0.00000000E+00  0.00000000E+00  0.00000000E+00
  0.00000000E+00  0.00000000E+00  0.00000000E+00
  0.00000000E+00  0.00000000E+00  0.00000000E+00
