B108 N108                               
   1.00000000000000     
    10.7937976275538290    0.0000000000000000    0.0000000000000000
     0.0000000000000000   10.7937976275538290    0.0000000000000000
     0.0000000000000000    0.0000000000000000   10.7937976275538290
   B    N 
   108   108
Direct
  0.0000000000000000  0.0000000000000000  0.0000000000000000
  0.0000000000000000  0.0000000000000000  0.3333333333333357
  0.0000000000000000  0.0000000000000000  0.6666666666666643
  0.0000000000000000  0.3333333333333357  0.0000000000000000
  0.0000000000000000  0.3333333333333357  0.3333333333333357
  0.0000000000000000  0.3333333333333357  0.6666666666666643
  0.0000000000000000  0.6666666666666643  0.0000000000000000
  0.0000000000000000  0.6666666666666643  0.3333333333333357
  0.0000000000000000  0.6666666666666643  0.6666666666666643
  0.3333333333333357  0.0000000000000000  0.0000000000000000
  0.3333333333333357  0.0000000000000000  0.3333333333333357
  0.3333333333333357  0.0000000000000000  0.6666666666666643
  0.3333333333333357  0.3333333333333357  0.0000000000000000
  0.3333333333333357  0.3333333333333357  0.3333333333333357
  0.3333333333333357  0.3333333333333357  0.6666666666666643
  0.3333333333333357  0.6666666666666643  0.0000000000000000
  0.3333333333333357  0.6666666666666643  0.3333333333333357
  0.3333333333333357  0.6666666666666643  0.6666666666666643
  0.6666666666666643  0.0000000000000000  0.0000000000000000
  0.6666666666666643  0.0000000000000000  0.3333333333333357
  0.6666666666666643  0.0000000000000000  0.6666666666666643
  0.6666666666666643  0.3333333333333357  0.0000000000000000
  0.6666666666666643  0.3333333333333357  0.3333333333333357
  0.6666666666666643  0.3333333333333357  0.6666666666666643
  0.6666666666666643  0.6666666666666643  0.0000000000000000
  0.6666666666666643  0.6666666666666643  0.3333333333333357
  0.6666666666666643  0.6666666666666643  0.6666666666666643
  0.1666666666666643  0.1666666666666643  0.0000000000000000
  0.1666666666666643  0.1666666666666643  0.3333333333333357
  0.1666666666666643  0.1666666666666643  0.6666666666666643
  0.1666666666666643  0.5000000000000000  0.0000000000000000
  0.1666666666666643  0.5000000000000000  0.3333333333333357
  0.1666666666666643  0.5000000000000000  0.6666666666666643
  0.1666666666666643  0.8333333333333357  0.0000000000000000
  0.1666666666666643  0.8333333333333357  0.3333333333333357
  0.1666666666666643  0.8333333333333357  0.6666666666666643
  0.5000000000000000  0.1666666666666643  0.0000000000000000
  0.5000000000000000  0.1666666666666643  0.3333333333333357
  0.5000000000000000  0.1666666666666643  0.6666666666666643
  0.5000000000000000  0.5000000000000000  0.0000000000000000
  0.5000000000000000  0.5000000000000000  0.3333333333333357
  0.5000000000000000  0.5000000000000000  0.6666666666666643
  0.5000000000000000  0.8333333333333357  0.0000000000000000
  0.5000000000000000  0.8333333333333357  0.3333333333333357
  0.5000000000000000  0.8333333333333357  0.6666666666666643
  0.8333333333333357  0.1666666666666643  0.0000000000000000
  0.8333333333333357  0.1666666666666643  0.3333333333333357
  0.8333333333333357  0.1666666666666643  0.6666666666666643
  0.8333333333333357  0.5000000000000000  0.0000000000000000
  0.8333333333333357  0.5000000000000000  0.3333333333333357
  0.8333333333333357  0.5000000000000000  0.6666666666666643
  0.8333333333333357  0.8333333333333357  0.0000000000000000
  0.8333333333333357  0.8333333333333357  0.3333333333333357
  0.8333333333333357  0.8333333333333357  0.6666666666666643
  0.1666666666666643  0.0000000000000000  0.1666666666666643
  0.1666666666666643  0.0000000000000000  0.5000000000000000
  0.1666666666666643  0.0000000000000000  0.8333333333333357
  0.1666666666666643  0.3333333333333357  0.1666666666666643
  0.1666666666666643  0.3333333333333357  0.5000000000000000
  0.1666666666666643  0.3333333333333357  0.8333333333333357
  0.1666666666666643  0.6666666666666643  0.1666666666666643
  0.1666666666666643  0.6666666666666643  0.5000000000000000
  0.1666666666666643  0.6666666666666643  0.8333333333333357
  0.5000000000000000  0.0000000000000000  0.1666666666666643
  0.5000000000000000  0.0000000000000000  0.5000000000000000
  0.5000000000000000  0.0000000000000000  0.8333333333333357
  0.5000000000000000  0.3333333333333357  0.1666666666666643
  0.5000000000000000  0.3333333333333357  0.5000000000000000
  0.5000000000000000  0.3333333333333357  0.8333333333333357
  0.5000000000000000  0.6666666666666643  0.1666666666666643
  0.5000000000000000  0.6666666666666643  0.5000000000000000
  0.5000000000000000  0.6666666666666643  0.8333333333333357
  0.8333333333333357  0.0000000000000000  0.1666666666666643
  0.8333333333333357  0.0000000000000000  0.5000000000000000
  0.8333333333333357  0.0000000000000000  0.8333333333333357
  0.8333333333333357  0.3333333333333357  0.1666666666666643
  0.8333333333333357  0.3333333333333357  0.5000000000000000
  0.8333333333333357  0.3333333333333357  0.8333333333333357
  0.8333333333333357  0.6666666666666643  0.1666666666666643
  0.8333333333333357  0.6666666666666643  0.5000000000000000
  0.8333333333333357  0.6666666666666643  0.8333333333333357
  0.0000000000000000  0.1666666666666643  0.1666666666666643
  0.0000000000000000  0.1666666666666643  0.5000000000000000
  0.0000000000000000  0.1666666666666643  0.8333333333333357
  0.0000000000000000  0.5000000000000000  0.1666666666666643
  0.0000000000000000  0.5000000000000000  0.5000000000000000
  0.0000000000000000  0.5000000000000000  0.8333333333333357
  0.0000000000000000  0.8333333333333357  0.1666666666666643
  0.0000000000000000  0.8333333333333357  0.5000000000000000
  0.0000000000000000  0.8333333333333357  0.8333333333333357
  0.3333333333333357  0.1666666666666643  0.1666666666666643
  0.3333333333333357  0.1666666666666643  0.5000000000000000
  0.3333333333333357  0.1666666666666643  0.8333333333333357
  0.3333333333333357  0.5000000000000000  0.1666666666666643
  0.3333333333333357  0.5000000000000000  0.5000000000000000
  0.3333333333333357  0.5000000000000000  0.8333333333333357
  0.3333333333333357  0.8333333333333357  0.1666666666666643
  0.3333333333333357  0.8333333333333357  0.5000000000000000
  0.3333333333333357  0.8333333333333357  0.8333333333333357
  0.6666666666666643  0.1666666666666643  0.1666666666666643
  0.6666666666666643  0.1666666666666643  0.5000000000000000
  0.6666666666666643  0.1666666666666643  0.8333333333333357
  0.6666666666666643  0.5000000000000000  0.1666666666666643
  0.6666666666666643  0.5000000000000000  0.5000000000000000
  0.6666666666666643  0.5000000000000000  0.8333333333333357
  0.6666666666666643  0.8333333333333357  0.1666666666666643
  0.6666666666666643  0.8333333333333357  0.5000000000000000
  0.6666666666666643  0.8333333333333357  0.8333333333333357
  0.0833333333333357  0.0833333333333357  0.0833333333333357
  0.0833333333333357  0.0833333333333357  0.4166666666666643
  0.0833333333333357  0.0833333333333357  0.7500000000000000
  0.0833333333333357  0.4166666666666643  0.0833333333333357
  0.0833333333333357  0.4166666666666643  0.4166666666666643
  0.0833333333333357  0.4166666666666643  0.7500000000000000
  0.0833333333333357  0.7500000000000000  0.0833333333333357
  0.0833333333333357  0.7500000000000000  0.4166666666666643
  0.0833333333333357  0.7500000000000000  0.7500000000000000
  0.4166666666666643  0.0833333333333357  0.0833333333333357
  0.4166666666666643  0.0833333333333357  0.4166666666666643
  0.4166666666666643  0.0833333333333357  0.7500000000000000
  0.4166666666666643  0.4166666666666643  0.0833333333333357
  0.4166666666666643  0.4166666666666643  0.4166666666666643
  0.4166666666666643  0.4166666666666643  0.7500000000000000
  0.4166666666666643  0.7500000000000000  0.0833333333333357
  0.4166666666666643  0.7500000000000000  0.4166666666666643
  0.4166666666666643  0.7500000000000000  0.7500000000000000
  0.7500000000000000  0.0833333333333357  0.0833333333333357
  0.7500000000000000  0.0833333333333357  0.4166666666666643
  0.7500000000000000  0.0833333333333357  0.7500000000000000
  0.7500000000000000  0.4166666666666643  0.0833333333333357
  0.7500000000000000  0.4166666666666643  0.4166666666666643
  0.7500000000000000  0.4166666666666643  0.7500000000000000
  0.7500000000000000  0.7500000000000000  0.0833333333333357
  0.7500000000000000  0.7500000000000000  0.4166666666666643
  0.7500000000000000  0.7500000000000000  0.7500000000000000
  0.2500000000000000  0.2500000000000000  0.0833333333333357
  0.2500000000000000  0.2500000000000000  0.4166666666666643
  0.2500000000000000  0.2500000000000000  0.7500000000000000
  0.2500000000000000  0.5833333333333357  0.0833333333333357
  0.2500000000000000  0.5833333333333357  0.4166666666666643
  0.2500000000000000  0.5833333333333357  0.7500000000000000
  0.2500000000000000  0.9166666666666643  0.0833333333333357
  0.2500000000000000  0.9166666666666643  0.4166666666666643
  0.2500000000000000  0.9166666666666643  0.7500000000000000
  0.5833333333333357  0.2500000000000000  0.0833333333333357
  0.5833333333333357  0.2500000000000000  0.4166666666666643
  0.5833333333333357  0.2500000000000000  0.7500000000000000
  0.5833333333333357  0.5833333333333357  0.0833333333333357
  0.5833333333333357  0.5833333333333357  0.4166666666666643
  0.5833333333333357  0.5833333333333357  0.7500000000000000
  0.5833333333333357  0.9166666666666643  0.0833333333333357
  0.5833333333333357  0.9166666666666643  0.4166666666666643
  0.5833333333333357  0.9166666666666643  0.7500000000000000
  0.9166666666666643  0.2500000000000000  0.0833333333333357
  0.9166666666666643  0.2500000000000000  0.4166666666666643
  0.9166666666666643  0.2500000000000000  0.7500000000000000
  0.9166666666666643  0.5833333333333357  0.0833333333333357
  0.9166666666666643  0.5833333333333357  0.4166666666666643
  0.9166666666666643  0.5833333333333357  0.7500000000000000
  0.9166666666666643  0.9166666666666643  0.0833333333333357
  0.9166666666666643  0.9166666666666643  0.4166666666666643
  0.9166666666666643  0.9166666666666643  0.7500000000000000
  0.2500000000000000  0.0833333333333357  0.2500000000000000
  0.2500000000000000  0.0833333333333357  0.5833333333333357
  0.2500000000000000  0.0833333333333357  0.9166666666666643
  0.2500000000000000  0.4166666666666643  0.2500000000000000
  0.2500000000000000  0.4166666666666643  0.5833333333333357
  0.2500000000000000  0.4166666666666643  0.9166666666666643
  0.2500000000000000  0.7500000000000000  0.2500000000000000
  0.2500000000000000  0.7500000000000000  0.5833333333333357
  0.2500000000000000  0.7500000000000000  0.9166666666666643
  0.5833333333333357  0.0833333333333357  0.2500000000000000
  0.5833333333333357  0.0833333333333357  0.5833333333333357
  0.5833333333333357  0.0833333333333357  0.9166666666666643
  0.5833333333333357  0.4166666666666643  0.2500000000000000
  0.5833333333333357  0.4166666666666643  0.5833333333333357
  0.5833333333333357  0.4166666666666643  0.9166666666666643
  0.5833333333333357  0.7500000000000000  0.2500000000000000
  0.5833333333333357  0.7500000000000000  0.5833333333333357
  0.5833333333333357  0.7500000000000000  0.9166666666666643
  0.9166666666666643  0.0833333333333357  0.2500000000000000
  0.9166666666666643  0.0833333333333357  0.5833333333333357
  0.9166666666666643  0.0833333333333357  0.9166666666666643
  0.9166666666666643  0.4166666666666643  0.2500000000000000
  0.9166666666666643  0.4166666666666643  0.5833333333333357
  0.9166666666666643  0.4166666666666643  0.9166666666666643
  0.9166666666666643  0.7500000000000000  0.2500000000000000
  0.9166666666666643  0.7500000000000000  0.5833333333333357
  0.9166666666666643  0.7500000000000000  0.9166666666666643
  0.0833333333333357  0.2500000000000000  0.2500000000000000
  0.0833333333333357  0.2500000000000000  0.5833333333333357
  0.0833333333333357  0.2500000000000000  0.9166666666666643
  0.0833333333333357  0.5833333333333357  0.2500000000000000
  0.0833333333333357  0.5833333333333357  0.5833333333333357
  0.0833333333333357  0.5833333333333357  0.9166666666666643
  0.0833333333333357  0.9166666666666643  0.2500000000000000
  0.0833333333333357  0.9166666666666643  0.5833333333333357
  0.0833333333333357  0.9166666666666643  0.9166666666666643
  0.4166666666666643  0.2500000000000000  0.2500000000000000
  0.4166666666666643  0.2500000000000000  0.5833333333333357
  0.4166666666666643  0.2500000000000000  0.9166666666666643
  0.4166666666666643  0.5833333333333357  0.2500000000000000
  0.4166666666666643  0.5833333333333357  0.5833333333333357
  0.4166666666666643  0.5833333333333357  0.9166666666666643
  0.4166666666666643  0.9166666666666643  0.2500000000000000
  0.4166666666666643  0.9166666666666643  0.5833333333333357
  0.4166666666666643  0.9166666666666643  0.9166666666666643
  0.7500000000000000  0.2500000000000000  0.2500000000000000
  0.7500000000000000  0.2500000000000000  0.5833333333333357
  0.7500000000000000  0.2500000000000000  0.9166666666666643
  0.7500000000000000  0.5833333333333357  0.2500000000000000
  0.7500000000000000  0.5833333333333357  0.5833333333333357
  0.7500000000000000  0.5833333333333357  0.9166666666666643
  0.7500000000000000  0.9166666666666643  0.2500000000000000
  0.7500000000000000  0.9166666666666643  0.5833333333333357
  0.7500000000000000  0.9166666666666643  0.9166666666666643
 
  0.00000000E+00  0.00000000E+00  0.00000000E+00
  0.00000000E+00  0.00000000E+00  0.00000000E+00
  0.00000000E+00  0.00000000E+00  0.00000000E+00
  0.00000000E+00  0.00000000E+00  0.00000000E+00
  0.00000000E+00  0.00000000E+00  0.00000000E+00
  0.00000000E+00  0.00000000E+00  0.00000000E+00
  0.00000000E+00  0.00000000E+00  0.00000000E+00
  0.00000000E+00  0.00000000E+00  0.00000000E+00
  0.00000000E+00  0.00000000E+00  0.00000000E+00
  0.00000000E+00  0.00000000E+00  0.00000000E+00
  0.00000000E+00  0.00000000E+00  0.00000000E+00
  0.00000000E+00  0.00000000E+00  0.00000000E+00
  0.00000000E+00  0.00000000E+00  0.00000000E+00
  0.00000000E+00  0.00000000E+00  0.00000000E+00
  0.00000000E+00  0.00000000E+00  0.00000000E+00
  0.00000000E+00  0.00000000E+00  0.00000000E+00
  0.00000000E+00  0.00000000E+00  0.00000000E+00
  0.00000000E+00  0.00000000E+00  0.00000000E+00
  0.00000000E+00  0.00000000E+00  0.00000000E+00
  0.00000000E+00  0.00000000E+00  0.00000000E+00
  0.00000000E+00  0.00000000E+00  0.00000000E+00
  0.00000000E+00  0.00000000E+00  0.00000000E+00
  0.00000000E+00  0.00000000E+00  0.00000000E+00
  0.00000000E+00  0.00000000E+00  0.00000000E+00
  0.00000000E+00  0.00000000E+00  0.00000000E+00
  0.00000000E+00  0.00000000E+00  0.00000000E+00
  0.00000000E+00  0.00000000E+00  0.00000000E+00
  0.00000000E+00  0.00000000E+00  0.00000000E+00
  0.00000000E+00  0.00000000E+00  0.00000000E+00
  0.00000000E+00  0.00000000E+00  0.00000000E+00
  0.00000000E+00  0.00000000E+00  0.00000000E+00
  0.00000000E+00  0.00000000E+00  0.00000000E+00
  0.00000000E+00  0.00000000E+00  0.00000000E+00
  0.00000000E+00  0.00000000E+00  0.00000000E+00
  0.00000000E+00  0.00000000E+00  0.00000000E+00
  0.00000000E+00  0.00000000E+00  0.00000000E+00
  0.00000000E+00  0.00000000E+00  0.00000000E+00
  0.00000000E+00  0.00000000E+00  0.00000000E+00
  0.00000000E+00  0.00000000E+00  0.00000000E+00
  0.00000000E+00  0.00000000E+00  0.00000000E+00
  0.00000000E+00  0.00000000E+00  0.00000000E+00
  0.00000000E+00  0.00000000E+00  0.00000000E+00
  0.00000000E+00  0.00000000E+00  0.00000000E+00
  0.00000000E+00  0.00000000E+00  0.00000000E+00
  0.00000000E+00  0.00000000E+00  0.00000000E+00
  0.00000000E+00  0.00000000E+00  0.00000000E+00
  0.00000000E+00  0.00000000E+00  0.00000000E+00
  0.00000000E+00  0.00000000E+00  0.00000000E+00
  0.00000000E+00  0.00000000E+00  0.00000000E+00
  0.00000000E+00  0.00000000E+00  0.00000000E+00
  0.00000000E+00  0.00000000E+00  0.00000000E+00
  0.00000000E+00  0.00000000E+00  0.00000000E+00
  0.00000000E+00  0.00000000E+00  0.00000000E+00
  0.00000000E+00  0.00000000E+00  0.00000000E+00
  0.00000000E+00  0.00000000E+00  0.00000000E+00
  0.00000000E+00  0.00000000E+00  0.00000000E+00
  0.00000000E+00  0.00000000E+00  0.00000000E+00
  0.00000000E+00  0.00000000E+00  0.00000000E+00
  0.00000000E+00  0.00000000E+00  0.00000000E+00
  0.00000000E+00  0.00000000E+00  0.00000000E+00
  0.00000000E+00  0.00000000E+00  0.00000000E+00
  0.00000000E+00  0.00000000E+00  0.00000000E+00
  0.00000000E+00  0.00000000E+00  0.00000000E+00
  0.00000000E+00  0.00000000E+00  0.00000000E+00
  0.00000000E+00  0.00000000E+00  0.00000000E+00
  0.00000000E+00  0.00000000E+00  0.00000000E+00
  0.00000000E+00  0.00000000E+00  0.00000000E+00
  0.00000000E+00  0.00000000E+00  0.00000000E+00
  0.00000000E+00  0.00000000E+00  0.00000000E+00
  0.00000000E+00  0.00000000E+00  0.00000000E+00
  0.00000000E+00  0.00000000E+00  0.00000000E+00
  0.00000000E+00  0.00000000E+00  0.00000000E+00
  0.00000000E+00  0.00000000E+00  0.00000000E+00
  0.00000000E+00  0.00000000E+00  0.00000000E+00
  0.00000000E+00  0.00000000E+00  0.00000000E+00
  0.00000000E+00  0.00000000E+00  0.00000000E+00
  0.00000000E+00  0.00000000E+00  0.00000000E+00
  0.00000000E+00  0.00000000E+00  0.00000000E+00
  0.00000000E+00  0.00000000E+00  0.00000000E+00
  0.00000000E+00  0.00000000E+00  0.00000000E+00
  0.00000000E+00  0.00000000E+00  0.00000000E+00
  0.00000000E+00  0.00000000E+00  0.00000000E+00
  0.00000000E+00  0.00000000E+00  0.00000000E+00
  0.00000000E+00  0.00000000E+00  0.00000000E+00
  0.00000000E+00  0.00000000E+00  0.00000000E+00
  0.00000000E+00  0.00000000E+00  0.00000000E+00
  0.00000000E+00  0.00000000E+00  0.00000000E+00
  0.00000000E+00  0.00000000E+00  0.00000000E+00
  0.00000000E+00  0.00000000E+00  0.00000000E+00
  0.00000000E+00  0.00000000E+00  0.00000000E+00
  0.00000000E+00  0.00000000E+00  0.00000000E+00
  0.00000000E+00  0.00000000E+00  0.00000000E+00
  0.00000000E+00  0.00000000E+00  0.00000000E+00
  0.00000000E+00  0.00000000E+00  0.00000000E+00
  0.00000000E+00  0.00000000E+00  0.00000000E+00
  0.00000000E+00  0.00000000E+00  0.00000000E+00
  0.00000000E+00  0.00000000E+00  0.00000000E+00
  0.00000000E+00  0.00000000E+00  0.00000000E+00
  0.00000000E+00  0.00000000E+00  0.00000000E+00
  0.00000000E+00  0.00000000E+00  0.00000000E+00
  0.00000000E+00  0.00000000E+00  0.00000000E+00
  0.00000000E+00  0.00000000E+00  0.00000000E+00
  0.00000000E+00  0.00000000E+00  0.00000000E+00
  0.00000000E+00  0.00000000E+00  0.00000000E+00
  0.00000000E+00  0.00000000E+00  0.00000000E+00
  0.00000000E+00  0.00000000E+00  0.00000000E+00
  0.00000000E+00  0.00000000E+00  0.00000000E+00
  0.00000000E+00  0.00000000E+00  0.00000000E+00
  0.00000000E+00  0.00000000E+00  0.00000000E+00
  0.00000000E+00  0.00000000E+00  0.00000000E+00
  0.00000000E+00  0.00000000E+00  0.00000000E+00
  0.00000000E+00  0.00000000E+00  0.00000000E+00
  0.00000000E+00  0.00000000E+00  0.00000000E+00
  0.00000000E+00  0.00000000E+00  0.00000000E+00
  0.00000000E+00  0.00000000E+00  0.00000000E+00
  0.00000000E+00  0.00000000E+00  0.00000000E+00
  0.00000000E+00  0.00000000E+00  0.00000000E+00
  0.00000000E+00  0.00000000E+00  0.00000000E+00
  0.00000000E+00  0.00000000E+00  0.00000000E+00
  0.00000000E+00  0.00000000E+00  0.00000000E+00
  0.00000000E+00  0.00000000E+00  0.00000000E+00
  0.00000000E+00  0.00000000E+00  0.00000000E+00
  0.00000000E+00  0.00000000E+00  0.00000000E+00
  0.00000000E+00  0.00000000E+00  0.00000000E+00
  0.00000000E+00  0.00000000E+00  0.00000000E+00
  0.00000000E+00  0.00000000E+00  0.00000000E+00
  0.00000000E+00  0.00000000E+00  0.00000000E+00
  0.00000000E+00  0.00000000E+00  0.00000000E+00
  0.00000000E+00  0.00000000E+00  0.00000000E+00
  0.00000000E+00  0.00000000E+00  0.00000000E+00
  0.00000000E+00  0.00000000E+00  0.00000000E+00
  0.00000000E+00  0.00000000E+00  0.00000000E+00
  0.00000000E+00  0.00000000E+00  0.00000000E+00
  0.00000000E+00  0.00000000E+00  0.00000000E+00
  0.00000000E+00  0.00000000E+00  0.00000000E+00
  0.00000000E+00  0.00000000E+00  0.00000000E+00
  0.00000000E+00  0.00000000E+00  0.00000000E+00
  0.00000000E+00  0.00000000E+00  0.00000000E+00
  0.00000000E+00  0.00000000E+00  0.00000000E+00
  0.00000000E+00  0.00000000E+00  0.00000000E+00
  0.00000000E+00  0.00000000E+00  0.00000000E+00
  0.00000000E+00  0.00000000E+00  0.00000000E+00
  0.00000000E+00  0.00000000E+00  0.00000000E+00
  0.00000000E+00  0.00000000E+00  0.00000000E+00
  0.00000000E+00  0.00000000E+00  0.00000000E+00
  0.00000000E+00  0.00000000E+00  0.00000000E+00
  0.00000000E+00  0.00000000E+00  0.00000000E+00
  0.00000000E+00  0.00000000E+00  0.00000000E+00
  0.00000000E+00  0.00000000E+00  0.00000000E+00
  0.00000000E+00  0.00000000E+00  0.00000000E+00
  0.00000000E+00  0.00000000E+00  0.00000000E+00
  0.00000000E+00  0.00000000E+00  0.00000000E+00
  0.00000000E+00  0.00000000E+00  0.00000000E+00
  0.00000000E+00  0.00000000E+00  0.00000000E+00
  0.00000000E+00  0.00000000E+00  0.00000000E+00
  0.00000000E+00  0.00000000E+00  0.00000000E+00
  0.00000000E+00  0.00000000E+00  0.00000000E+00
  0.00000000E+00  0.00000000E+00  0.00000000E+00
  0.00000000E+00  0.00000000E+00  0.00000000E+00
  0.00000000E+00  0.00000000E+00  0.00000000E+00
  0.00000000E+00  0.00000000E+00  0.00000000E+00
  0.00000000E+00  0.00000000E+00  0.00000000E+00
  0.00000000E+00  0.00000000E+00  0.00000000E+00
  0.00000000E+00  0.00000000E+00  0.00000000E+00
  0.00000000E+00  0.00000000E+00  0.00000000E+00
  0.00000000E+00  0.00000000E+00  0.00000000E+00
  0.00000000E+00  0.00000000E+00  0.00000000E+00
  0.00000000E+00  0.00000000E+00  0.00000000E+00
  0.00000000E+00  0.00000000E+00  0.00000000E+00
  0.00000000E+00  0.00000000E+00  0.00000000E+00
  0.00000000E+00  0.00000000E+00  0.00000000E+00
  0.00000000E+00  0.00000000E+00  0.00000000E+00
  0.00000000E+00  0.00000000E+00  0.00000000E+00
  0.00000000E+00  0.00000000E+00  0.00000000E+00
  0.00000000E+00  0.00000000E+00  0.00000000E+00
  0.00000000E+00  0.00000000E+00  0.00000000E+00
  0.00000000E+00  0.00000000E+00  0.00000000E+00
  0.00000000E+00  0.00000000E+00  0.00000000E+00
  0.00000000E+00  0.00000000E+00  0.00000000E+00
  0.00000000E+00  0.00000000E+00  0.00000000E+00
  0.00000000E+00  0.00000000E+00  0.00000000E+00
  0.00000000E+00  0.00000000E+00  0.00000000E+00
  0.00000000E+00  0.00000000E+00  0.00000000E+00
  0.00000000E+00  0.00000000E+00  0.00000000E+00
  0.00000000E+00  0.00000000E+00  0.00000000E+00
  0.00000000E+00  0.00000000E+00  0.00000000E+00
  0.00000000E+00  0.00000000E+00  0.00000000E+00
  0.00000000E+00  0.00000000E+00  0.00000000E+00
  0.00000000E+00  0.00000000E+00  0.00000000E+00
  0.00000000E+00  0.00000000E+00  0.00000000E+00
  0.00000000E+00  0.00000000E+00  0.00000000E+00
  0.00000000E+00  0.00000000E+00  0.00000000E+00
  0.00000000E+00  0.00000000E+00  0.00000000E+00
  0.00000000E+00  0.00000000E+00  0.00000000E+00
  0.00000000E+00  0.00000000E+00  0.00000000E+00
  0.00000000E+00  0.00000000E+00  0.00000000E+00
  0.00000000E+00  0.00000000E+00  0.00000000E+00
  0.00000000E+00  0.00000000E+00  0.00000000E+00
  0.00000000E+00  0.00000000E+00  0.00000000E+00
  0.00000000E+00  0.00000000E+00  0.00000000E+00
  0.00000000E+00  0.00000000E+00  0.00000000E+00
  0.00000000E+00  0.00000000E+00  0.00000000E+00
  0.00000000E+00  0.00000000E+00  0.00000000E+00
  0.00000000E+00  0.00000000E+00  0.00000000E+00
  0.00000000E+00  0.00000000E+00  0.00000000E+00
  0.00000000E+00  0.00000000E+00  0.00000000E+00
  0.00000000E+00  0.00000000E+00  0.00000000E+00
  0.00000000E+00  0.00000000E+00  0.00000000E+00
  0.00000000E+00  0.00000000E+00  0.00000000E+00
  0.00000000E+00  0.00000000E+00  0.00000000E+00
  0.00000000E+00  0.00000000E+00  0.00000000E+00
  0.00000000E+00  0.00000000E+00  0.00000000E+00
  0.00000000E+00  0.00000000E+00  0.00000000E+00
  0.00000000E+00  0.00000000E+00  0.00000000E+00
  0.00000000E+00  0.00000000E+00  0.00000000E+00
  0.00000000E+00  0.00000000E+00  0.00000000E+00
