 vasp.6.4.1 05Apr23 (build May 22 2023 10:35:35) gamma-only                     
  
 executed on                 SAGA date 2025.02.10  12:34:33
 running   80 mpi-ranks, on    2 nodes
 distrk:  each k-point on   80 cores,    1 groups
 distr:  one band on NCORE=  20 cores,    4 groups


--------------------------------------------------------------------------------------------------------


 INCAR:
   ALGO = Normal
   PREC = Accurate
   LREAL = Auto
   EDIFF = 1e-06
   ENCUT = 500.0
   NELM = 100
   PRECFOCK = Normal
   LHFCALC = .TRUE.
   HFSCREEN = 0.2
   AEXX = 0.25
   TIME = 0.4
   ISIF = 2
   IBRION = 2
   EDIFFG = -0.03
   NSW = 140
   ISMEAR = 0
   SIGMA = 0.005
   ISPIN = 2
   LWAVE = True
   LCHARG = True
   LORBIT = 10
   NPAR = 4
   NCORE = 20

 POTCAR:    PAW_PBE B 06Sep2000                   
 POTCAR:    PAW_PBE N 08Apr2002                   
 -----------------------------------------------------------------------------
|                                                                             |
|           W    W    AA    RRRRR   N    N  II  N    N   GGGG   !!!           |
|           W    W   A  A   R    R  NN   N  II  NN   N  G    G  !!!           |
|           W    W  A    A  R    R  N N  N  II  N N  N  G       !!!           |
|           W WW W  AAAAAA  RRRRR   N  N N  II  N  N N  G  GGG   !            |
|           WW  WW  A    A  R   R   N   NN  II  N   NN  G    G                |
|           W    W  A    A  R    R  N    N  II  N    N   GGGG   !!!           |
|                                                                             |
|     You use a magnetic or noncollinear calculation, but did not specify     |
|     the initial magnetic moment with the MAGMOM tag. Note that a            |
|     default of 1 will be used for all atoms. This ferromagnetic setup       |
|     may break the symmetry of the crystal, in particular it may rule        |
|     out finding an antiferromagnetic solution. Thence, we recommend         |
|     setting the initial magnetic moment manually or verifying carefully     |
|     that this magnetic setup is desired.                                    |
|                                                                             |
 -----------------------------------------------------------------------------

 -----------------------------------------------------------------------------
|                                                                             |
|           W    W    AA    RRRRR   N    N  II  N    N   GGGG   !!!           |
|           W    W   A  A   R    R  NN   N  II  NN   N  G    G  !!!           |
|           W    W  A    A  R    R  N N  N  II  N N  N  G       !!!           |
|           W WW W  AAAAAA  RRRRR   N  N N  II  N  N N  G  GGG   !            |
|           WW  WW  A    A  R   R   N   NN  II  N   NN  G    G                |
|           W    W  A    A  R    R  N    N  II  N    N   GGGG   !!!           |
|                                                                             |
|     For optimal performance we recommend to set                             |
|       NCORE = 2 up to number-of-cores-per-socket                            |
|     NCORE specifies how many cores store one orbital (NPAR=cpu/NCORE).      |
|     This setting can greatly improve the performance of VASP for DFT.       |
|     The default, NCORE=1 might be grossly inefficient on modern             |
|     multi-core architectures or massively parallel machines. Do your        |
|     own testing! More info at https://www.vasp.at/wiki/index.php/NCORE      |
|     Unfortunately you need to use the default for GW and RPA                |
|     calculations (for HF NCORE is supported but not extensively tested      |
|     yet).                                                                   |
|                                                                             |
 -----------------------------------------------------------------------------

 POTCAR:    PAW_PBE B 06Sep2000                   
   SHA256 =  a32ced30f5ae56fd4d10b4325ff17eb3e4e38ee0f4288bc219fb012fddfa6e97 B/POTCAR              
   COPYR  = (c) Copyright 06Sep2000 Georg Kresse                                                    
   COPYR  = This file is part of the software VASP. Any use, copying, and all other rights are regul
   COPYR  = If you do not have a valid VASP license, you may not use, copy or distribute this file. 
   VRHFIN =B: s2p1                                                                                  
   LEXCH  = PE                                                                                      
   EATOM  =    71.1703 eV,    5.2309 Ry                                                             
                                                                                                    
   TITEL  = PAW_PBE B 06Sep2000                                                                     
   LULTRA =        F    use ultrasoft PP ?                                                          
   IUNSCR =        1    unscreen: 0-lin 1-nonlin 2-no                                               
   RPACOR =    1.200    partial core radius                                                         
   POMASS =   10.811; ZVAL   =    3.000    mass and valenz                                          
   RCORE  =    1.700    outmost cutoff radius                                                       
   RWIGS  =    1.710; RWIGS  =    0.905    wigner-seitz radius (au A)                               
   ENMAX  =  318.614; ENMIN  =  238.960 eV                                                          
   ICORE  =        2    local potential                                                             
   LCOR   =        T    correct aug charges                                                         
   LPAW   =        T    paw PP                                                                      
   EAUG   =  535.514                                                                                
   DEXC   =    0.000                                                                                
   RMAX   =    1.732    core radius for proj-oper                                                   
   RAUG   =    1.300    factor for augmentation sphere                                              
   RDEP   =    1.757    radius for radial grids                                                     
   RDEPT  =    1.436    core radius for aug-charge                                                  
                                                                                                    
   Atomic configuration                                                                             
    4 entries                                                                                       
     n  l   j            E        occ.                                                              
     1  0  0.50      -180.5896   2.0000                                                             
     2  0  0.50        -9.4431   2.0000                                                             
     2  1  0.50        -3.6068   1.0000                                                             
     3  2  1.50        -4.0817   0.0000                                                             
   Description                                                                                      
     l       E           TYP  RCUT    TYP  RCUT                                                     
     0     -9.4430752     23  1.500                                                                 
     0      0.8675899     23  1.500                                                                 
     1     -3.6067955     23  1.700                                                                 
     1      6.1086146     23  1.700                                                                 
     2     -4.0817478      7  1.700                                                                 
  local pseudopotential read in
  partial core-charges read in
  partial kinetic energy density read in
  atomic valenz-charges read in
  non local Contribution for L=           0  read in
    real space projection operators read in
  non local Contribution for L=           0  read in
    real space projection operators read in
  non local Contribution for L=           1  read in
    real space projection operators read in
  non local Contribution for L=           1  read in
    real space projection operators read in
    PAW grid and wavefunctions read in
 
   number of l-projection  operators is LMAX  =           4
   number of lm-projection operators is LMMAX =           8
 
 POTCAR:    PAW_PBE N 08Apr2002                   
   SHA256 =  e053789ff3a61a86a1b75d8a110fcc91f86041011e7b0817c7c99e4e8a6349d7 N/POTCAR              
   COPYR  = (c) Copyright 08Apr2002 Georg Kresse                                                    
   COPYR  = This file is part of the software VASP. Any use, copying, and all other rights are regul
   COPYR  = If you do not have a valid VASP license, you may not use, copy or distribute this file. 
   VRHFIN =N: s2p3                                                                                  
   LEXCH  = PE                                                                                      
   EATOM  =   264.5486 eV,   19.4438 Ry                                                             
                                                                                                    
   TITEL  = PAW_PBE N 08Apr2002                                                                     
   LULTRA =        F    use ultrasoft PP ?                                                          
   IUNSCR =        1    unscreen: 0-lin 1-nonlin 2-no                                               
   RPACOR =    1.200    partial core radius                                                         
   POMASS =   14.001; ZVAL   =    5.000    mass and valenz                                          
   RCORE  =    1.500    outmost cutoff radius                                                       
   RWIGS  =    1.400; RWIGS  =    0.741    wigner-seitz radius (au A)                               
   ENMAX  =  400.000; ENMIN  =  300.000 eV                                                          
   ICORE  =        2    local potential                                                             
   LCOR   =        T    correct aug charges                                                         
   LPAW   =        T    paw PP                                                                      
   EAUG   =  627.112                                                                                
   DEXC   =    0.000                                                                                
   RMAX   =    1.529    core radius for proj-oper                                                   
   RAUG   =    1.300    factor for augmentation sphere                                              
   RDEP   =    1.514    radius for radial grids                                                     
   RDEPT  =    1.338    core radius for aug-charge                                                  
                                                                                                    
   Atomic configuration                                                                             
    4 entries                                                                                       
     n  l   j            E        occ.                                                              
     1  0  0.50      -384.7179   2.0000                                                             
     2  0  0.50       -18.5828   2.0000                                                             
     2  1  0.50        -7.0898   3.0000                                                             
     3  2  1.50        -6.8029   0.0000                                                             
   Description                                                                                      
     l       E           TYP  RCUT    TYP  RCUT                                                     
     0    -18.5828119     23  1.200                                                                 
     0    -13.5018863     23  1.200                                                                 
     1     -7.0897853     23  1.500                                                                 
     1      9.5240782     23  1.500                                                                 
     2     -6.8029130      7  1.500                                                                 
  local pseudopotential read in
  partial core-charges read in
  partial kinetic energy density read in
  atomic valenz-charges read in
  non local Contribution for L=           0  read in
    real space projection operators read in
  non local Contribution for L=           0  read in
    real space projection operators read in
  non local Contribution for L=           1  read in
    real space projection operators read in
  non local Contribution for L=           1  read in
    real space projection operators read in
    PAW grid and wavefunctions read in
 
   number of l-projection  operators is LMAX  =           4
   number of lm-projection operators is LMMAX =           8
 
 Optimization of the real space projectors (new method)

 maximal supplied QI-value         = 22.11
 optimisation between [QCUT,QGAM] = [ 11.28, 22.77] = [ 35.61,145.23] Ry 
 Optimized for a Real-space Cutoff    1.23 Angstroem

   l    n(q)    QCUT    max X(q) W(low)/X(q) W(high)/X(q)  e(spline) 
   0      8    11.276    53.033    0.20E-03    0.24E-03    0.14E-06
   0      8    11.276    34.740    0.20E-03    0.24E-03    0.14E-06
   1      8    11.276    30.949    0.17E-03    0.72E-04    0.22E-06
   1      8    11.276    19.518    0.15E-03    0.64E-04    0.21E-06
 Optimization of the real space projectors (new method)

 maximal supplied QI-value         = 25.13
 optimisation between [QCUT,QGAM] = [ 11.31, 22.87] = [ 35.82,146.48] Ry 
 Optimized for a Real-space Cutoff    1.43 Angstroem

   l    n(q)    QCUT    max X(q) W(low)/X(q) W(high)/X(q)  e(spline) 
   0     10    11.310    79.467    0.42E-04    0.81E-04    0.60E-06
   0     10    11.310    66.151    0.40E-04    0.81E-04    0.60E-06
   1      9    11.310    17.416    0.14E-03    0.88E-04    0.14E-05
   1      9    11.310    12.382    0.15E-03    0.93E-04    0.14E-05
  PAW_PBE B 06Sep2000                   :
 energy of atom  1       EATOM=  -71.1703
 kinetic energy error for atom=    0.0012 (will be added to EATOM!!)
  PAW_PBE N 08Apr2002                   :
 energy of atom  2       EATOM= -264.5486
 kinetic energy error for atom=    0.0138 (will be added to EATOM!!)
 
 
 POSCAR: B108 N108
  positions in direct lattice
  No initial velocities read in
 exchange correlation table for  LEXCH =        8
   RHO(1)=    0.500       N(1)  =     2000
   RHO(2)=  100.500       N(2)  =     4000
 


--------------------------------------------------------------------------------------------------------


 ion  position               nearest neighbor table
   1  0.000  0.000  0.000- 109 1.56 160 1.56 183 1.56 198 1.56
   2  0.000  0.000  0.333- 110 1.56 161 1.56 181 1.56 196 1.56
   3  0.000  0.000  0.667- 182 1.56 197 1.56 111 1.56 162 1.56
   4  0.000  0.333  0.000- 112 1.56 186 1.56 154 1.56 192 1.56
   5  0.000  0.333  0.333- 113 1.56 155 1.56 184 1.56 190 1.56
   6  0.000  0.333  0.667- 185 1.56 114 1.56 191 1.56 156 1.56
   7  0.000  0.667  0.000- 157 1.56 195 1.56 189 1.56 115 1.56
   8  0.000  0.667  0.333- 158 1.56 116 1.56 193 1.56 187 1.56
   9  0.000  0.667  0.667- 194 1.56 188 1.56 159 1.56 117 1.56
  10  0.333  0.000  0.000- 118 1.56 207 1.56 165 1.56 142 1.56
  11  0.333  0.000  0.333- 119 1.56 143 1.56 205 1.56 163 1.56
  12  0.333  0.000  0.667- 206 1.56 164 1.56 120 1.56 144 1.56
  13  0.333  0.333  0.000- 121 1.56 168 1.56 201 1.56 136 1.56
  14  0.333  0.333  0.333- 122 1.56 137 1.56 166 1.56 199 1.56
  15  0.333  0.333  0.667- 123 1.56 167 1.56 200 1.56 138 1.56
  16  0.333  0.667  0.000- 204 1.56 139 1.56 124 1.56 171 1.56
  17  0.333  0.667  0.333- 125 1.56 140 1.56 202 1.56 169 1.56
  18  0.333  0.667  0.667- 203 1.56 141 1.56 170 1.56 126 1.56
  19  0.667  0.000  0.000- 151 1.56 174 1.56 127 1.56 216 1.56
  20  0.667  0.000  0.333- 152 1.56 128 1.56 172 1.56 214 1.56
  21  0.667  0.000  0.667- 173 1.56 153 1.56 215 1.56 129 1.56
  22  0.667  0.333  0.000- 177 1.56 145 1.56 130 1.56 210 1.56
  23  0.667  0.333  0.333- 131 1.56 146 1.56 175 1.56 208 1.56
  24  0.667  0.333  0.667- 176 1.56 147 1.56 132 1.56 209 1.56
  25  0.667  0.667  0.000- 148 1.56 180 1.56 213 1.56 133 1.56
  26  0.667  0.667  0.333- 149 1.56 134 1.56 178 1.56 211 1.56
  27  0.667  0.667  0.667- 150 1.56 179 1.56 212 1.56 135 1.56
  28  0.167  0.167  0.000- 109 1.56 165 1.56 192 1.56 136 1.56
  29  0.167  0.167  0.333- 110 1.56 137 1.56 163 1.56 190 1.56
  30  0.167  0.167  0.667- 111 1.56 164 1.56 191 1.56 138 1.56
  31  0.167  0.500  0.000- 112 1.56 195 1.56 168 1.56 139 1.56
  32  0.167  0.500  0.333- 113 1.56 140 1.56 193 1.56 166 1.56
  33  0.167  0.500  0.667- 194 1.56 167 1.56 114 1.56 141 1.56
  34  0.167  0.833  0.000- 198 1.56 142 1.56 115 1.56 171 1.56
  35  0.167  0.833  0.333- 116 1.56 143 1.56 196 1.56 169 1.56
  36  0.167  0.833  0.667- 197 1.56 144 1.56 170 1.56 117 1.56
  37  0.500  0.167  0.000- 118 1.56 174 1.56 145 1.56 201 1.56
  38  0.500  0.167  0.333- 119 1.56 146 1.56 172 1.56 199 1.56
  39  0.500  0.167  0.667- 173 1.56 120 1.56 200 1.56 147 1.56
  40  0.500  0.500  0.000- 121 1.56 148 1.56 177 1.56 204 1.56
  41  0.500  0.500  0.333- 122 1.56 149 1.56 175 1.56 202 1.56
  42  0.500  0.500  0.667- 176 1.56 203 1.56 123 1.56 150 1.56
  43  0.500  0.833  0.000- 151 1.56 207 1.56 180 1.56 124 1.56
  44  0.500  0.833  0.333- 152 1.56 125 1.56 205 1.56 178 1.56
  45  0.500  0.833  0.667- 206 1.56 179 1.56 153 1.56 126 1.56
  46  0.833  0.167  0.000- 183 1.56 154 1.56 127 1.56 210 1.56
  47  0.833  0.167  0.333- 128 1.56 155 1.56 181 1.56 208 1.56
  48  0.833  0.167  0.667- 182 1.56 156 1.56 129 1.56 209 1.56
  49  0.833  0.500  0.000- 157 1.56 186 1.56 130 1.56 213 1.56
  50  0.833  0.500  0.333- 158 1.56 131 1.56 184 1.56 211 1.56
  51  0.833  0.500  0.667- 185 1.56 159 1.56 212 1.56 132 1.56
  52  0.833  0.833  0.000- 160 1.56 189 1.56 216 1.56 133 1.56
  53  0.833  0.833  0.333- 161 1.56 134 1.56 187 1.56 214 1.56
  54  0.833  0.833  0.667- 162 1.56 188 1.56 215 1.56 135 1.56
  55  0.167  0.000  0.167- 109 1.56 142 1.56 196 1.56 163 1.56
  56  0.167  0.000  0.500- 110 1.56 197 1.56 164 1.56 143 1.56
  57  0.167  0.000  0.833- 198 1.56 165 1.56 111 1.56 144 1.56
  58  0.167  0.333  0.167- 112 1.56 136 1.56 166 1.56 190 1.56
  59  0.167  0.333  0.500- 113 1.56 167 1.56 191 1.56 137 1.56
  60  0.167  0.333  0.833- 114 1.56 168 1.56 192 1.56 138 1.56
  61  0.167  0.667  0.167- 115 1.56 139 1.56 193 1.56 169 1.56
  62  0.167  0.667  0.500- 194 1.56 140 1.56 116 1.56 170 1.56
  63  0.167  0.667  0.833- 195 1.56 141 1.56 171 1.56 117 1.56
  64  0.500  0.000  0.167- 118 1.56 151 1.56 172 1.56 205 1.56
  65  0.500  0.000  0.500- 119 1.56 152 1.56 173 1.56 206 1.56
  66  0.500  0.000  0.833- 174 1.56 207 1.56 120 1.56 153 1.56
  67  0.500  0.333  0.167- 121 1.56 145 1.56 175 1.56 199 1.56
  68  0.500  0.333  0.500- 122 1.56 176 1.56 146 1.56 200 1.56
  69  0.500  0.333  0.833- 177 1.56 123 1.56 201 1.56 147 1.56
  70  0.500  0.667  0.167- 148 1.56 124 1.56 202 1.56 178 1.56
  71  0.500  0.667  0.500- 149 1.56 203 1.56 179 1.56 125 1.56
  72  0.500  0.667  0.833- 204 1.56 180 1.56 150 1.56 126 1.56
  73  0.833  0.000  0.167- 160 1.56 127 1.56 181 1.56 214 1.56
  74  0.833  0.000  0.500- 161 1.56 182 1.56 128 1.56 215 1.56
  75  0.833  0.000  0.833- 183 1.56 162 1.56 216 1.56 129 1.56
  76  0.833  0.333  0.167- 130 1.56 154 1.56 184 1.56 208 1.56
  77  0.833  0.333  0.500- 185 1.56 155 1.56 131 1.56 209 1.56
  78  0.833  0.333  0.833- 186 1.56 156 1.56 132 1.56 210 1.56
  79  0.833  0.667  0.167- 157 1.56 133 1.56 187 1.56 211 1.56
  80  0.833  0.667  0.500- 158 1.56 188 1.56 212 1.56 134 1.56
  81  0.833  0.667  0.833- 159 1.56 189 1.56 213 1.56 135 1.56
  82  0.000  0.167  0.167- 109 1.56 154 1.56 181 1.56 190 1.56
  83  0.000  0.167  0.500- 110 1.56 182 1.56 155 1.56 191 1.56
  84  0.000  0.167  0.833- 183 1.56 111 1.56 192 1.56 156 1.56
  85  0.000  0.500  0.167- 112 1.56 157 1.56 184 1.56 193 1.56
  86  0.000  0.500  0.500- 113 1.56 158 1.56 185 1.56 194 1.56
  87  0.000  0.500  0.833- 186 1.56 195 1.56 114 1.56 159 1.56
  88  0.000  0.833  0.167- 160 1.56 115 1.56 196 1.56 187 1.56
  89  0.000  0.833  0.500- 161 1.56 197 1.56 188 1.56 116 1.56
  90  0.000  0.833  0.833- 198 1.56 189 1.56 162 1.56 117 1.56
  91  0.333  0.167  0.167- 118 1.56 136 1.56 163 1.56 199 1.56
  92  0.333  0.167  0.500- 119 1.56 164 1.56 200 1.56 137 1.56
  93  0.333  0.167  0.833- 120 1.56 165 1.56 201 1.56 138 1.56
  94  0.333  0.500  0.167- 121 1.56 139 1.56 202 1.56 166 1.56
  95  0.333  0.500  0.500- 122 1.56 203 1.56 167 1.56 140 1.56
  96  0.333  0.500  0.833- 204 1.56 168 1.56 123 1.56 141 1.56
  97  0.333  0.833  0.167- 124 1.56 142 1.56 205 1.56 169 1.56
  98  0.333  0.833  0.500- 206 1.56 143 1.56 125 1.56 170 1.56
  99  0.333  0.833  0.833- 207 1.56 144 1.56 171 1.56 126 1.56
 100  0.667  0.167  0.167- 127 1.56 145 1.56 172 1.56 208 1.56
 101  0.667  0.167  0.500- 173 1.56 146 1.56 128 1.56 209 1.56
 102  0.667  0.167  0.833- 174 1.56 147 1.56 129 1.56 210 1.56
 103  0.667  0.500  0.167- 148 1.56 130 1.56 175 1.56 211 1.56
 104  0.667  0.500  0.500- 149 1.56 176 1.56 131 1.56 212 1.56
 105  0.667  0.500  0.833- 177 1.56 150 1.56 213 1.56 132 1.56
 106  0.667  0.833  0.167- 151 1.56 133 1.56 178 1.56 214 1.56
 107  0.667  0.833  0.500- 152 1.56 179 1.56 215 1.56 134 1.56
 108  0.667  0.833  0.833- 153 1.56 180 1.56 216 1.56 135 1.56
 109  0.083  0.083  0.083-  28 1.56  55 1.56  82 1.56   1 1.56
 110  0.083  0.083  0.417-  29 1.56   2 1.56  56 1.56  83 1.56
 111  0.083  0.083  0.750-  30 1.56  57 1.56  84 1.56   3 1.56
 112  0.083  0.417  0.083-  58 1.56  31 1.56   4 1.56  85 1.56
 113  0.083  0.417  0.417-   5 1.56  32 1.56  59 1.56  86 1.56
 114  0.083  0.417  0.750-  60 1.56  33 1.56   6 1.56  87 1.56
 115  0.083  0.750  0.083-  61 1.56  34 1.56  88 1.56   7 1.56
 116  0.083  0.750  0.417-  35 1.56   8 1.56  62 1.56  89 1.56
 117  0.083  0.750  0.750-  36 1.56  63 1.56   9 1.56  90 1.56
 118  0.417  0.083  0.083-  91 1.56  37 1.56  64 1.56  10 1.56
 119  0.417  0.083  0.417-  11 1.56  38 1.56  92 1.56  65 1.56
 120  0.417  0.083  0.750-  93 1.56  39 1.56  12 1.56  66 1.56
 121  0.417  0.417  0.083-  13 1.56  67 1.56  94 1.56  40 1.56
 122  0.417  0.417  0.417-  14 1.56  41 1.56  68 1.56  95 1.56
 123  0.417  0.417  0.750-  15 1.56  69 1.56  96 1.56  42 1.56
 124  0.417  0.750  0.083-  97 1.56  70 1.56  16 1.56  43 1.56
 125  0.417  0.750  0.417-  17 1.56  44 1.56  98 1.56  71 1.56
 126  0.417  0.750  0.750-  18 1.56  99 1.56  72 1.56  45 1.56
 127  0.750  0.083  0.083- 100 1.56  73 1.56  46 1.56  19 1.56
 128  0.750  0.083  0.417-  47 1.56  20 1.56 101 1.56  74 1.56
 129  0.750  0.083  0.750-  48 1.56 102 1.56  75 1.56  21 1.56
 130  0.750  0.417  0.083-  76 1.56  22 1.56 103 1.56  49 1.56
 131  0.750  0.417  0.417-  23 1.56  50 1.56  77 1.56 104 1.56
 132  0.750  0.417  0.750-  24 1.56  78 1.56  51 1.56 105 1.56
 133  0.750  0.750  0.083-  79 1.56 106 1.56  25 1.56  52 1.56
 134  0.750  0.750  0.417-  26 1.56  53 1.56  80 1.56 107 1.56
 135  0.750  0.750  0.750-  27 1.56  54 1.56  81 1.56 108 1.56
 136  0.250  0.250  0.083-  58 1.56  91 1.56  13 1.56  28 1.56
 137  0.250  0.250  0.417-  14 1.56  29 1.56  59 1.56  92 1.56
 138  0.250  0.250  0.750-  15 1.56  30 1.56  60 1.56  93 1.56
 139  0.250  0.583  0.083-  61 1.56  16 1.56  94 1.56  31 1.56
 140  0.250  0.583  0.417-  17 1.56  32 1.56  62 1.56  95 1.56
 141  0.250  0.583  0.750-  18 1.56  63 1.56  33 1.56  96 1.56
 142  0.250  0.917  0.083-  97 1.56  55 1.56  34 1.56  10 1.56
 143  0.250  0.917  0.417-  35 1.56  11 1.56  98 1.56  56 1.56
 144  0.250  0.917  0.750-  36 1.56  99 1.56  57 1.56  12 1.56
 145  0.583  0.250  0.083- 100 1.56  67 1.56  22 1.56  37 1.56
 146  0.583  0.250  0.417-  23 1.56  38 1.56 101 1.56  68 1.56
 147  0.583  0.250  0.750-  24 1.56 102 1.56  69 1.56  39 1.56
 148  0.583  0.583  0.083-  25 1.56  70 1.56 103 1.56  40 1.56
 149  0.583  0.583  0.417-  26 1.56  41 1.56  71 1.56 104 1.56
 150  0.583  0.583  0.750-  27 1.56  72 1.56 105 1.56  42 1.56
 151  0.583  0.917  0.083- 106 1.56  43 1.56  64 1.56  19 1.56
 152  0.583  0.917  0.417-  20 1.56  44 1.56 107 1.56  65 1.56
 153  0.583  0.917  0.750- 108 1.56  45 1.56  21 1.56  66 1.56
 154  0.917  0.250  0.083-  76 1.56  46 1.56  82 1.56   4 1.56
 155  0.917  0.250  0.417-  47 1.56   5 1.56  77 1.56  83 1.56
 156  0.917  0.250  0.750-  48 1.56  78 1.56   6 1.56  84 1.56
 157  0.917  0.583  0.083-  79 1.56  49 1.56   7 1.56  85 1.56
 158  0.917  0.583  0.417-   8 1.56  50 1.56  80 1.56  86 1.56
 159  0.917  0.583  0.750-  81 1.56  51 1.56   9 1.56  87 1.56
 160  0.917  0.917  0.083-  52 1.56  73 1.56  88 1.56   1 1.56
 161  0.917  0.917  0.417-  53 1.56   2 1.56  74 1.56  89 1.56
 162  0.917  0.917  0.750-  54 1.56  75 1.56  90 1.56   3 1.56
 163  0.250  0.083  0.250-  29 1.56  91 1.56  55 1.56  11 1.56
 164  0.250  0.083  0.583-  30 1.56  12 1.56  92 1.56  56 1.56
 165  0.250  0.083  0.917-  93 1.56  57 1.56  28 1.56  10 1.56
 166  0.250  0.417  0.250-  14 1.56  58 1.56  32 1.56  94 1.56
 167  0.250  0.417  0.583-  15 1.56  33 1.56  59 1.56  95 1.56
 168  0.250  0.417  0.917-  60 1.56  13 1.56  96 1.56  31 1.56
 169  0.250  0.750  0.250-  17 1.56  35 1.56  61 1.56  97 1.56
 170  0.250  0.750  0.583-  18 1.56  36 1.56  62 1.56  98 1.56
 171  0.250  0.750  0.917-  63 1.56  99 1.56  16 1.56  34 1.56
 172  0.583  0.083  0.250- 100 1.56  38 1.56  20 1.56  64 1.56
 173  0.583  0.083  0.583-  21 1.56  39 1.56 101 1.56  65 1.56
 174  0.583  0.083  0.917- 102 1.56  37 1.56  66 1.56  19 1.56
 175  0.583  0.417  0.250-  23 1.56  67 1.56 103 1.56  41 1.56
 176  0.583  0.417  0.583-  24 1.56  42 1.56  68 1.56 104 1.56
 177  0.583  0.417  0.917-  22 1.56  69 1.56 105 1.56  40 1.56
 178  0.583  0.750  0.250-  26 1.56 106 1.56  70 1.56  44 1.56
 179  0.583  0.750  0.583-  27 1.56  45 1.56 107 1.56  71 1.56
 180  0.583  0.750  0.917- 108 1.56  72 1.56  25 1.56  43 1.56
 181  0.917  0.083  0.250-  47 1.56  73 1.56  82 1.56   2 1.56
 182  0.917  0.083  0.583-  48 1.56   3 1.56  74 1.56  83 1.56
 183  0.917  0.083  0.917-  46 1.56  75 1.56  84 1.56   1 1.56
 184  0.917  0.417  0.250-  76 1.56  50 1.56   5 1.56  85 1.56
 185  0.917  0.417  0.583-   6 1.56  51 1.56  77 1.56  86 1.56
 186  0.917  0.417  0.917-  78 1.56  49 1.56   4 1.56  87 1.56
 187  0.917  0.750  0.250-  53 1.56  79 1.56   8 1.56  88 1.56
 188  0.917  0.750  0.583-  54 1.56   9 1.56  80 1.56  89 1.56
 189  0.917  0.750  0.917-  81 1.56  52 1.56  90 1.56   7 1.56
 190  0.083  0.250  0.250-  29 1.56  58 1.56   5 1.56  82 1.56
 191  0.083  0.250  0.583-  30 1.56   6 1.56  59 1.56  83 1.56
 192  0.083  0.250  0.917-  60 1.56  28 1.56  84 1.56   4 1.56
 193  0.083  0.583  0.250-  61 1.56  32 1.56   8 1.56  85 1.56
 194  0.083  0.583  0.583-   9 1.56  33 1.56  62 1.56  86 1.56
 195  0.083  0.583  0.917-  63 1.56  31 1.56   7 1.56  87 1.56
 196  0.083  0.917  0.250-  35 1.56  55 1.56  88 1.56   2 1.56
 197  0.083  0.917  0.583-  36 1.56   3 1.56  56 1.56  89 1.56
 198  0.083  0.917  0.917-  34 1.56  57 1.56  90 1.56   1 1.56
 199  0.417  0.250  0.250-  14 1.56  91 1.56  67 1.56  38 1.56
 200  0.417  0.250  0.583-  15 1.56  39 1.56  92 1.56  68 1.56
 201  0.417  0.250  0.917-  93 1.56  69 1.56  13 1.56  37 1.56
 202  0.417  0.583  0.250-  17 1.56  70 1.56  94 1.56  41 1.56
 203  0.417  0.583  0.583-  18 1.56  42 1.56  71 1.56  95 1.56
 204  0.417  0.583  0.917-  16 1.56  72 1.56  96 1.56  40 1.56
 205  0.417  0.917  0.250-  97 1.56  44 1.56  11 1.56  64 1.56
 206  0.417  0.917  0.583-  12 1.56  45 1.56  98 1.56  65 1.56
 207  0.417  0.917  0.917-  99 1.56  43 1.56  66 1.56  10 1.56
 208  0.750  0.250  0.250-  23 1.56  47 1.56  76 1.56 100 1.56
 209  0.750  0.250  0.583-  24 1.56  48 1.56  77 1.56 101 1.56
 210  0.750  0.250  0.917-  78 1.56 102 1.56  22 1.56  46 1.56
 211  0.750  0.583  0.250-  26 1.56  79 1.56  50 1.56 103 1.56
 212  0.750  0.583  0.583-  27 1.56  51 1.56  80 1.56 104 1.56
 213  0.750  0.583  0.917-  81 1.56  25 1.56 105 1.56  49 1.56
 214  0.750  0.917  0.250-  53 1.56 106 1.56  73 1.56  20 1.56
 215  0.750  0.917  0.583-  54 1.56  21 1.56 107 1.56  74 1.56
 216  0.750  0.917  0.917- 108 1.56  75 1.56  52 1.56  19 1.56
 
  LATTYP: Found a simple cubic cell.
 ALAT       =    10.7937976276
  
  Lattice vectors:
  
 A1 = (  10.7937976276,   0.0000000000,   0.0000000000)
 A2 = (   0.0000000000,  10.7937976276,   0.0000000000)
 A3 = (   0.0000000000,   0.0000000000,  10.7937976276)


Analysis of symmetry for initial positions (statically):
=====================================================================
 Subroutine PRICEL returns following result:
 
  LATTYP: Found a face centered cubic cell.
 ALAT       =     3.5979325425
  
  Lattice vectors:
  
 A1 = (   1.7989662713,  -1.7989662713,   0.0000000000)
 A2 = (   1.7989662713,   0.0000000000,   1.7989662713)
 A3 = (   0.0000000000,  -1.7989662713,   1.7989662713)
 
 108 primitive cells build up your supercell.
 

 Routine SETGRP: Setting up the symmetry group for a 
 simple cubic supercell.


 Subroutine GETGRP returns: Found 24 space group operations
 (whereof 24 operations were pure point group operations)
 out of a pool of 48 trial point group operations.


The static configuration has the point symmetry T_d .


Analysis of symmetry for dynamics (positions and initial velocities):
=====================================================================
 Subroutine PRICEL returns following result:
 
  LATTYP: Found a face centered cubic cell.
 ALAT       =     3.5979325425
  
  Lattice vectors:
  
 A1 = (   1.7989662713,  -1.7989662713,   0.0000000000)
 A2 = (   1.7989662713,   0.0000000000,   1.7989662713)
 A3 = (   0.0000000000,  -1.7989662713,   1.7989662713)
 
 108 primitive cells build up your supercell.
 

 Routine SETGRP: Setting up the symmetry group for a 
 simple cubic supercell.


 Subroutine GETGRP returns: Found 24 space group operations
 (whereof 24 operations were pure point group operations)
 out of a pool of 48 trial point group operations.


The dynamic configuration has the point symmetry T_d .


Analysis of structural, dynamic, and magnetic symmetry:
=====================================================================
 Subroutine PRICEL returns following result:
 
  LATTYP: Found a face centered cubic cell.
 ALAT       =     3.5979325425
  
  Lattice vectors:
  
 A1 = (   1.7989662713,  -1.7989662713,   0.0000000000)
 A2 = (   1.7989662713,   0.0000000000,   1.7989662713)
 A3 = (   0.0000000000,  -1.7989662713,   1.7989662713)
 
 108 primitive cells build up your supercell.
 

 Routine SETGRP: Setting up the symmetry group for a 
 simple cubic supercell.


 Subroutine GETGRP returns: Found 24 space group operations
 (whereof 24 operations were pure point group operations)
 out of a pool of 48 trial point group operations.


The overall configuration has the point symmetry T_d .


 Subroutine INISYM returns: Found 24 space group operations
 (whereof 24 operations are pure point group operations),
 and found   108 'primitive' translations


----------------------------------------------------------------------------------------

                                     Primitive cell                                     

  volume of cell :      11.6439

  direct lattice vectors                    reciprocal lattice vectors
     1.798966271 -1.798966271  0.000000000     0.277937395 -0.277937395 -0.277937395
     1.798966271  0.000000000  1.798966271     0.277937395  0.277937395  0.277937395
     0.000000000 -1.798966271  1.798966271    -0.277937395 -0.277937395  0.277937395

  length of vectors
     2.544122499  2.544122499  2.544122499     0.481401690  0.481401690  0.481401690

  position of ions in fractional coordinates (direct lattice)
     0.000000000  0.000000000  0.000000000
     0.750000000  0.750000000  0.750000000

  ion indices of the primitive-cell ions
   primitive index   ion index
                 1           1
                 2         109

----------------------------------------------------------------------------------------

 
 
 KPOINTS: Num irrep kpoints: 4                    

Automatic generation of k-mesh.
 Grid dimensions read from file:
 generate k-points for:    1    1    1

 Generating k-lattice:

  Cartesian coordinates                     Fractional coordinates (reciprocal lattice)
     0.092645798  0.000000000  0.000000000     1.000000000  0.000000000  0.000000000
     0.000000000  0.092645798  0.000000000     0.000000000  1.000000000  0.000000000
     0.000000000  0.000000000  0.092645798     0.000000000  0.000000000  1.000000000

  Length of vectors
     0.092645798  0.092645798  0.092645798

  Shift w.r.t. Gamma in fractional coordinates (k-lattice)
     0.000000000  0.000000000  0.000000000

 
 Subroutine IBZKPT returns following result:
 ===========================================
 
 Found      1 irreducible k-points:
 
 Following reciprocal coordinates:
            Coordinates               Weight
  0.000000  0.000000  0.000000      1.000000
 
 Following cartesian coordinates:
            Coordinates               Weight
  0.000000  0.000000  0.000000      1.000000
 
 
 Subroutine IBZKPT_HF returns following result:
 ==============================================
 
 Found      1 k-points in 1st BZ
 the following      1 k-points will be used (e.g. in the exchange kernel)
 Following reciprocal coordinates:   # in IRBZ
  0.000000  0.000000  0.000000    1.00000000   1 t-inv F


--------------------------------------------------------------------------------------------------------




 Dimension of arrays:
   k-points           NKPTS =      1   k-points in BZ     NKDIM =      1   number of bands    NBANDS=    652
   number of dos      NEDOS =    301   number of ions     NIONS =    216
   non local maximal  LDIM  =      4   non local SUM 2l+1 LMDIM =      8
   total plane-waves  NPLWV = 512000
   max r-space proj   IRMAX =   5052   max aug-charges    IRDMAX=   6548
   dimension x,y,z NGX =    80 NGY =   80 NGZ =   80
   dimension x,y,z NGXF=   160 NGYF=  160 NGZF=  160
   support grid    NGXF=   160 NGYF=  160 NGZF=  160
   ions per type =             108 108
   NGX,Y,Z   is equivalent  to a cutoff of  12.32, 12.32, 12.32 a.u.
   NGXF,Y,Z  is equivalent  to a cutoff of  24.64, 24.64, 24.64 a.u.

 SYSTEM =  unknown system                          
 POSCAR =  B108 N108                               

 Startparameter for this run:
   NWRITE =      2    write-flag & timer
   PREC   = accura    normal or accurate (medium, high low for compatibility)
   ISTART =      0    job   : 0-new  1-cont  2-samecut
   ICHARG =      2    charge: 1-file 2-atom 10-const
   ISPIN  =      2    spin polarized calculation?
   LNONCOLLINEAR =      F non collinear calculations
   LSORBIT =      F    spin-orbit coupling
   INIWAV =      1    electr: 0-lowe 1-rand  2-diag
   LASPH  =      F    aspherical Exc in radial PAW
 Electronic Relaxation 1
   ENCUT  =  500.0 eV  36.75 Ry    6.06 a.u.  19.68 19.68 19.68*2*pi/ulx,y,z
   ENINI  =  500.0     initial cutoff
   ENAUG  =  627.1 eV  augmentation charge cutoff
   NELM   =    100;   NELMIN=  2; NELMDL= -5     # of ELM steps 
   EDIFF  = 0.1E-05   stopping-criterion for ELM
   LREAL  =      T    real-space projection
   NLSPLINE    = F    spline interpolate recip. space projectors
   LCOMPAT=      F    compatible to vasp.4.4
   GGA_COMPAT  = T    GGA compatible to vasp.4.4-vasp.4.6
   LMAXPAW     = -100 max onsite density
   LMAXMIX     =    2 max onsite mixed and CHGCAR
   VOSKOWN=      0    Vosko Wilk Nusair interpolation
   ROPT   =   -0.00025  -0.00025
 Ionic relaxation
   EDIFFG = -.3E-01   stopping-criterion for IOM
   NSW    =    140    number of steps for IOM
   NBLOCK =      1;   KBLOCK =    140    inner block; outer block 
   IBRION =      2    ionic relax: 0-MD 1-quasi-New 2-CG
   NFREE  =      1    steps in history (QN), initial steepest desc. (CG)
   ISIF   =      2    stress and relaxation
   IWAVPR =     11    prediction:  0-non 1-charg 2-wave 3-comb
   ISYM   =      3    0-nonsym 1-usesym 2-fastsym
   LCORR  =      T    Harris-Foulkes like correction to forces

   POTIM  = 0.5000    time-step for ionic-motion
   TEIN   =    0.0    initial temperature
   TEBEG  =    0.0;   TEEND  =   0.0 temperature during run
   SMASS  =  -3.00    Nose mass-parameter (am)
   estimated Nose-frequenzy (Omega)   =  0.10E-29 period in steps = 0.13E+47 mass=  -0.266E-26a.u.
   SCALEE = 1.0000    scale energy and forces
   NPACO  =    256;   APACO  = 10.0  distance and # of slots for P.C.
   PSTRESS=    0.0 pullay stress

  Mass of Ions in am
   POMASS =  10.81 14.00
  Ionic Valenz
   ZVAL   =   3.00  5.00
  Atomic Wigner-Seitz radii
   RWIGS  =  -1.00 -1.00
  virtual crystal weights 
   VCA    =   1.00  1.00
   NELECT =     864.0000    total number of electrons
   NUPDOWN=      -1.0000    fix difference up-down

 DOS related values:
   EMIN   =  10.00;   EMAX   =-10.00  energy-range for DOS
   EFERMI =   0.00;   METHOD = LEGACY      
   ISMEAR =     0;   SIGMA  =   0.01  broadening in eV -4-tet -1-fermi 0-gaus

 Electronic relaxation 2 (details)
   IALGO  =     38    algorithm
   LDIAG  =      T    sub-space diagonalisation (order eigenvalues)
   LSUBROT=      F    optimize rotation matrix (better conditioning)
   TURBO    =      0    0=normal 1=particle mesh
   IRESTART =      0    0=no restart 2=restart with 2 vectors
   NREBOOT  =      0    no. of reboots
   NMIN     =      0    reboot dimension
   EREF     =   0.00    reference energy to select bands
   IMIX   =      1    mixing-type and parameters
     AMIX     =   0.40;   BMIX     =  1.00
     AMIX_MAG =   1.60;   BMIX_MAG =  1.00
     AMIN     =   0.10
     WC   =   100.;   INIMIX=   1;  MIXPRE=   1;  MAXMIX= -45

 Intra band minimization:
   WEIMIN = 0.0010     energy-eigenvalue tresh-hold
   EBREAK =  0.38E-09  absolut break condition
   DEPER  =   0.30     relativ break condition  

   TIME   =   0.40     timestep for ELM

  volume/ion in A,a.u.               =       5.82        39.29
  Fermi-wavevector in a.u.,A,eV,Ry     =   1.444570  2.729841 28.392384  2.086781
  Thomas-Fermi vector in A             =   2.562850
 
 Write flags
   LWAVE        =      T    write WAVECAR
   LDOWNSAMPLE  =      F    k-point downsampling of WAVECAR
   LCHARG       =      T    write CHGCAR
   LVTOT        =      F    write LOCPOT, total local potential
   LVHAR        =      F    write LOCPOT, Hartree potential only
   LELF         =      F    write electronic localiz. function (ELF)
   LORBIT       =     10    0 simple, 1 ext, 2 COOP (PROOUT), +10 PAW based schemes


 Dipole corrections
   LMONO  =      F    monopole corrections only (constant potential shift)
   LDIPOL =      F    correct potential (dipole corrections)
   IDIPOL =      0    1-x, 2-y, 3-z, 4-all directions 
   EPSILON=  1.0000000 bulk dielectric constant

 Exchange correlation treatment:
   GGA     =    --    GGA type
   LEXCH   =     8    internal setting for exchange type
   LIBXC   =     F    Libxc                    
   VOSKOWN =     0    Vosko Wilk Nusair interpolation
   EXXOEP  =     0    0=HF, 1=EXX-LHF (local Hartree Fock) 2=EXX OEP
   LHFCALC =     T    Hartree Fock is set to
   LSYMGRAD=     F    symmetrize gradient (conserves proper symmetry)
   PRECFOCK=normal    Normal, Fast or Accurate (Low or Medium for compatibility)
   LRHFCALC=     F    long range Hartree Fock
   LRSCOR  =     F    long range correlation only (use DFT for short range part)
   LTHOMAS =     F    Thomas Fermi screening in HF
   LMODELHF=     F    short range full HF, long range fraction AEXX
   FOCKCORR=     1    mode to apply convergence corrections
   LFOCKACE=     T    use Adeptively-Compressed-Exchange operator
   ENCUT4O =  -1.0   cutoff for four orbital integrals eV
   LMAXFOCK=     4    L truncation for augmentation on plane wave grid
   LMAXFOCKAE=  -1    L truncation for all-electron charge restoration on plane wave grid
   NMAXFOCKAE=   1    number of basis functions for all-electron charge restoration
   LFOCKAEDFT=     F  apply the AE augmentation even for DFT
   NKREDX  =     1    reduce k-point grid by
   NKREDY  =     1    reduce k-point grid by
   NKREDZ  =     1    reduce k-point grid by
   SHIFTRED=     F    shift reduced grid of Gamma
   HFKIDENT=     F    idential grid for each k-point
   ODDONLY =     F    use only odd q-grid points
   EVENONLY=     F    use only even q-grid points
   HFALPHA =   -1.0000 decay constant for conv. correction
   MCALPHA =    0.0000 extent of test-charge in conv. correction in multipole expansion
   AEXX    =    0.2500 exact exchange contribution
   HFSCREEN=    0.2000 screening length (either q_TF or 0.3 A-1)
   HFSCREENC=   0.2000 screening length for correlation (either q_TF or 0.3 A-1)
   HFRCUT  =    0.0000 spherical cutoff for potential kernel
   ALDAX   =    0.7500 LDA exchange part
   AGGAX   =    0.7500 GGA exchange part
   ALDAC   =    1.0000 LDA correlation
   AGGAC   =    1.0000 GGA correlation
   ENCUTFOCK=  -1.0 apply spherical cutoff to Coloumb kernel
   NBANDSGWLOW=     1    first orbital included in HF term
   NBLOCK_FOCK=    64    blocking factor in FOCK_ACC

 Linear response parameters
   LEPSILON=     F    determine dielectric tensor
   LRPA    =     F    only Hartree local field effects (RPA)
   LNABLA  =     F    use nabla operator in PAW spheres
   LVEL    =     F    velocity operator in full k-point grid
   CSHIFT  =0.1000    complex shift for real part using Kramers Kronig
   OMEGAMAX=  -1.0    maximum frequency
   DEG_THRESHOLD= 0.2000000E-02 threshold for treating states as degnerate
   RTIME   =   -0.100 relaxation time in fs
  (WPLASMAI=    0.000 imaginary part of plasma frequency in eV, 0.658/RTIME)
   DFIELD  = 0.0000000 0.0000000 0.0000000 field for delta impulse in time
 
  Optional k-point grid parameters
   LKPOINTS_OPT  =     F    use optional k-point grid
   KPOINTS_OPT_MODE=     1    mode for optional k-point grid
 
 Orbital magnetization related:
   ORBITALMAG=     F  switch on orbital magnetization
   LCHIMAG   =     F  perturbation theory with respect to B field
   DQ        =  0.001000  dq finite difference perturbation B field
   LLRAUG    =     F  two centre corrections for induced B field
   LBONE     =     F  B-component reconstruction in AE one-centre
   LVGVCALC  =     T  calculate vGv susceptibility
   LVGVAPPL  =     F  apply vGv susceptibility instead of pGv for G=0

 Random number generation:
   RANDOM_GENERATOR = DEFAULT
   PCG_SEED         = not used


--------------------------------------------------------------------------------------------------------


 conjugate gradient relaxation of ions
 charge density and potential will be updated during run
 spin polarized calculation
 Variant of blocked Davidson
 Davidson routine will perform the subspace rotation
 perform sub-space diagonalisation
    after iterative eigenvector-optimisation
 Kerker-like  mixing scheme
 using additional bands          220
 real space projection scheme for non local part
 use partial core corrections
 calculate Harris-corrections to forces 
   (improved forces if not selfconsistent)
 use gradient corrections 
 use of overlap-Matrix (Vanderbilt PP)
 Gauss-broadening in eV      SIGMA  =   0.01


--------------------------------------------------------------------------------------------------------


  energy-cutoff  :      500.00
  volume of cell :     1257.54
      direct lattice vectors                 reciprocal lattice vectors
    10.793797628  0.000000000  0.000000000     0.092645798  0.000000000  0.000000000
     0.000000000 10.793797628  0.000000000     0.000000000  0.092645798  0.000000000
     0.000000000  0.000000000 10.793797628     0.000000000  0.000000000  0.092645798

  length of vectors
    10.793797628 10.793797628 10.793797628     0.092645798  0.092645798  0.092645798


 
 k-points in units of 2pi/SCALE and weight: Num irrep kpoints: 4                    
   0.00000000  0.00000000  0.00000000       1.000
 
 k-points in reciprocal lattice and weights: Num irrep kpoints: 4                    
   0.00000000  0.00000000  0.00000000       1.000
 
 position of ions in fractional coordinates (direct lattice) 
   0.00000000  0.00000000  0.00000000
   0.00000000  0.00000000  0.33333333
   0.00000000  0.00000000  0.66666667
   0.00000000  0.33333333  0.00000000
   0.00000000  0.33333333  0.33333333
   0.00000000  0.33333333  0.66666667
   0.00000000  0.66666667  0.00000000
   0.00000000  0.66666667  0.33333333
   0.00000000  0.66666667  0.66666667
   0.33333333  0.00000000  0.00000000
   0.33333333  0.00000000  0.33333333
   0.33333333  0.00000000  0.66666667
   0.33333333  0.33333333  0.00000000
   0.33333333  0.33333333  0.33333333
   0.33333333  0.33333333  0.66666667
   0.33333333  0.66666667  0.00000000
   0.33333333  0.66666667  0.33333333
   0.33333333  0.66666667  0.66666667
   0.66666667  0.00000000  0.00000000
   0.66666667  0.00000000  0.33333333
   0.66666667  0.00000000  0.66666667
   0.66666667  0.33333333  0.00000000
   0.66666667  0.33333333  0.33333333
   0.66666667  0.33333333  0.66666667
   0.66666667  0.66666667  0.00000000
   0.66666667  0.66666667  0.33333333
   0.66666667  0.66666667  0.66666667
   0.16666667  0.16666667  0.00000000
   0.16666667  0.16666667  0.33333333
   0.16666667  0.16666667  0.66666667
   0.16666667  0.50000000  0.00000000
   0.16666667  0.50000000  0.33333333
   0.16666667  0.50000000  0.66666667
   0.16666667  0.83333333  0.00000000
   0.16666667  0.83333333  0.33333333
   0.16666667  0.83333333  0.66666667
   0.50000000  0.16666667  0.00000000
   0.50000000  0.16666667  0.33333333
   0.50000000  0.16666667  0.66666667
   0.50000000  0.50000000  0.00000000
   0.50000000  0.50000000  0.33333333
   0.50000000  0.50000000  0.66666667
   0.50000000  0.83333333  0.00000000
   0.50000000  0.83333333  0.33333333
   0.50000000  0.83333333  0.66666667
   0.83333333  0.16666667  0.00000000
   0.83333333  0.16666667  0.33333333
   0.83333333  0.16666667  0.66666667
   0.83333333  0.50000000  0.00000000
   0.83333333  0.50000000  0.33333333
   0.83333333  0.50000000  0.66666667
   0.83333333  0.83333333  0.00000000
   0.83333333  0.83333333  0.33333333
   0.83333333  0.83333333  0.66666667
   0.16666667  0.00000000  0.16666667
   0.16666667  0.00000000  0.50000000
   0.16666667  0.00000000  0.83333333
   0.16666667  0.33333333  0.16666667
   0.16666667  0.33333333  0.50000000
   0.16666667  0.33333333  0.83333333
   0.16666667  0.66666667  0.16666667
   0.16666667  0.66666667  0.50000000
   0.16666667  0.66666667  0.83333333
   0.50000000  0.00000000  0.16666667
   0.50000000  0.00000000  0.50000000
   0.50000000  0.00000000  0.83333333
   0.50000000  0.33333333  0.16666667
   0.50000000  0.33333333  0.50000000
   0.50000000  0.33333333  0.83333333
   0.50000000  0.66666667  0.16666667
   0.50000000  0.66666667  0.50000000
   0.50000000  0.66666667  0.83333333
   0.83333333  0.00000000  0.16666667
   0.83333333  0.00000000  0.50000000
   0.83333333  0.00000000  0.83333333
   0.83333333  0.33333333  0.16666667
   0.83333333  0.33333333  0.50000000
   0.83333333  0.33333333  0.83333333
   0.83333333  0.66666667  0.16666667
   0.83333333  0.66666667  0.50000000
   0.83333333  0.66666667  0.83333333
   0.00000000  0.16666667  0.16666667
   0.00000000  0.16666667  0.50000000
   0.00000000  0.16666667  0.83333333
   0.00000000  0.50000000  0.16666667
   0.00000000  0.50000000  0.50000000
   0.00000000  0.50000000  0.83333333
   0.00000000  0.83333333  0.16666667
   0.00000000  0.83333333  0.50000000
   0.00000000  0.83333333  0.83333333
   0.33333333  0.16666667  0.16666667
   0.33333333  0.16666667  0.50000000
   0.33333333  0.16666667  0.83333333
   0.33333333  0.50000000  0.16666667
   0.33333333  0.50000000  0.50000000
   0.33333333  0.50000000  0.83333333
   0.33333333  0.83333333  0.16666667
   0.33333333  0.83333333  0.50000000
   0.33333333  0.83333333  0.83333333
   0.66666667  0.16666667  0.16666667
   0.66666667  0.16666667  0.50000000
   0.66666667  0.16666667  0.83333333
   0.66666667  0.50000000  0.16666667
   0.66666667  0.50000000  0.50000000
   0.66666667  0.50000000  0.83333333
   0.66666667  0.83333333  0.16666667
   0.66666667  0.83333333  0.50000000
   0.66666667  0.83333333  0.83333333
   0.08333333  0.08333333  0.08333333
   0.08333333  0.08333333  0.41666667
   0.08333333  0.08333333  0.75000000
   0.08333333  0.41666667  0.08333333
   0.08333333  0.41666667  0.41666667
   0.08333333  0.41666667  0.75000000
   0.08333333  0.75000000  0.08333333
   0.08333333  0.75000000  0.41666667
   0.08333333  0.75000000  0.75000000
   0.41666667  0.08333333  0.08333333
   0.41666667  0.08333333  0.41666667
   0.41666667  0.08333333  0.75000000
   0.41666667  0.41666667  0.08333333
   0.41666667  0.41666667  0.41666667
   0.41666667  0.41666667  0.75000000
   0.41666667  0.75000000  0.08333333
   0.41666667  0.75000000  0.41666667
   0.41666667  0.75000000  0.75000000
   0.75000000  0.08333333  0.08333333
   0.75000000  0.08333333  0.41666667
   0.75000000  0.08333333  0.75000000
   0.75000000  0.41666667  0.08333333
   0.75000000  0.41666667  0.41666667
   0.75000000  0.41666667  0.75000000
   0.75000000  0.75000000  0.08333333
   0.75000000  0.75000000  0.41666667
   0.75000000  0.75000000  0.75000000
   0.25000000  0.25000000  0.08333333
   0.25000000  0.25000000  0.41666667
   0.25000000  0.25000000  0.75000000
   0.25000000  0.58333333  0.08333333
   0.25000000  0.58333333  0.41666667
   0.25000000  0.58333333  0.75000000
   0.25000000  0.91666667  0.08333333
   0.25000000  0.91666667  0.41666667
   0.25000000  0.91666667  0.75000000
   0.58333333  0.25000000  0.08333333
   0.58333333  0.25000000  0.41666667
   0.58333333  0.25000000  0.75000000
   0.58333333  0.58333333  0.08333333
   0.58333333  0.58333333  0.41666667
   0.58333333  0.58333333  0.75000000
   0.58333333  0.91666667  0.08333333
   0.58333333  0.91666667  0.41666667
   0.58333333  0.91666667  0.75000000
   0.91666667  0.25000000  0.08333333
   0.91666667  0.25000000  0.41666667
   0.91666667  0.25000000  0.75000000
   0.91666667  0.58333333  0.08333333
   0.91666667  0.58333333  0.41666667
   0.91666667  0.58333333  0.75000000
   0.91666667  0.91666667  0.08333333
   0.91666667  0.91666667  0.41666667
   0.91666667  0.91666667  0.75000000
   0.25000000  0.08333333  0.25000000
   0.25000000  0.08333333  0.58333333
   0.25000000  0.08333333  0.91666667
   0.25000000  0.41666667  0.25000000
   0.25000000  0.41666667  0.58333333
   0.25000000  0.41666667  0.91666667
   0.25000000  0.75000000  0.25000000
   0.25000000  0.75000000  0.58333333
   0.25000000  0.75000000  0.91666667
   0.58333333  0.08333333  0.25000000
   0.58333333  0.08333333  0.58333333
   0.58333333  0.08333333  0.91666667
   0.58333333  0.41666667  0.25000000
   0.58333333  0.41666667  0.58333333
   0.58333333  0.41666667  0.91666667
   0.58333333  0.75000000  0.25000000
   0.58333333  0.75000000  0.58333333
   0.58333333  0.75000000  0.91666667
   0.91666667  0.08333333  0.25000000
   0.91666667  0.08333333  0.58333333
   0.91666667  0.08333333  0.91666667
   0.91666667  0.41666667  0.25000000
   0.91666667  0.41666667  0.58333333
   0.91666667  0.41666667  0.91666667
   0.91666667  0.75000000  0.25000000
   0.91666667  0.75000000  0.58333333
   0.91666667  0.75000000  0.91666667
   0.08333333  0.25000000  0.25000000
   0.08333333  0.25000000  0.58333333
   0.08333333  0.25000000  0.91666667
   0.08333333  0.58333333  0.25000000
   0.08333333  0.58333333  0.58333333
   0.08333333  0.58333333  0.91666667
   0.08333333  0.91666667  0.25000000
   0.08333333  0.91666667  0.58333333
   0.08333333  0.91666667  0.91666667
   0.41666667  0.25000000  0.25000000
   0.41666667  0.25000000  0.58333333
   0.41666667  0.25000000  0.91666667
   0.41666667  0.58333333  0.25000000
   0.41666667  0.58333333  0.58333333
   0.41666667  0.58333333  0.91666667
   0.41666667  0.91666667  0.25000000
   0.41666667  0.91666667  0.58333333
   0.41666667  0.91666667  0.91666667
   0.75000000  0.25000000  0.25000000
   0.75000000  0.25000000  0.58333333
   0.75000000  0.25000000  0.91666667
   0.75000000  0.58333333  0.25000000
   0.75000000  0.58333333  0.58333333
   0.75000000  0.58333333  0.91666667
   0.75000000  0.91666667  0.25000000
   0.75000000  0.91666667  0.58333333
   0.75000000  0.91666667  0.91666667
 
 position of ions in cartesian coordinates  (Angst):
   0.00000000  0.00000000  0.00000000
   0.00000000  0.00000000  3.59793254
   0.00000000  0.00000000  7.19586509
   0.00000000  3.59793254  0.00000000
   0.00000000  3.59793254  3.59793254
   0.00000000  3.59793254  7.19586509
   0.00000000  7.19586509  0.00000000
   0.00000000  7.19586509  3.59793254
   0.00000000  7.19586509  7.19586509
   3.59793254  0.00000000  0.00000000
   3.59793254  0.00000000  3.59793254
   3.59793254  0.00000000  7.19586509
   3.59793254  3.59793254  0.00000000
   3.59793254  3.59793254  3.59793254
   3.59793254  3.59793254  7.19586509
   3.59793254  7.19586509  0.00000000
   3.59793254  7.19586509  3.59793254
   3.59793254  7.19586509  7.19586509
   7.19586509  0.00000000  0.00000000
   7.19586509  0.00000000  3.59793254
   7.19586509  0.00000000  7.19586509
   7.19586509  3.59793254  0.00000000
   7.19586509  3.59793254  3.59793254
   7.19586509  3.59793254  7.19586509
   7.19586509  7.19586509  0.00000000
   7.19586509  7.19586509  3.59793254
   7.19586509  7.19586509  7.19586509
   1.79896627  1.79896627  0.00000000
   1.79896627  1.79896627  3.59793254
   1.79896627  1.79896627  7.19586509
   1.79896627  5.39689881  0.00000000
   1.79896627  5.39689881  3.59793254
   1.79896627  5.39689881  7.19586509
   1.79896627  8.99483136  0.00000000
   1.79896627  8.99483136  3.59793254
   1.79896627  8.99483136  7.19586509
   5.39689881  1.79896627  0.00000000
   5.39689881  1.79896627  3.59793254
   5.39689881  1.79896627  7.19586509
   5.39689881  5.39689881  0.00000000
   5.39689881  5.39689881  3.59793254
   5.39689881  5.39689881  7.19586509
   5.39689881  8.99483136  0.00000000
   5.39689881  8.99483136  3.59793254
   5.39689881  8.99483136  7.19586509
   8.99483136  1.79896627  0.00000000
   8.99483136  1.79896627  3.59793254
   8.99483136  1.79896627  7.19586509
   8.99483136  5.39689881  0.00000000
   8.99483136  5.39689881  3.59793254
   8.99483136  5.39689881  7.19586509
   8.99483136  8.99483136  0.00000000
   8.99483136  8.99483136  3.59793254
   8.99483136  8.99483136  7.19586509
   1.79896627  0.00000000  1.79896627
   1.79896627  0.00000000  5.39689881
   1.79896627  0.00000000  8.99483136
   1.79896627  3.59793254  1.79896627
   1.79896627  3.59793254  5.39689881
   1.79896627  3.59793254  8.99483136
   1.79896627  7.19586509  1.79896627
   1.79896627  7.19586509  5.39689881
   1.79896627  7.19586509  8.99483136
   5.39689881  0.00000000  1.79896627
   5.39689881  0.00000000  5.39689881
   5.39689881  0.00000000  8.99483136
   5.39689881  3.59793254  1.79896627
   5.39689881  3.59793254  5.39689881
   5.39689881  3.59793254  8.99483136
   5.39689881  7.19586509  1.79896627
   5.39689881  7.19586509  5.39689881
   5.39689881  7.19586509  8.99483136
   8.99483136  0.00000000  1.79896627
   8.99483136  0.00000000  5.39689881
   8.99483136  0.00000000  8.99483136
   8.99483136  3.59793254  1.79896627
   8.99483136  3.59793254  5.39689881
   8.99483136  3.59793254  8.99483136
   8.99483136  7.19586509  1.79896627
   8.99483136  7.19586509  5.39689881
   8.99483136  7.19586509  8.99483136
   0.00000000  1.79896627  1.79896627
   0.00000000  1.79896627  5.39689881
   0.00000000  1.79896627  8.99483136
   0.00000000  5.39689881  1.79896627
   0.00000000  5.39689881  5.39689881
   0.00000000  5.39689881  8.99483136
   0.00000000  8.99483136  1.79896627
   0.00000000  8.99483136  5.39689881
   0.00000000  8.99483136  8.99483136
   3.59793254  1.79896627  1.79896627
   3.59793254  1.79896627  5.39689881
   3.59793254  1.79896627  8.99483136
   3.59793254  5.39689881  1.79896627
   3.59793254  5.39689881  5.39689881
   3.59793254  5.39689881  8.99483136
   3.59793254  8.99483136  1.79896627
   3.59793254  8.99483136  5.39689881
   3.59793254  8.99483136  8.99483136
   7.19586509  1.79896627  1.79896627
   7.19586509  1.79896627  5.39689881
   7.19586509  1.79896627  8.99483136
   7.19586509  5.39689881  1.79896627
   7.19586509  5.39689881  5.39689881
   7.19586509  5.39689881  8.99483136
   7.19586509  8.99483136  1.79896627
   7.19586509  8.99483136  5.39689881
   7.19586509  8.99483136  8.99483136
   0.89948314  0.89948314  0.89948314
   0.89948314  0.89948314  4.49741568
   0.89948314  0.89948314  8.09534822
   0.89948314  4.49741568  0.89948314
   0.89948314  4.49741568  4.49741568
   0.89948314  4.49741568  8.09534822
   0.89948314  8.09534822  0.89948314
   0.89948314  8.09534822  4.49741568
   0.89948314  8.09534822  8.09534822
   4.49741568  0.89948314  0.89948314
   4.49741568  0.89948314  4.49741568
   4.49741568  0.89948314  8.09534822
   4.49741568  4.49741568  0.89948314
   4.49741568  4.49741568  4.49741568
   4.49741568  4.49741568  8.09534822
   4.49741568  8.09534822  0.89948314
   4.49741568  8.09534822  4.49741568
   4.49741568  8.09534822  8.09534822
   8.09534822  0.89948314  0.89948314
   8.09534822  0.89948314  4.49741568
   8.09534822  0.89948314  8.09534822
   8.09534822  4.49741568  0.89948314
   8.09534822  4.49741568  4.49741568
   8.09534822  4.49741568  8.09534822
   8.09534822  8.09534822  0.89948314
   8.09534822  8.09534822  4.49741568
   8.09534822  8.09534822  8.09534822
   2.69844941  2.69844941  0.89948314
   2.69844941  2.69844941  4.49741568
   2.69844941  2.69844941  8.09534822
   2.69844941  6.29638195  0.89948314
   2.69844941  6.29638195  4.49741568
   2.69844941  6.29638195  8.09534822
   2.69844941  9.89431449  0.89948314
   2.69844941  9.89431449  4.49741568
   2.69844941  9.89431449  8.09534822
   6.29638195  2.69844941  0.89948314
   6.29638195  2.69844941  4.49741568
   6.29638195  2.69844941  8.09534822
   6.29638195  6.29638195  0.89948314
   6.29638195  6.29638195  4.49741568
   6.29638195  6.29638195  8.09534822
   6.29638195  9.89431449  0.89948314
   6.29638195  9.89431449  4.49741568
   6.29638195  9.89431449  8.09534822
   9.89431449  2.69844941  0.89948314
   9.89431449  2.69844941  4.49741568
   9.89431449  2.69844941  8.09534822
   9.89431449  6.29638195  0.89948314
   9.89431449  6.29638195  4.49741568
   9.89431449  6.29638195  8.09534822
   9.89431449  9.89431449  0.89948314
   9.89431449  9.89431449  4.49741568
   9.89431449  9.89431449  8.09534822
   2.69844941  0.89948314  2.69844941
   2.69844941  0.89948314  6.29638195
   2.69844941  0.89948314  9.89431449
   2.69844941  4.49741568  2.69844941
   2.69844941  4.49741568  6.29638195
   2.69844941  4.49741568  9.89431449
   2.69844941  8.09534822  2.69844941
   2.69844941  8.09534822  6.29638195
   2.69844941  8.09534822  9.89431449
   6.29638195  0.89948314  2.69844941
   6.29638195  0.89948314  6.29638195
   6.29638195  0.89948314  9.89431449
   6.29638195  4.49741568  2.69844941
   6.29638195  4.49741568  6.29638195
   6.29638195  4.49741568  9.89431449
   6.29638195  8.09534822  2.69844941
   6.29638195  8.09534822  6.29638195
   6.29638195  8.09534822  9.89431449
   9.89431449  0.89948314  2.69844941
   9.89431449  0.89948314  6.29638195
   9.89431449  0.89948314  9.89431449
   9.89431449  4.49741568  2.69844941
   9.89431449  4.49741568  6.29638195
   9.89431449  4.49741568  9.89431449
   9.89431449  8.09534822  2.69844941
   9.89431449  8.09534822  6.29638195
   9.89431449  8.09534822  9.89431449
   0.89948314  2.69844941  2.69844941
   0.89948314  2.69844941  6.29638195
   0.89948314  2.69844941  9.89431449
   0.89948314  6.29638195  2.69844941
   0.89948314  6.29638195  6.29638195
   0.89948314  6.29638195  9.89431449
   0.89948314  9.89431449  2.69844941
   0.89948314  9.89431449  6.29638195
   0.89948314  9.89431449  9.89431449
   4.49741568  2.69844941  2.69844941
   4.49741568  2.69844941  6.29638195
   4.49741568  2.69844941  9.89431449
   4.49741568  6.29638195  2.69844941
   4.49741568  6.29638195  6.29638195
   4.49741568  6.29638195  9.89431449
   4.49741568  9.89431449  2.69844941
   4.49741568  9.89431449  6.29638195
   4.49741568  9.89431449  9.89431449
   8.09534822  2.69844941  2.69844941
   8.09534822  2.69844941  6.29638195
   8.09534822  2.69844941  9.89431449
   8.09534822  6.29638195  2.69844941
   8.09534822  6.29638195  6.29638195
   8.09534822  6.29638195  9.89431449
   8.09534822  9.89431449  2.69844941
   8.09534822  9.89431449  6.29638195
   8.09534822  9.89431449  9.89431449
 


--------------------------------------------------------------------------------------------------------


 use parallel FFT for orbitals z direction half grid
 k-point   1 :   0.0000 0.0000 0.0000  plane waves:   15960

 maximum and minimum number of plane-waves per node :       809      790

 maximum number of plane-waves:     15960
 maximum index in each direction: 
   IXMAX=   19   IYMAX=   19   IZMAX=   19
   IXMIN=  -19   IYMIN=  -19   IZMIN=    0


 real space projection operators:
  total allocation   :      53820.50 KBytes
  max/ min on nodes  :       2830.50       2549.50


 parallel 3D FFT for wavefunctions:
    minimum data exchange during FFTs selected (reduces bandwidth)
 parallel 3D FFT for charge:
    minimum data exchange during FFTs selected (reduces bandwidth)


 FFT grid for exact exchange (Hartree Fock) 
  NGX = 60; NGY = 60; NGZ = 60

 use parallel FFT for orbitals z direction half grid
 
 Radii for the augmentation spheres in the non-local exchange
 for species   1 augmentation radius   0.959 (default was   0.767)
       energy cutoff for augmentation   2000.0
 for species   2 augmentation radius   0.886 (default was   0.709)
       energy cutoff for augmentation   2000.0

 real space projection operators:
  total allocation   :       8383.50 KBytes
  max/ min on nodes  :        493.59        330.33

 Maximum index for augmentation-charges in exchange           89
  SETUP_FOCK is finished

 total amount of memory used by VASP MPI-rank0    47262. kBytes
=======================================================================

   base      :      30000. kBytes
   nonlr-proj:       3893. kBytes
   fftplans  :       2668. kBytes
   grid      :       6195. kBytes
   one-center:         33. kBytes
   HF        :          9. kBytes
   wavefun   :       4464. kBytes
 
     INWAV:  cpu time      0.0000: real time      0.0000
 initial charge density was supplied:
 charge density of overlapping atoms calculated
 number of electron     864.0000000 magnetization     216.0000000
 keeping initial charge density in first step


--------------------------------------------------------------------------------------------------------


 Maximum index for non-local projection operator          349
 Maximum index for augmentation-charges          408 (set IRDMAX)


--------------------------------------------------------------------------------------------------------


 First call to EWALD:  gamma=   0.164
 Maximum number of real-space cells 3x 3x 3
 Maximum number of reciprocal cells 3x 3x 3

    FEWALD:  cpu time      0.0068: real time      0.0069


--------------------------------------- Ionic step        1  -------------------------------------------




--------------------------------------- Iteration      1(   1)  ---------------------------------------


    POTLOK:  cpu time      0.1079: real time      0.1447
    SETDIJ:  cpu time      0.0258: real time      0.0261
     EDDAV:  cpu time      3.2283: real time      3.2913
       DOS:  cpu time      0.0024: real time      0.0025
    --------------------------------------------
      LOOP:  cpu time      3.3644: real time      3.4647

 eigenvalue-minimisations  :  2608
 total energy-change (2. order) : 0.1179895E+04  (-0.5189220E+05)
 number of electron     864.0000000 magnetization     216.0000000
 augmentation part      864.0000000 magnetization     216.0000000

 Free energy of the ion-electron system (eV)
  ---------------------------------------------------
  alpha Z        PSCENC =      3300.56432637
  Ewald energy   TEWEN  =    -38889.54580115
  -Hartree energ DENC   =     -4024.32563328
  -exchange      EXHF   =         0.00000000
  -V(xc)+E(xc)   XCENC  =      3068.56445872
  PAW double counting   =     26803.78325781   -31707.88338099
  entropy T*S    EENTRO =        -0.00000298
  eigenvalues    EBANDS =      6747.75541169
  atomic energy  EATOM  =     35880.98237829
  Solvation  Ediel_sol  =         0.00000000
  ---------------------------------------------------
  free energy    TOTEN  =      1179.89501446 eV

  energy without entropy =     1179.89501744  energy(sigma->0) =     1179.89501595
  exchange ACFDT corr.  =         0.00000000  see jH, gK, PRB 81, 115126


--------------------------------------------------------------------------------------------------------




--------------------------------------- Iteration      1(   2)  ---------------------------------------


     EDDAV:  cpu time      3.7572: real time      3.7976
       DOS:  cpu time      0.0006: real time      0.0006
    --------------------------------------------
      LOOP:  cpu time      3.7578: real time      3.7982

 eigenvalue-minimisations  :  3224
 total energy-change (2. order) :-0.8032505E+04  (-0.7520996E+04)
 number of electron     864.0000000 magnetization     216.0000000
 augmentation part      864.0000000 magnetization     216.0000000

 Free energy of the ion-electron system (eV)
  ---------------------------------------------------
  alpha Z        PSCENC =      3300.56432637
  Ewald energy   TEWEN  =    -38889.54580115
  -Hartree energ DENC   =     -4024.32563328
  -exchange      EXHF   =         0.00000000
  -V(xc)+E(xc)   XCENC  =      3068.56445872
  PAW double counting   =     26803.78325781   -31707.88338099
  entropy T*S    EENTRO =        -0.00000000
  eigenvalues    EBANDS =     -1284.74995313
  atomic energy  EATOM  =     35880.98237829
  Solvation  Ediel_sol  =         0.00000000
  ---------------------------------------------------
  free energy    TOTEN  =     -6852.61034738 eV

  energy without entropy =    -6852.61034738  energy(sigma->0) =    -6852.61034738
  exchange ACFDT corr.  =         0.00000000  see jH, gK, PRB 81, 115126


--------------------------------------------------------------------------------------------------------




--------------------------------------- Iteration      1(   3)  ---------------------------------------


     EDDAV:  cpu time      3.9502: real time      3.9934
       DOS:  cpu time      0.0008: real time      0.0008
    --------------------------------------------
      LOOP:  cpu time      3.9510: real time      3.9942

 eigenvalue-minimisations  :  3432
 total energy-change (2. order) :-0.5329699E+03  (-0.5278784E+03)
 number of electron     864.0000000 magnetization     216.0000000
 augmentation part      864.0000000 magnetization     216.0000000

 Free energy of the ion-electron system (eV)
  ---------------------------------------------------
  alpha Z        PSCENC =      3300.56432637
  Ewald energy   TEWEN  =    -38889.54580115
  -Hartree energ DENC   =     -4024.32563328
  -exchange      EXHF   =         0.00000000
  -V(xc)+E(xc)   XCENC  =      3068.56445872
  PAW double counting   =     26803.78325781   -31707.88338099
  entropy T*S    EENTRO =        -0.00000000
  eigenvalues    EBANDS =     -1817.71981078
  atomic energy  EATOM  =     35880.98237829
  Solvation  Ediel_sol  =         0.00000000
  ---------------------------------------------------
  free energy    TOTEN  =     -7385.58020503 eV

  energy without entropy =    -7385.58020503  energy(sigma->0) =    -7385.58020503
  exchange ACFDT corr.  =         0.00000000  see jH, gK, PRB 81, 115126


--------------------------------------------------------------------------------------------------------




--------------------------------------- Iteration      1(   4)  ---------------------------------------


     EDDAV:  cpu time      3.8119: real time      3.8526
       DOS:  cpu time      0.0005: real time      0.0005
    --------------------------------------------
      LOOP:  cpu time      3.8124: real time      3.8531

 eigenvalue-minimisations  :  3288
 total energy-change (2. order) :-0.8095295E+01  (-0.8066550E+01)
 number of electron     864.0000000 magnetization     216.0000000
 augmentation part      864.0000000 magnetization     216.0000000

 Free energy of the ion-electron system (eV)
  ---------------------------------------------------
  alpha Z        PSCENC =      3300.56432637
  Ewald energy   TEWEN  =    -38889.54580115
  -Hartree energ DENC   =     -4024.32563328
  -exchange      EXHF   =         0.00000000
  -V(xc)+E(xc)   XCENC  =      3068.56445872
  PAW double counting   =     26803.78325781   -31707.88338099
  entropy T*S    EENTRO =        -0.00000000
  eigenvalues    EBANDS =     -1825.81510566
  atomic energy  EATOM  =     35880.98237829
  Solvation  Ediel_sol  =         0.00000000
  ---------------------------------------------------
  free energy    TOTEN  =     -7393.67549990 eV

  energy without entropy =    -7393.67549990  energy(sigma->0) =    -7393.67549990
  exchange ACFDT corr.  =         0.00000000  see jH, gK, PRB 81, 115126


--------------------------------------------------------------------------------------------------------




--------------------------------------- Iteration      1(   5)  ---------------------------------------


    POTLOK:  cpu time      0.2113: real time      0.2178
    SETDIJ:  cpu time      0.1159: real time      0.1168
     EDDAV:  cpu time    111.6614: real time    112.4424
       DOS:  cpu time      0.0005: real time      0.0005
    CHARGE:  cpu time      0.0934: real time      0.0960
    MIXING:  cpu time      0.0011: real time      0.0011
    --------------------------------------------
      LOOP:  cpu time    112.0837: real time    112.8746

 eigenvalue-minimisations  :  3052
 total energy-change (2. order) : 0.5119779E+04  (-0.8736581E+01)
 number of electron     864.0000000 magnetization    -129.6000000
 augmentation part       31.4062980 magnetization    -129.4681315

 Free energy of the ion-electron system (eV)
  ---------------------------------------------------
  alpha Z        PSCENC =      3300.56432637
  Ewald energy   TEWEN  =    -38889.54580115
  -Hartree energ DENC   =     -4024.32563328
  -exchange      EXHF   =      2216.93472425
  -V(xc)+E(xc)   XCENC  =      2353.73351189
  PAW double counting   =     27366.31144576   -27366.77657227
  entropy T*S    EENTRO =        -0.00000000
  eigenvalues    EBANDS =     -3111.77464249
  atomic energy  EATOM  =     35880.98237829
  Solvation  Ediel_sol  =         0.00000000
  ---------------------------------------------------
  free energy    TOTEN  =     -2273.89626263 eV

  energy without entropy =    -2273.89626263  energy(sigma->0) =    -2273.89626263
  exchange ACFDT corr.  =         0.00000000  see jH, gK, PRB 81, 115126


--------------------------------------------------------------------------------------------------------




--------------------------------------- Iteration      1(   6)  ---------------------------------------


    POTLOK:  cpu time      0.2120: real time      0.2185
    SETDIJ:  cpu time      0.1149: real time      0.1160
     EDDAV:  cpu time    109.5474: real time    110.3153
       DOS:  cpu time      0.0005: real time      0.0005
    CHARGE:  cpu time      0.0797: real time      0.0802
    MIXING:  cpu time      0.0012: real time      0.0012
    --------------------------------------------
      LOOP:  cpu time    109.9557: real time    110.7318

 eigenvalue-minimisations  :  3128
 total energy-change (2. order) : 0.9432710E+02  (-0.2686357E+02)
 number of electron     864.0000000 magnetization      77.7600000
 augmentation part       26.9141705 magnetization      78.0003516

 Free energy of the ion-electron system (eV)
  ---------------------------------------------------
  alpha Z        PSCENC =      3300.56432637
  Ewald energy   TEWEN  =    -38889.54580115
  -Hartree energ DENC   =     -4932.30602168
  -exchange      EXHF   =      2228.56253907
  -V(xc)+E(xc)   XCENC  =      2393.26590627
  PAW double counting   =     49091.25809099   -49108.70788158
  entropy T*S    EENTRO =        -0.00000000
  eigenvalues    EBANDS =     -2143.64270140
  atomic energy  EATOM  =     35880.98237829
  Solvation  Ediel_sol  =         0.00000000
  ---------------------------------------------------
  free energy    TOTEN  =     -2179.56916483 eV

  energy without entropy =    -2179.56916483  energy(sigma->0) =    -2179.56916483
  exchange ACFDT corr.  =         0.00000000  see jH, gK, PRB 81, 115126


--------------------------------------------------------------------------------------------------------




--------------------------------------- Iteration      1(   7)  ---------------------------------------


    POTLOK:  cpu time      0.2106: real time      0.2174
    SETDIJ:  cpu time      0.1136: real time      0.1143
     EDDAV:  cpu time    108.8736: real time    109.6379
       DOS:  cpu time      0.0005: real time      0.0005
    CHARGE:  cpu time      0.0795: real time      0.0800
    MIXING:  cpu time      0.0012: real time      0.0012
    --------------------------------------------
      LOOP:  cpu time    109.2790: real time    110.0514

 eigenvalue-minimisations  :  3128
 total energy-change (2. order) :-0.1466004E+02  (-0.6923848E+01)
 number of electron     864.0000000 magnetization     -46.6560000
 augmentation part       25.1750075 magnetization     -46.7731759

 Free energy of the ion-electron system (eV)
  ---------------------------------------------------
  alpha Z        PSCENC =      3300.56432637
  Ewald energy   TEWEN  =    -38889.54580115
  -Hartree energ DENC   =     -5203.77816751
  -exchange      EXHF   =      2157.90074656
  -V(xc)+E(xc)   XCENC  =      2404.80454821
  PAW double counting   =     66784.58267934   -66809.68322730
  entropy T*S    EENTRO =        -0.00000000
  eigenvalues    EBANDS =     -1820.05668808
  atomic energy  EATOM  =     35880.98237829
  Solvation  Ediel_sol  =         0.00000000
  ---------------------------------------------------
  free energy    TOTEN  =     -2194.22920526 eV

  energy without entropy =    -2194.22920526  energy(sigma->0) =    -2194.22920526
  exchange ACFDT corr.  =         0.00000000  see jH, gK, PRB 81, 115126


--------------------------------------------------------------------------------------------------------




--------------------------------------- Iteration      1(   8)  ---------------------------------------


    POTLOK:  cpu time      0.2102: real time      0.2170
    SETDIJ:  cpu time      0.1129: real time      0.1137
     EDDAV:  cpu time    109.2128: real time    109.9840
       DOS:  cpu time      0.0005: real time      0.0005
    CHARGE:  cpu time      0.0796: real time      0.0801
    MIXING:  cpu time      0.0011: real time      0.0012
    --------------------------------------------
      LOOP:  cpu time    109.6172: real time    110.3964

 eigenvalue-minimisations  :  3048
 total energy-change (2. order) :-0.3098780E+01  (-0.4801984E+00)
 number of electron     864.0000000 magnetization      27.9936000
 augmentation part       25.1297123 magnetization      28.0909313

 Free energy of the ion-electron system (eV)
  ---------------------------------------------------
  alpha Z        PSCENC =      3300.56432637
  Ewald energy   TEWEN  =    -38889.54580115
  -Hartree energ DENC   =     -5220.09736338
  -exchange      EXHF   =      2126.71114356
  -V(xc)+E(xc)   XCENC  =      2404.31085276
  PAW double counting   =     79900.18556259   -79928.89515795
  entropy T*S    EENTRO =        -0.00000000
  eigenvalues    EBANDS =     -1771.54392620
  atomic energy  EATOM  =     35880.98237829
  Solvation  Ediel_sol  =         0.00000000
  ---------------------------------------------------
  free energy    TOTEN  =     -2197.32798511 eV

  energy without entropy =    -2197.32798511  energy(sigma->0) =    -2197.32798511
  exchange ACFDT corr.  =         0.00000000  see jH, gK, PRB 81, 115126


--------------------------------------------------------------------------------------------------------




--------------------------------------- Iteration      1(   9)  ---------------------------------------


    POTLOK:  cpu time      0.2096: real time      0.2164
    SETDIJ:  cpu time      0.1130: real time      0.1138
     EDDAV:  cpu time    108.6769: real time    109.4288
       DOS:  cpu time      0.0005: real time      0.0005
    CHARGE:  cpu time      0.0796: real time      0.0802
    MIXING:  cpu time      0.0012: real time      0.0012
    --------------------------------------------
      LOOP:  cpu time    109.0808: real time    109.8408

 eigenvalue-minimisations  :  3024
 total energy-change (2. order) :-0.8602458E+00  (-0.2538718E+00)
 number of electron     864.0000000 magnetization     -16.7961600
 augmentation part       25.3317663 magnetization     -16.8601661

 Free energy of the ion-electron system (eV)
  ---------------------------------------------------
  alpha Z        PSCENC =      3300.56432637
  Ewald energy   TEWEN  =    -38889.54580115
  -Hartree energ DENC   =     -5224.42752768
  -exchange      EXHF   =      2124.61587131
  -V(xc)+E(xc)   XCENC  =      2404.20684914
  PAW double counting   =     88743.44650547   -88774.22667118
  entropy T*S    EENTRO =        -0.00000000
  eigenvalues    EBANDS =     -1763.80416148
  atomic energy  EATOM  =     35880.98237829
  Solvation  Ediel_sol  =         0.00000000
  ---------------------------------------------------
  free energy    TOTEN  =     -2198.18823091 eV

  energy without entropy =    -2198.18823091  energy(sigma->0) =    -2198.18823091
  exchange ACFDT corr.  =         0.00000000  see jH, gK, PRB 81, 115126


--------------------------------------------------------------------------------------------------------




--------------------------------------- Iteration      1(  10)  ---------------------------------------


    POTLOK:  cpu time      0.2104: real time      0.2172
    SETDIJ:  cpu time      0.1134: real time      0.1142
     EDDAV:  cpu time    109.0293: real time    109.8162
       DOS:  cpu time      0.0005: real time      0.0005
    CHARGE:  cpu time      0.0794: real time      0.0799
    MIXING:  cpu time      0.0011: real time      0.0011
    --------------------------------------------
      LOOP:  cpu time    109.4341: real time    110.2291

 eigenvalue-minimisations  :  3000
 total energy-change (2. order) :-0.6462473E+00  (-0.9163582E-01)
 number of electron     864.0000000 magnetization      10.0776960
 augmentation part       25.4174726 magnetization      10.1178931

 Free energy of the ion-electron system (eV)
  ---------------------------------------------------
  alpha Z        PSCENC =      3300.56432637
  Ewald energy   TEWEN  =    -38889.54580115
  -Hartree energ DENC   =     -5244.30021098
  -exchange      EXHF   =      2127.25815507
  -V(xc)+E(xc)   XCENC  =      2405.37296386
  PAW double counting   =     94345.18867593   -94377.25608724
  entropy T*S    EENTRO =        -0.00000000
  eigenvalues    EBANDS =     -1747.09887837
  atomic energy  EATOM  =     35880.98237829
  Solvation  Ediel_sol  =         0.00000000
  ---------------------------------------------------
  free energy    TOTEN  =     -2198.83447821 eV

  energy without entropy =    -2198.83447821  energy(sigma->0) =    -2198.83447821
  exchange ACFDT corr.  =         0.00000000  see jH, gK, PRB 81, 115126


--------------------------------------------------------------------------------------------------------




--------------------------------------- Iteration      1(  11)  ---------------------------------------


    POTLOK:  cpu time      0.2088: real time      0.2151
    SETDIJ:  cpu time      0.1134: real time      0.1142
     EDDAV:  cpu time    109.2573: real time    110.0048
       DOS:  cpu time      0.0005: real time      0.0005
    CHARGE:  cpu time      0.0797: real time      0.0801
    MIXING:  cpu time      0.0012: real time      0.0012
    --------------------------------------------
      LOOP:  cpu time    109.6609: real time    110.4159

 eigenvalue-minimisations  :  2992
 total energy-change (2. order) :-0.2501039E+00  (-0.2337655E-01)
 number of electron     864.0000000 magnetization      -6.0466176
 augmentation part       25.4096105 magnetization      -6.0626169

 Free energy of the ion-electron system (eV)
  ---------------------------------------------------
  alpha Z        PSCENC =      3300.56432637
  Ewald energy   TEWEN  =    -38889.54580115
  -Hartree energ DENC   =     -5264.92707021
  -exchange      EXHF   =      2128.48123044
  -V(xc)+E(xc)   XCENC  =      2406.66098690
  PAW double counting   =     97757.56039633   -97790.39521743
  entropy T*S    EENTRO =        -0.00000000
  eigenvalues    EBANDS =     -1728.46581169
  atomic energy  EATOM  =     35880.98237829
  Solvation  Ediel_sol  =         0.00000000
  ---------------------------------------------------
  free energy    TOTEN  =     -2199.08458215 eV

  energy without entropy =    -2199.08458215  energy(sigma->0) =    -2199.08458215
  exchange ACFDT corr.  =         0.00000000  see jH, gK, PRB 81, 115126


--------------------------------------------------------------------------------------------------------




--------------------------------------- Iteration      1(  12)  ---------------------------------------


    POTLOK:  cpu time      0.2092: real time      0.2160
    SETDIJ:  cpu time      0.1135: real time      0.1142
     EDDAV:  cpu time    112.5606: real time    113.3420
       DOS:  cpu time      0.0005: real time      0.0005
    CHARGE:  cpu time      0.0793: real time      0.0798
    MIXING:  cpu time      0.0012: real time      0.0012
    --------------------------------------------
      LOOP:  cpu time    112.9643: real time    113.7538

 eigenvalue-minimisations  :  3040
 total energy-change (2. order) :-0.9342682E-01  (-0.8080494E-02)
 number of electron     864.0000000 magnetization       3.6279706
 augmentation part       25.3840867 magnetization       3.6405931

 Free energy of the ion-electron system (eV)
  ---------------------------------------------------
  alpha Z        PSCENC =      3300.56432637
  Ewald energy   TEWEN  =    -38889.54580115
  -Hartree energ DENC   =     -5277.85765423
  -exchange      EXHF   =      2128.31405547
  -V(xc)+E(xc)   XCENC  =      2407.48936585
  PAW double counting   =     99810.45196591   -99843.71239409
  entropy T*S    EENTRO =        -0.00000000
  eigenvalues    EBANDS =     -1715.86425139
  atomic energy  EATOM  =     35880.98237829
  Solvation  Ediel_sol  =         0.00000000
  ---------------------------------------------------
  free energy    TOTEN  =     -2199.17800898 eV

  energy without entropy =    -2199.17800898  energy(sigma->0) =    -2199.17800898
  exchange ACFDT corr.  =         0.00000000  see jH, gK, PRB 81, 115126


--------------------------------------------------------------------------------------------------------




--------------------------------------- Iteration      1(  13)  ---------------------------------------


    POTLOK:  cpu time      0.2098: real time      0.2167
    SETDIJ:  cpu time      0.1131: real time      0.1138
     EDDAV:  cpu time    109.3613: real time    110.1475
       DOS:  cpu time      0.0005: real time      0.0005
    CHARGE:  cpu time      0.0798: real time      0.0803
    MIXING:  cpu time      0.0011: real time      0.0011
    --------------------------------------------
      LOOP:  cpu time    109.7657: real time    110.5600

 eigenvalue-minimisations  :  3048
 total energy-change (2. order) :-0.3743315E-01  (-0.2966875E-02)
 number of electron     864.0000000 magnetization      -2.1767823
 augmentation part       25.3691001 magnetization      -2.1839045

 Free energy of the ion-electron system (eV)
  ---------------------------------------------------
  alpha Z        PSCENC =      3300.56432637
  Ewald energy   TEWEN  =    -38889.54580115
  -Hartree energ DENC   =     -5284.18052561
  -exchange      EXHF   =      2127.88862514
  -V(xc)+E(xc)   XCENC  =      2407.90717062
  PAW double counting   =    101039.21631032  -101072.70477156
  entropy T*S    EENTRO =        -0.00000000
  eigenvalues    EBANDS =     -1709.34315455
  atomic energy  EATOM  =     35880.98237829
  Solvation  Ediel_sol  =         0.00000000
  ---------------------------------------------------
  free energy    TOTEN  =     -2199.21544212 eV

  energy without entropy =    -2199.21544212  energy(sigma->0) =    -2199.21544212
  exchange ACFDT corr.  =         0.00000000  see jH, gK, PRB 81, 115126


--------------------------------------------------------------------------------------------------------




--------------------------------------- Iteration      1(  14)  ---------------------------------------


    POTLOK:  cpu time      0.2093: real time      0.2162
    SETDIJ:  cpu time      0.1141: real time      0.1148
     EDDAV:  cpu time    109.4948: real time    110.2660
       DOS:  cpu time      0.0005: real time      0.0005
    CHARGE:  cpu time      0.0796: real time      0.0800
    MIXING:  cpu time      0.0014: real time      0.0014
    --------------------------------------------
      LOOP:  cpu time    109.8997: real time    110.6791

 eigenvalue-minimisations  :  3016
 total energy-change (2. order) :-0.1415327E-01  (-0.9687190E-03)
 number of electron     864.0000000 magnetization       1.3060694
 augmentation part       25.3646388 magnetization       1.3102704

 Free energy of the ion-electron system (eV)
  ---------------------------------------------------
  alpha Z        PSCENC =      3300.56432637
  Ewald energy   TEWEN  =    -38889.54580115
  -Hartree energ DENC   =     -5287.03726262
  -exchange      EXHF   =      2127.63477432
  -V(xc)+E(xc)   XCENC  =      2408.10387648
  PAW double counting   =    101771.23958644  -101804.85651981
  entropy T*S    EENTRO =        -0.00000000
  eigenvalues    EBANDS =     -1706.31495372
  atomic energy  EATOM  =     35880.98237829
  Solvation  Ediel_sol  =         0.00000000
  ---------------------------------------------------
  free energy    TOTEN  =     -2199.22959539 eV

  energy without entropy =    -2199.22959539  energy(sigma->0) =    -2199.22959539
  exchange ACFDT corr.  =         0.00000000  see jH, gK, PRB 81, 115126


--------------------------------------------------------------------------------------------------------




--------------------------------------- Iteration      1(  15)  ---------------------------------------


    POTLOK:  cpu time      0.2101: real time      0.2160
    SETDIJ:  cpu time      0.1129: real time      0.1137
     EDDAV:  cpu time    108.8143: real time    109.5896
       DOS:  cpu time      0.0005: real time      0.0005
    CHARGE:  cpu time      0.0795: real time      0.0800
    MIXING:  cpu time      0.0011: real time      0.0012
    --------------------------------------------
      LOOP:  cpu time    109.2185: real time    110.0010

 eigenvalue-minimisations  :  2952
 total energy-change (2. order) :-0.5281928E-02  (-0.3365821E-03)
 number of electron     864.0000000 magnetization      -0.7836416
 augmentation part       25.3641989 magnetization      -0.7861051

 Free energy of the ion-electron system (eV)
  ---------------------------------------------------
  alpha Z        PSCENC =      3300.56432637
  Ewald energy   TEWEN  =    -38889.54580115
  -Hartree energ DENC   =     -5288.51964588
  -exchange      EXHF   =      2127.55320358
  -V(xc)+E(xc)   XCENC  =      2408.20860855
  PAW double counting   =    102204.48879936  -102238.16946298
  entropy T*S    EENTRO =        -0.00000000
  eigenvalues    EBANDS =     -1704.79728346
  atomic energy  EATOM  =     35880.98237829
  Solvation  Ediel_sol  =         0.00000000
  ---------------------------------------------------
  free energy    TOTEN  =     -2199.23487732 eV

  energy without entropy =    -2199.23487732  energy(sigma->0) =    -2199.23487732
  exchange ACFDT corr.  =         0.00000000  see jH, gK, PRB 81, 115126


--------------------------------------------------------------------------------------------------------




--------------------------------------- Iteration      1(  16)  ---------------------------------------


    POTLOK:  cpu time      0.2096: real time      0.2156
    SETDIJ:  cpu time      0.1134: real time      0.1141
     EDDAV:  cpu time    108.6122: real time    109.3980
       DOS:  cpu time      0.0005: real time      0.0005
    CHARGE:  cpu time      0.0795: real time      0.0800
    MIXING:  cpu time      0.0012: real time      0.0012
    --------------------------------------------
      LOOP:  cpu time    109.0164: real time    109.8094

 eigenvalue-minimisations  :  2984
 total energy-change (2. order) :-0.1954032E-02  (-0.1246047E-03)
 number of electron     864.0000000 magnetization       0.4701850
 augmentation part       25.3642951 magnetization       0.4717377

 Free energy of the ion-electron system (eV)
  ---------------------------------------------------
  alpha Z        PSCENC =      3300.56432637
  Ewald energy   TEWEN  =    -38889.54580115
  -Hartree energ DENC   =     -5289.45854901
  -exchange      EXHF   =      2127.54193612
  -V(xc)+E(xc)   XCENC  =      2408.27462118
  PAW double counting   =    102459.90749232  -102493.62665644
  entropy T*S    EENTRO =        -0.00000000
  eigenvalues    EBANDS =     -1703.87657903
  atomic energy  EATOM  =     35880.98237829
  Solvation  Ediel_sol  =         0.00000000
  ---------------------------------------------------
  free energy    TOTEN  =     -2199.23683135 eV

  energy without entropy =    -2199.23683135  energy(sigma->0) =    -2199.23683135
  exchange ACFDT corr.  =         0.00000000  see jH, gK, PRB 81, 115126


--------------------------------------------------------------------------------------------------------




--------------------------------------- Iteration      1(  17)  ---------------------------------------


    POTLOK:  cpu time      0.2097: real time      0.2175
    SETDIJ:  cpu time      0.1128: real time      0.1135
     EDDAV:  cpu time    109.0401: real time    109.7783
       DOS:  cpu time      0.0005: real time      0.0005
    CHARGE:  cpu time      0.0802: real time      0.0807
    MIXING:  cpu time      0.0012: real time      0.0012
    --------------------------------------------
      LOOP:  cpu time    109.4445: real time    110.1917

 eigenvalue-minimisations  :  3048
 total energy-change (2. order) :-0.7368085E-03  (-0.4535353E-04)
 number of electron     864.0000000 magnetization      -0.2821110
 augmentation part       25.3641033 magnetization      -0.2830090

 Free energy of the ion-electron system (eV)
  ---------------------------------------------------
  alpha Z        PSCENC =      3300.56432637
  Ewald energy   TEWEN  =    -38889.54580115
  -Hartree energ DENC   =     -5290.09313431
  -exchange      EXHF   =      2127.54268098
  -V(xc)+E(xc)   XCENC  =      2408.31849584
  PAW double counting   =    102609.48893278  -102643.22693934
  entropy T*S    EENTRO =        -0.00000000
  eigenvalues    EBANDS =     -1703.26850763
  atomic energy  EATOM  =     35880.98237829
  Solvation  Ediel_sol  =         0.00000000
  ---------------------------------------------------
  free energy    TOTEN  =     -2199.23756816 eV

  energy without entropy =    -2199.23756816  energy(sigma->0) =    -2199.23756816
  exchange ACFDT corr.  =         0.00000000  see jH, gK, PRB 81, 115126


--------------------------------------------------------------------------------------------------------




--------------------------------------- Iteration      1(  18)  ---------------------------------------


    POTLOK:  cpu time      0.2104: real time      0.2167
    SETDIJ:  cpu time      0.1128: real time      0.1135
     EDDAV:  cpu time    108.9956: real time    109.7470
       DOS:  cpu time      0.0005: real time      0.0005
    CHARGE:  cpu time      0.0796: real time      0.0800
    MIXING:  cpu time      0.0013: real time      0.0013
    --------------------------------------------
      LOOP:  cpu time    109.4002: real time    110.1590

 eigenvalue-minimisations  :  3024
 total energy-change (2. order) :-0.2635950E-03  (-0.1640062E-04)
 number of electron     864.0000000 magnetization       0.1692666
 augmentation part       25.3638223 magnetization       0.1698157

 Free energy of the ion-electron system (eV)
  ---------------------------------------------------
  alpha Z        PSCENC =      3300.56432637
  Ewald energy   TEWEN  =    -38889.54580115
  -Hartree energ DENC   =     -5290.49966371
  -exchange      EXHF   =      2127.53991667
  -V(xc)+E(xc)   XCENC  =      2408.34635118
  PAW double counting   =    102697.79305898  -102731.54226787
  entropy T*S    EENTRO =        -0.00000000
  eigenvalues    EBANDS =     -1702.87613052
  atomic energy  EATOM  =     35880.98237829
  Solvation  Ediel_sol  =         0.00000000
  ---------------------------------------------------
  free energy    TOTEN  =     -2199.23783176 eV

  energy without entropy =    -2199.23783176  energy(sigma->0) =    -2199.23783176
  exchange ACFDT corr.  =         0.00000000  see jH, gK, PRB 81, 115126


--------------------------------------------------------------------------------------------------------




--------------------------------------- Iteration      1(  19)  ---------------------------------------


    POTLOK:  cpu time      0.2100: real time      0.2165
    SETDIJ:  cpu time      0.1135: real time      0.1143
     EDDAV:  cpu time    108.4605: real time    109.2351
       DOS:  cpu time      0.0005: real time      0.0005
    CHARGE:  cpu time      0.0797: real time      0.0802
    MIXING:  cpu time      0.0010: real time      0.0011
    --------------------------------------------
      LOOP:  cpu time    108.8652: real time    109.6476

 eigenvalue-minimisations  :  3000
 total energy-change (2. order) :-0.9348975E-04  (-0.6007415E-05)
 number of electron     864.0000000 magnetization      -0.1015600
 augmentation part       25.3636074 magnetization      -0.1018850

 Free energy of the ion-electron system (eV)
  ---------------------------------------------------
  alpha Z        PSCENC =      3300.56432637
  Ewald energy   TEWEN  =    -38889.54580115
  -Hartree energ DENC   =     -5290.74589754
  -exchange      EXHF   =      2127.53566739
  -V(xc)+E(xc)   XCENC  =      2408.36317289
  PAW double counting   =    102749.59940291  -102783.35459479
  entropy T*S    EENTRO =        -0.00000000
  eigenvalues    EBANDS =     -1702.63657961
  atomic energy  EATOM  =     35880.98237829
  Solvation  Ediel_sol  =         0.00000000
  ---------------------------------------------------
  free energy    TOTEN  =     -2199.23792525 eV

  energy without entropy =    -2199.23792525  energy(sigma->0) =    -2199.23792525
  exchange ACFDT corr.  =         0.00000000  see jH, gK, PRB 81, 115126


--------------------------------------------------------------------------------------------------------




--------------------------------------- Iteration      1(  20)  ---------------------------------------


    POTLOK:  cpu time      0.2091: real time      0.2154
    SETDIJ:  cpu time      0.1135: real time      0.1143
     EDDAV:  cpu time    111.7247: real time    112.4880
       DOS:  cpu time      0.0005: real time      0.0005
    CHARGE:  cpu time      0.0967: real time      0.0972
    MIXING:  cpu time      0.0012: real time      0.0012
    --------------------------------------------
      LOOP:  cpu time    112.1457: real time    112.9166

 eigenvalue-minimisations  :  2984
 total energy-change (2. order) :-0.3223784E-04  (-0.2195172E-05)
 number of electron     864.0000000 magnetization       0.0609360
 augmentation part       25.3634843 magnetization       0.0611355

 Free energy of the ion-electron system (eV)
  ---------------------------------------------------
  alpha Z        PSCENC =      3300.56432637
  Ewald energy   TEWEN  =    -38889.54580115
  -Hartree energ DENC   =     -5290.89180659
  -exchange      EXHF   =      2127.53254838
  -V(xc)+E(xc)   XCENC  =      2408.37310931
  PAW double counting   =    102779.84719771  -102813.60574284
  entropy T*S    EENTRO =        -0.00000000
  eigenvalues    EBANDS =     -1702.49416697
  atomic energy  EATOM  =     35880.98237829
  Solvation  Ediel_sol  =         0.00000000
  ---------------------------------------------------
  free energy    TOTEN  =     -2199.23795749 eV

  energy without entropy =    -2199.23795749  energy(sigma->0) =    -2199.23795749
  exchange ACFDT corr.  =         0.00000000  see jH, gK, PRB 81, 115126


--------------------------------------------------------------------------------------------------------




--------------------------------------- Iteration      1(  21)  ---------------------------------------


    POTLOK:  cpu time      0.2213: real time      0.2277
    SETDIJ:  cpu time      0.1345: real time      0.1355
     EDDAV:  cpu time    110.1611: real time    110.9417
       DOS:  cpu time      0.0005: real time      0.0005
    CHARGE:  cpu time      0.0796: real time      0.0801
    MIXING:  cpu time      0.0011: real time      0.0011
    --------------------------------------------
      LOOP:  cpu time    110.5981: real time    111.3866

 eigenvalue-minimisations  :  2904
 total energy-change (2. order) :-0.1015209E-04  (-0.8058285E-06)
 number of electron     864.0000000 magnetization      -0.0365616
 augmentation part       25.3634230 magnetization      -0.0366793

 Free energy of the ion-electron system (eV)
  ---------------------------------------------------
  alpha Z        PSCENC =      3300.56432637
  Ewald energy   TEWEN  =    -38889.54580115
  -Hartree energ DENC   =     -5290.97879655
  -exchange      EXHF   =      2127.53085525
  -V(xc)+E(xc)   XCENC  =      2408.37902249
  PAW double counting   =    102797.51688584  -102831.27741259
  entropy T*S    EENTRO =        -0.00000000
  eigenvalues    EBANDS =     -1702.40942559
  atomic energy  EATOM  =     35880.98237829
  Solvation  Ediel_sol  =         0.00000000
  ---------------------------------------------------
  free energy    TOTEN  =     -2199.23796764 eV

  energy without entropy =    -2199.23796764  energy(sigma->0) =    -2199.23796764
  exchange ACFDT corr.  =         0.00000000  see jH, gK, PRB 81, 115126


--------------------------------------------------------------------------------------------------------




--------------------------------------- Iteration      1(  22)  ---------------------------------------


    POTLOK:  cpu time      0.2095: real time      0.2160
    SETDIJ:  cpu time      0.1133: real time      0.1140
     EDDAV:  cpu time    108.8992: real time    109.6887
       DOS:  cpu time      0.0005: real time      0.0005
    CHARGE:  cpu time      0.0796: real time      0.0801
    MIXING:  cpu time      0.0012: real time      0.0012
    --------------------------------------------
      LOOP:  cpu time    109.3033: real time    110.1004

 eigenvalue-minimisations  :  2472
 total energy-change (2. order) :-0.2818007E-05  (-0.2994413E-06)
 number of electron     864.0000000 magnetization       0.0219370
 augmentation part       25.3634002 magnetization       0.0220002

 Free energy of the ion-electron system (eV)
  ---------------------------------------------------
  alpha Z        PSCENC =      3300.56432637
  Ewald energy   TEWEN  =    -38889.54580115
  -Hartree energ DENC   =     -5291.03190857
  -exchange      EXHF   =      2127.53011481
  -V(xc)+E(xc)   XCENC  =      2408.38261388
  PAW double counting   =    102807.83288468  -102841.59454461
  entropy T*S    EENTRO =        -0.00000000
  eigenvalues    EBANDS =     -1702.35803416
  atomic energy  EATOM  =     35880.98237829
  Solvation  Ediel_sol  =         0.00000000
  ---------------------------------------------------
  free energy    TOTEN  =     -2199.23797046 eV

  energy without entropy =    -2199.23797046  energy(sigma->0) =    -2199.23797046
  exchange ACFDT corr.  =         0.00000000  see jH, gK, PRB 81, 115126


--------------------------------------------------------------------------------------------------------




--------------------------------------- Iteration      1(  23)  ---------------------------------------


    POTLOK:  cpu time      0.2110: real time      0.2175
    SETDIJ:  cpu time      0.1126: real time      0.1136
     EDDAV:  cpu time    107.5621: real time    108.2932
       DOS:  cpu time      0.0005: real time      0.0005
    --------------------------------------------
      LOOP:  cpu time    107.8862: real time    108.6247

 eigenvalue-minimisations  :  2004
 total energy-change (2. order) :-0.1564040E-06  (-0.1190665E-06)
 number of electron     864.0000000 magnetization       0.0219370
 augmentation part       25.3634002 magnetization       0.0220002

 Free energy of the ion-electron system (eV)
  ---------------------------------------------------
  alpha Z        PSCENC =      3300.56432637
  Ewald energy   TEWEN  =    -38889.54580115
  -Hartree energ DENC   =     -5291.06513652
  -exchange      EXHF   =      2127.52986890
  -V(xc)+E(xc)   XCENC  =      2408.38485943
  PAW double counting   =    102813.99262177  -102847.75514785
  entropy T*S    EENTRO =        -0.00000000
  eigenvalues    EBANDS =     -1702.32593985
  atomic energy  EATOM  =     35880.98237829
  Solvation  Ediel_sol  =         0.00000000
  ---------------------------------------------------
  free energy    TOTEN  =     -2199.23797061 eV

  energy without entropy =    -2199.23797061  energy(sigma->0) =    -2199.23797061
  exchange ACFDT corr.  =         0.00000000  see jH, gK, PRB 81, 115126


--------------------------------------------------------------------------------------------------------




 average (electrostatic) potential at core
  the test charge radii are     0.7672  0.7089
  (the norm of the test charge is              1.0000)
       1 -21.3388       2 -21.3388       3 -21.3388       4 -21.3388       5 -21.3388
       6 -21.3388       7 -21.3388       8 -21.3388       9 -21.3388      10 -21.3388
      11 -21.3388      12 -21.3388      13 -21.3388      14 -21.3388      15 -21.3388
      16 -21.3388      17 -21.3388      18 -21.3388      19 -21.3388      20 -21.3388
      21 -21.3388      22 -21.3388      23 -21.3388      24 -21.3388      25 -21.3388
      26 -21.3388      27 -21.3388      28 -21.3388      29 -21.3388      30 -21.3388
      31 -21.3388      32 -21.3388      33 -21.3388      34 -21.3388      35 -21.3388
      36 -21.3388      37 -21.3388      38 -21.3388      39 -21.3388      40 -21.3388
      41 -21.3388      42 -21.3388      43 -21.3388      44 -21.3388      45 -21.3388
      46 -21.3388      47 -21.3388      48 -21.3388      49 -21.3388      50 -21.3388
      51 -21.3388      52 -21.3388      53 -21.3388      54 -21.3388      55 -21.3388
      56 -21.3388      57 -21.3388      58 -21.3388      59 -21.3388      60 -21.3388
      61 -21.3388      62 -21.3388      63 -21.3388      64 -21.3388      65 -21.3388
      66 -21.3388      67 -21.3388      68 -21.3388      69 -21.3388      70 -21.3388
      71 -21.3388      72 -21.3388      73 -21.3388      74 -21.3388      75 -21.3388
      76 -21.3388      77 -21.3388      78 -21.3388      79 -21.3388      80 -21.3388
      81 -21.3388      82 -21.3388      83 -21.3388      84 -21.3388      85 -21.3388
      86 -21.3388      87 -21.3388      88 -21.3388      89 -21.3388      90 -21.3388
      91 -21.3388      92 -21.3388      93 -21.3388      94 -21.3388      95 -21.3388
      96 -21.3388      97 -21.3388      98 -21.3388      99 -21.3388     100 -21.3388
     101 -21.3388     102 -21.3388     103 -21.3388     104 -21.3388     105 -21.3388
     106 -21.3388     107 -21.3388     108 -21.3388     109 -55.1563     110 -55.1563
     111 -55.1563     112 -55.1563     113 -55.1563     114 -55.1563     115 -55.1563
     116 -55.1563     117 -55.1563     118 -55.1563     119 -55.1563     120 -55.1563
     121 -55.1563     122 -55.1563     123 -55.1563     124 -55.1563     125 -55.1563
     126 -55.1563     127 -55.1563     128 -55.1563     129 -55.1563     130 -55.1563
     131 -55.1563     132 -55.1563     133 -55.1563     134 -55.1563     135 -55.1563
     136 -55.1563     137 -55.1563     138 -55.1563     139 -55.1563     140 -55.1563
     141 -55.1563     142 -55.1563     143 -55.1563     144 -55.1563     145 -55.1563
     146 -55.1563     147 -55.1563     148 -55.1563     149 -55.1563     150 -55.1563
     151 -55.1563     152 -55.1563     153 -55.1563     154 -55.1563     155 -55.1563
     156 -55.1563     157 -55.1563     158 -55.1563     159 -55.1563     160 -55.1563
     161 -55.1563     162 -55.1563     163 -55.1563     164 -55.1563     165 -55.1563
     166 -55.1563     167 -55.1563     168 -55.1563     169 -55.1563     170 -55.1563
     171 -55.1563     172 -55.1563     173 -55.1563     174 -55.1563     175 -55.1563
     176 -55.1563     177 -55.1563     178 -55.1563     179 -55.1563     180 -55.1563
     181 -55.1563     182 -55.1563     183 -55.1563     184 -55.1563     185 -55.1563
     186 -55.1563     187 -55.1563     188 -55.1563     189 -55.1563     190 -55.1563
     191 -55.1563     192 -55.1563     193 -55.1563     194 -55.1563     195 -55.1563
     196 -55.1563     197 -55.1563     198 -55.1563     199 -55.1563     200 -55.1563
     201 -55.1563     202 -55.1563     203 -55.1563     204 -55.1563     205 -55.1563
     206 -55.1563     207 -55.1563     208 -55.1563     209 -55.1563     210 -55.1563
     211 -55.1563     212 -55.1563     213 -55.1563     214 -55.1563     215 -55.1563
     216 -55.1563
 
 
 
 E-fermi :   6.7638     XC(G=0): -10.5284     alpha+bet :-16.9938

 Fermi energy:         6.7638000506

 spin component 1

 k-point     1 :       0.0000    0.0000    0.0000
  band No.  band energies     occupation 
      1     -15.5729      1.00000
      2     -14.6010      1.00000
      3     -14.6010      1.00000
      4     -14.6010      1.00000
      5     -14.6010      1.00000
      6     -14.6010      1.00000
      7     -14.6010      1.00000
      8     -13.6689      1.00000
      9     -13.6689      1.00000
     10     -13.6689      1.00000
     11     -13.6689      1.00000
     12     -13.6689      1.00000
     13     -13.6689      1.00000
     14     -13.6689      1.00000
     15     -13.6689      1.00000
     16     -13.6689      1.00000
     17     -13.6689      1.00000
     18     -13.6689      1.00000
     19     -13.6689      1.00000
     20     -12.8107      1.00000
     21     -12.8107      1.00000
     22     -12.8107      1.00000
     23     -12.8107      1.00000
     24     -12.8107      1.00000
     25     -12.8107      1.00000
     26     -12.8107      1.00000
     27     -12.8107      1.00000
     28     -11.9113      1.00000
     29     -11.9113      1.00000
     30     -11.9113      1.00000
     31     -11.9113      1.00000
     32     -11.9113      1.00000
     33     -11.9113      1.00000
     34     -11.1856      1.00000
     35     -11.1856      1.00000
     36     -11.1856      1.00000
     37     -11.1856      1.00000
     38     -11.1856      1.00000
     39     -11.1856      1.00000
     40     -11.1856      1.00000
     41     -11.1856      1.00000
     42     -11.1856      1.00000
     43     -11.1856      1.00000
     44     -11.1856      1.00000
     45     -11.1856      1.00000
     46     -11.1856      1.00000
     47     -11.1856      1.00000
     48     -11.1856      1.00000
     49     -11.1856      1.00000
     50     -11.1856      1.00000
     51     -11.1856      1.00000
     52     -11.1856      1.00000
     53     -11.1856      1.00000
     54     -11.1856      1.00000
     55     -11.1856      1.00000
     56     -11.1856      1.00000
     57     -11.1856      1.00000
     58     -10.7788      1.00000
     59     -10.7788      1.00000
     60     -10.7788      1.00000
     61     -10.7788      1.00000
     62     -10.7788      1.00000
     63     -10.7788      1.00000
     64     -10.7788      1.00000
     65     -10.7788      1.00000
     66     -10.7788      1.00000
     67     -10.7788      1.00000
     68     -10.7788      1.00000
     69     -10.7788      1.00000
     70     -10.7788      1.00000
     71     -10.7788      1.00000
     72     -10.7788      1.00000
     73     -10.7788      1.00000
     74     -10.7788      1.00000
     75     -10.7788      1.00000
     76     -10.7788      1.00000
     77     -10.7788      1.00000
     78     -10.7788      1.00000
     79     -10.7788      1.00000
     80     -10.7788      1.00000
     81     -10.7788      1.00000
     82      -9.7385      1.00000
     83      -9.7385      1.00000
     84      -9.7385      1.00000
     85      -9.7385      1.00000
     86      -9.7385      1.00000
     87      -9.7385      1.00000
     88      -9.7385      1.00000
     89      -9.7385      1.00000
     90      -9.7385      1.00000
     91      -9.7385      1.00000
     92      -9.7385      1.00000
     93      -9.7385      1.00000
     94      -9.4709      1.00000
     95      -9.4709      1.00000
     96      -9.4709      1.00000
     97      -9.2274      1.00000
     98      -9.2274      1.00000
     99      -9.2274      1.00000
    100      -9.2274      1.00000
    101      -9.2274      1.00000
    102      -9.2274      1.00000
    103      -9.2274      1.00000
    104      -9.2274      1.00000
    105      -9.2274      1.00000
    106      -9.2274      1.00000
    107      -9.2274      1.00000
    108      -9.2274      1.00000
    109      -4.0072      1.00000
    110      -4.0072      1.00000
    111      -4.0072      1.00000
    112      -4.0072      1.00000
    113      -4.0072      1.00000
    114      -4.0072      1.00000
    115      -4.0072      1.00000
    116      -4.0072      1.00000
    117      -4.0072      1.00000
    118      -4.0072      1.00000
    119      -4.0072      1.00000
    120      -4.0072      1.00000
    121      -4.0072      1.00000
    122      -4.0072      1.00000
    123      -4.0072      1.00000
    124      -4.0072      1.00000
    125      -4.0072      1.00000
    126      -4.0072      1.00000
    127      -4.0072      1.00000
    128      -4.0072      1.00000
    129      -4.0072      1.00000
    130      -4.0072      1.00000
    131      -4.0072      1.00000
    132      -4.0072      1.00000
    133      -3.1641      1.00000
    134      -3.1641      1.00000
    135      -3.1641      1.00000
    136      -2.5319      1.00000
    137      -2.5319      1.00000
    138      -2.5319      1.00000
    139      -2.5319      1.00000
    140      -2.5319      1.00000
    141      -2.5319      1.00000
    142      -2.5319      1.00000
    143      -2.5319      1.00000
    144      -2.5319      1.00000
    145      -2.5319      1.00000
    146      -2.5319      1.00000
    147      -2.5319      1.00000
    148      -2.3584      1.00000
    149      -2.3584      1.00000
    150      -2.3584      1.00000
    151      -2.3584      1.00000
    152      -2.3584      1.00000
    153      -2.3584      1.00000
    154      -2.3584      1.00000
    155      -2.3584      1.00000
    156      -2.3584      1.00000
    157      -2.3584      1.00000
    158      -2.3584      1.00000
    159      -2.3584      1.00000
    160      -1.9578      1.00000
    161      -1.9578      1.00000
    162      -1.9578      1.00000
    163      -1.9578      1.00000
    164      -1.9578      1.00000
    165      -1.9578      1.00000
    166      -1.9578      1.00000
    167      -1.9578      1.00000
    168      -1.4963      1.00000
    169      -1.4963      1.00000
    170      -1.4963      1.00000
    171      -1.4963      1.00000
    172      -1.4963      1.00000
    173      -1.4963      1.00000
    174      -1.4963      1.00000
    175      -1.4963      1.00000
    176      -1.4963      1.00000
    177      -1.4963      1.00000
    178      -1.4963      1.00000
    179      -1.4963      1.00000
    180      -1.4963      1.00000
    181      -1.4963      1.00000
    182      -1.4963      1.00000
    183      -1.4963      1.00000
    184      -1.4963      1.00000
    185      -1.4963      1.00000
    186      -1.4963      1.00000
    187      -1.4963      1.00000
    188      -1.4963      1.00000
    189      -1.4963      1.00000
    190      -1.4963      1.00000
    191      -1.4963      1.00000
    192      -1.4250      1.00000
    193      -1.4250      1.00000
    194      -1.4250      1.00000
    195      -1.4250      1.00000
    196      -1.4250      1.00000
    197      -1.4250      1.00000
    198      -1.4250      1.00000
    199      -1.4250      1.00000
    200      -1.4250      1.00000
    201      -1.4250      1.00000
    202      -1.4250      1.00000
    203      -1.4250      1.00000
    204      -0.1088      1.00000
    205      -0.1088      1.00000
    206      -0.1088      1.00000
    207      -0.1088      1.00000
    208      -0.1088      1.00000
    209      -0.1088      1.00000
    210      -0.1088      1.00000
    211      -0.1088      1.00000
    212      -0.1088      1.00000
    213      -0.1088      1.00000
    214      -0.1088      1.00000
    215      -0.1088      1.00000
    216      -0.0020      1.00000
    217      -0.0020      1.00000
    218      -0.0020      1.00000
    219      -0.0020      1.00000
    220      -0.0020      1.00000
    221      -0.0020      1.00000
    222      -0.0020      1.00000
    223      -0.0020      1.00000
    224      -0.0020      1.00000
    225      -0.0020      1.00000
    226      -0.0020      1.00000
    227      -0.0020      1.00000
    228      -0.0014      1.00000
    229      -0.0014      1.00000
    230      -0.0014      1.00000
    231      -0.0014      1.00000
    232      -0.0014      1.00000
    233      -0.0014      1.00000
    234       0.7250      1.00000
    235       0.7250      1.00000
    236       0.7250      1.00000
    237       0.7250      1.00000
    238       0.7250      1.00000
    239       0.7250      1.00000
    240       0.7250      1.00000
    241       0.7250      1.00000
    242       0.7250      1.00000
    243       0.7250      1.00000
    244       0.7250      1.00000
    245       0.7250      1.00000
    246       0.7250      1.00000
    247       0.7250      1.00000
    248       0.7250      1.00000
    249       0.7250      1.00000
    250       0.7250      1.00000
    251       0.7250      1.00000
    252       0.7250      1.00000
    253       0.7250      1.00000
    254       0.7250      1.00000
    255       0.7250      1.00000
    256       0.7250      1.00000
    257       0.7250      1.00000
    258       1.2060      1.00000
    259       1.2060      1.00000
    260       1.2060      1.00000
    261       1.2060      1.00000
    262       1.2060      1.00000
    263       1.2060      1.00000
    264       1.2060      1.00000
    265       1.2060      1.00000
    266       1.2060      1.00000
    267       1.2060      1.00000
    268       1.2060      1.00000
    269       1.2060      1.00000
    270       1.3146      1.00000
    271       1.3146      1.00000
    272       1.3146      1.00000
    273       1.3146      1.00000
    274       1.3146      1.00000
    275       1.3146      1.00000
    276       2.2784      1.00000
    277       2.2784      1.00000
    278       2.2784      1.00000
    279       2.2784      1.00000
    280       2.2784      1.00000
    281       2.2784      1.00000
    282       2.2784      1.00000
    283       2.2784      1.00000
    284       2.2784      1.00000
    285       2.2784      1.00000
    286       2.2784      1.00000
    287       2.2784      1.00000
    288       2.6148      1.00000
    289       2.6148      1.00000
    290       2.6148      1.00000
    291       2.6148      1.00000
    292       2.6148      1.00000
    293       2.6148      1.00000
    294       2.6148      1.00000
    295       2.6148      1.00000
    296       2.6148      1.00000
    297       2.6148      1.00000
    298       2.6148      1.00000
    299       2.6148      1.00000
    300       2.6148      1.00000
    301       2.6148      1.00000
    302       2.6148      1.00000
    303       2.6148      1.00000
    304       2.6148      1.00000
    305       2.6148      1.00000
    306       2.6148      1.00000
    307       2.6148      1.00000
    308       2.6148      1.00000
    309       2.6148      1.00000
    310       2.6148      1.00000
    311       2.6148      1.00000
    312       2.8303      1.00000
    313       2.8303      1.00000
    314       2.8303      1.00000
    315       2.8303      1.00000
    316       2.8303      1.00000
    317       2.8303      1.00000
    318       2.8303      1.00000
    319       2.8303      1.00000
    320       2.8303      1.00000
    321       2.8303      1.00000
    322       2.8303      1.00000
    323       2.8303      1.00000
    324       2.8303      1.00000
    325       2.8303      1.00000
    326       2.8303      1.00000
    327       2.8303      1.00000
    328       2.8303      1.00000
    329       2.8303      1.00000
    330       2.8303      1.00000
    331       2.8303      1.00000
    332       2.8303      1.00000
    333       2.8303      1.00000
    334       2.8303      1.00000
    335       2.8303      1.00000
    336       2.8732      1.00000
    337       2.8732      1.00000
    338       2.8732      1.00000
    339       2.8732      1.00000
    340       2.8732      1.00000
    341       2.8732      1.00000
    342       2.8732      1.00000
    343       2.8732      1.00000
    344       2.8732      1.00000
    345       2.8732      1.00000
    346       2.8732      1.00000
    347       2.8732      1.00000
    348       3.0710      1.00000
    349       3.0710      1.00000
    350       3.0710      1.00000
    351       3.0710      1.00000
    352       3.0710      1.00000
    353       3.0710      1.00000
    354       3.0710      1.00000
    355       3.0710      1.00000
    356       3.0710      1.00000
    357       3.0710      1.00000
    358       3.0710      1.00000
    359       3.0710      1.00000
    360       3.5408      1.00000
    361       3.5408      1.00000
    362       3.5408      1.00000
    363       3.5408      1.00000
    364       3.5408      1.00000
    365       3.5408      1.00000
    366       3.5408      1.00000
    367       3.5408      1.00000
    368       3.5408      1.00000
    369       3.5408      1.00000
    370       3.5408      1.00000
    371       3.5408      1.00000
    372       3.5408      1.00000
    373       3.5408      1.00000
    374       3.5408      1.00000
    375       3.5408      1.00000
    376       3.5408      1.00000
    377       3.5408      1.00000
    378       3.5408      1.00000
    379       3.5408      1.00000
    380       3.5408      1.00000
    381       3.5408      1.00000
    382       3.5408      1.00000
    383       3.5408      1.00000
    384       4.4324      1.00000
    385       4.4324      1.00000
    386       4.4324      1.00000
    387       4.4324      1.00000
    388       4.4324      1.00000
    389       4.4324      1.00000
    390       4.7987      1.00000
    391       4.7987      1.00000
    392       4.7987      1.00000
    393       4.7987      1.00000
    394       4.7987      1.00000
    395       4.7987      1.00000
    396       4.7987      1.00000
    397       4.7987      1.00000
    398       4.7987      1.00000
    399       4.7987      1.00000
    400       4.7987      1.00000
    401       4.7987      1.00000
    402       4.9928      1.00000
    403       4.9928      1.00000
    404       4.9928      1.00000
    405       4.9928      1.00000
    406       4.9928      1.00000
    407       4.9928      1.00000
    408       4.9928      1.00000
    409       4.9928      1.00000
    410       4.9928      1.00000
    411       4.9928      1.00000
    412       4.9928      1.00000
    413       4.9928      1.00000
    414       4.9928      1.00000
    415       4.9928      1.00000
    416       4.9928      1.00000
    417       4.9928      1.00000
    418       5.7680      1.00000
    419       5.7680      1.00000
    420       5.7680      1.00000
    421       5.7680      1.00000
    422       5.7680      1.00000
    423       5.7680      1.00000
    424       5.7680      1.00000
    425       5.7680      1.00000
    426       5.7680      1.00000
    427       5.7680      1.00000
    428       5.7680      1.00000
    429       5.7680      1.00000
    430       6.7021      1.00000
    431       6.7021      1.00000
    432       6.7021      1.00000
    433      12.5249      0.00000
    434      12.5249      0.00000
    435      12.5249      0.00000
    436      13.8917      0.00000
    437      13.8917      0.00000
    438      13.8917      0.00000
    439      13.8917      0.00000
    440      13.8917      0.00000
    441      13.8917      0.00000
    442      16.0787      0.00000
    443      16.0787      0.00000
    444      16.0787      0.00000
    445      16.0787      0.00000
    446      16.0787      0.00000
    447      16.0787      0.00000
    448      16.0787      0.00000
    449      16.0787      0.00000
    450      16.0787      0.00000
    451      16.0787      0.00000
    452      16.0787      0.00000
    453      16.0787      0.00000
    454      16.1424      0.00000
    455      16.1424      0.00000
    456      16.1424      0.00000
    457      16.1424      0.00000
    458      16.1424      0.00000
    459      16.1424      0.00000
    460      16.1424      0.00000
    461      16.1424      0.00000
    462      16.1424      0.00000
    463      16.1424      0.00000
    464      16.1424      0.00000
    465      16.1424      0.00000
    466      16.1696      0.00000
    467      16.1696      0.00000
    468      16.1696      0.00000
    469      16.1696      0.00000
    470      16.1696      0.00000
    471      16.1696      0.00000
    472      17.2047      0.00000
    473      17.2047      0.00000
    474      17.2047      0.00000
    475      17.2047      0.00000
    476      17.2047      0.00000
    477      17.2047      0.00000
    478      17.2047      0.00000
    479      17.2047      0.00000
    480      17.2047      0.00000
    481      17.2047      0.00000
    482      17.2047      0.00000
    483      17.2047      0.00000
    484      17.2047      0.00000
    485      17.2047      0.00000
    486      17.2047      0.00000
    487      17.2047      0.00000
    488      17.2047      0.00000
    489      17.2047      0.00000
    490      17.2047      0.00000
    491      17.2047      0.00000
    492      17.2047      0.00000
    493      17.2047      0.00000
    494      17.2047      0.00000
    495      17.2047      0.00000
    496      17.2765      0.00000
    497      17.2765      0.00000
    498      17.2765      0.00000
    499      17.2765      0.00000
    500      17.2765      0.00000
    501      17.2765      0.00000
    502      17.2765      0.00000
    503      17.2765      0.00000
    504      17.2765      0.00000
    505      17.2765      0.00000
    506      17.2765      0.00000
    507      17.2765      0.00000
    508      17.2765      0.00000
    509      17.2765      0.00000
    510      17.2765      0.00000
    511      17.2765      0.00000
    512      17.2765      0.00000
    513      17.2765      0.00000
    514      17.2765      0.00000
    515      17.2765      0.00000
    516      17.2765      0.00000
    517      17.2765      0.00000
    518      17.2765      0.00000
    519      17.2765      0.00000
    520      17.3595      0.00000
    521      17.3595      0.00000
    522      17.3595      0.00000
    523      17.5484      0.00000
    524      17.5484      0.00000
    525      17.5484      0.00000
    526      18.5194      0.00000
    527      18.5194      0.00000
    528      18.5194      0.00000
    529      18.5194      0.00000
    530      18.5194      0.00000
    531      18.5194      0.00000
    532      18.5194      0.00000
    533      18.5194      0.00000
    534      18.7057      0.00000
    535      18.7057      0.00000
    536      18.7057      0.00000
    537      18.7057      0.00000
    538      18.7057      0.00000
    539      18.7057      0.00000
    540      19.0019      0.00000
    541      19.0019      0.00000
    542      19.0019      0.00000
    543      19.0019      0.00000
    544      19.0019      0.00000
    545      19.0019      0.00000
    546      19.0019      0.00000
    547      19.0019      0.00000
    548      19.0019      0.00000
    549      19.0019      0.00000
    550      19.0019      0.00000
    551      19.0019      0.00000
    552      19.1068      0.00000
    553      19.1926      0.00000
    554      19.1926      0.00000
    555      19.1926      0.00000
    556      19.1926      0.00000
    557      19.1926      0.00000
    558      19.1926      0.00000
    559      19.1926      0.00000
    560      19.1926      0.00000
    561      19.1926      0.00000
    562      19.1926      0.00000
    563      19.1926      0.00000
    564      19.1926      0.00000
    565      19.3096      0.00000
    566      19.3096      0.00000
    567      19.3096      0.00000
    568      19.3096      0.00000
    569      19.3096      0.00000
    570      19.3096      0.00000
    571      19.3096      0.00000
    572      19.3096      0.00000
    573      19.3096      0.00000
    574      19.3096      0.00000
    575      19.3096      0.00000
    576      19.3096      0.00000
    577      19.3096      0.00000
    578      19.3096      0.00000
    579      19.3096      0.00000
    580      19.3096      0.00000
    581      19.5553      0.00000
    582      19.5553      0.00000
    583      19.5553      0.00000
    584      19.5553      0.00000
    585      19.5553      0.00000
    586      19.5553      0.00000
    587      19.5553      0.00000
    588      19.5553      0.00000
    589      19.5553      0.00000
    590      19.5553      0.00000
    591      19.5553      0.00000
    592      19.5553      0.00000
    593      20.0744      0.00000
    594      20.0744      0.00000
    595      20.0744      0.00000
    596      20.0744      0.00000
    597      20.0744      0.00000
    598      20.0744      0.00000
    599      20.0744      0.00000
    600      20.0744      0.00000
    601      20.0744      0.00000
    602      20.0744      0.00000
    603      20.0744      0.00000
    604      20.0744      0.00000
    605      20.4892      0.00000
    606      20.4892      0.00000
    607      20.4892      0.00000
    608      20.4892      0.00000
    609      20.4892      0.00000
    610      20.4892      0.00000
    611      20.4892      0.00000
    612      20.4892      0.00000
    613      20.4892      0.00000
    614      20.4892      0.00000
    615      20.4892      0.00000
    616      20.4892      0.00000
    617      20.4892      0.00000
    618      20.4892      0.00000
    619      20.4892      0.00000
    620      20.4892      0.00000
    621      20.4892      0.00000
    622      20.4892      0.00000
    623      20.4892      0.00000
    624      20.4892      0.00000
    625      20.4892      0.00000
    626      20.4892      0.00000
    627      20.4892      0.00000
    628      20.4894      0.00000
    629      20.5852      0.00000
    630      20.5852      0.00000
    631      20.5853      0.00000
    632      20.5853      0.00000
    633      20.5853      0.00000
    634      20.5853      0.00000
    635      20.5853      0.00000
    636      20.5854      0.00000
    637      20.5854      0.00000
    638      20.5854      0.00000
    639      20.5855      0.00000
    640      20.5859      0.00000
    641      20.7719      0.00000
    642      20.7719      0.00000
    643      20.7720      0.00000
    644      20.7722      0.00000
    645      20.7722      0.00000
    646      20.7730      0.00000
    647      21.1521      0.00000
    648      21.1521      0.00000
    649      21.1522      0.00000
    650      21.1523      0.00000
    651      21.1523      0.00000
    652      21.1527      0.00000
 Fermi energy:         6.7638000506

 spin component 2

 k-point     1 :       0.0000    0.0000    0.0000
  band No.  band energies     occupation 
      1     -15.5728      1.00000
      2     -14.6008      1.00000
      3     -14.6008      1.00000
      4     -14.6008      1.00000
      5     -14.6008      1.00000
      6     -14.6008      1.00000
      7     -14.6008      1.00000
      8     -13.6688      1.00000
      9     -13.6688      1.00000
     10     -13.6688      1.00000
     11     -13.6688      1.00000
     12     -13.6688      1.00000
     13     -13.6688      1.00000
     14     -13.6688      1.00000
     15     -13.6688      1.00000
     16     -13.6688      1.00000
     17     -13.6688      1.00000
     18     -13.6688      1.00000
     19     -13.6688      1.00000
     20     -12.8106      1.00000
     21     -12.8106      1.00000
     22     -12.8106      1.00000
     23     -12.8106      1.00000
     24     -12.8106      1.00000
     25     -12.8106      1.00000
     26     -12.8106      1.00000
     27     -12.8106      1.00000
     28     -11.9112      1.00000
     29     -11.9112      1.00000
     30     -11.9111      1.00000
     31     -11.9111      1.00000
     32     -11.9111      1.00000
     33     -11.9111      1.00000
     34     -11.1855      1.00000
     35     -11.1855      1.00000
     36     -11.1855      1.00000
     37     -11.1855      1.00000
     38     -11.1855      1.00000
     39     -11.1855      1.00000
     40     -11.1855      1.00000
     41     -11.1855      1.00000
     42     -11.1855      1.00000
     43     -11.1855      1.00000
     44     -11.1855      1.00000
     45     -11.1855      1.00000
     46     -11.1855      1.00000
     47     -11.1855      1.00000
     48     -11.1855      1.00000
     49     -11.1855      1.00000
     50     -11.1855      1.00000
     51     -11.1855      1.00000
     52     -11.1855      1.00000
     53     -11.1855      1.00000
     54     -11.1855      1.00000
     55     -11.1855      1.00000
     56     -11.1855      1.00000
     57     -11.1855      1.00000
     58     -10.7787      1.00000
     59     -10.7787      1.00000
     60     -10.7787      1.00000
     61     -10.7787      1.00000
     62     -10.7787      1.00000
     63     -10.7787      1.00000
     64     -10.7787      1.00000
     65     -10.7787      1.00000
     66     -10.7787      1.00000
     67     -10.7787      1.00000
     68     -10.7787      1.00000
     69     -10.7787      1.00000
     70     -10.7787      1.00000
     71     -10.7787      1.00000
     72     -10.7787      1.00000
     73     -10.7787      1.00000
     74     -10.7787      1.00000
     75     -10.7787      1.00000
     76     -10.7787      1.00000
     77     -10.7787      1.00000
     78     -10.7787      1.00000
     79     -10.7787      1.00000
     80     -10.7787      1.00000
     81     -10.7787      1.00000
     82      -9.7384      1.00000
     83      -9.7384      1.00000
     84      -9.7384      1.00000
     85      -9.7384      1.00000
     86      -9.7384      1.00000
     87      -9.7384      1.00000
     88      -9.7384      1.00000
     89      -9.7384      1.00000
     90      -9.7384      1.00000
     91      -9.7384      1.00000
     92      -9.7384      1.00000
     93      -9.7384      1.00000
     94      -9.4708      1.00000
     95      -9.4708      1.00000
     96      -9.4708      1.00000
     97      -9.2273      1.00000
     98      -9.2273      1.00000
     99      -9.2273      1.00000
    100      -9.2273      1.00000
    101      -9.2273      1.00000
    102      -9.2273      1.00000
    103      -9.2273      1.00000
    104      -9.2273      1.00000
    105      -9.2273      1.00000
    106      -9.2273      1.00000
    107      -9.2273      1.00000
    108      -9.2273      1.00000
    109      -4.0071      1.00000
    110      -4.0071      1.00000
    111      -4.0071      1.00000
    112      -4.0071      1.00000
    113      -4.0071      1.00000
    114      -4.0071      1.00000
    115      -4.0071      1.00000
    116      -4.0071      1.00000
    117      -4.0071      1.00000
    118      -4.0071      1.00000
    119      -4.0071      1.00000
    120      -4.0071      1.00000
    121      -4.0071      1.00000
    122      -4.0071      1.00000
    123      -4.0071      1.00000
    124      -4.0071      1.00000
    125      -4.0071      1.00000
    126      -4.0071      1.00000
    127      -4.0071      1.00000
    128      -4.0071      1.00000
    129      -4.0071      1.00000
    130      -4.0071      1.00000
    131      -4.0071      1.00000
    132      -4.0071      1.00000
    133      -3.1639      1.00000
    134      -3.1639      1.00000
    135      -3.1639      1.00000
    136      -2.5317      1.00000
    137      -2.5317      1.00000
    138      -2.5317      1.00000
    139      -2.5317      1.00000
    140      -2.5317      1.00000
    141      -2.5317      1.00000
    142      -2.5317      1.00000
    143      -2.5317      1.00000
    144      -2.5317      1.00000
    145      -2.5317      1.00000
    146      -2.5317      1.00000
    147      -2.5317      1.00000
    148      -2.3583      1.00000
    149      -2.3583      1.00000
    150      -2.3583      1.00000
    151      -2.3583      1.00000
    152      -2.3583      1.00000
    153      -2.3583      1.00000
    154      -2.3583      1.00000
    155      -2.3583      1.00000
    156      -2.3583      1.00000
    157      -2.3583      1.00000
    158      -2.3583      1.00000
    159      -2.3583      1.00000
    160      -1.9577      1.00000
    161      -1.9577      1.00000
    162      -1.9577      1.00000
    163      -1.9577      1.00000
    164      -1.9577      1.00000
    165      -1.9577      1.00000
    166      -1.9577      1.00000
    167      -1.9577      1.00000
    168      -1.4962      1.00000
    169      -1.4962      1.00000
    170      -1.4962      1.00000
    171      -1.4962      1.00000
    172      -1.4962      1.00000
    173      -1.4962      1.00000
    174      -1.4962      1.00000
    175      -1.4962      1.00000
    176      -1.4962      1.00000
    177      -1.4962      1.00000
    178      -1.4962      1.00000
    179      -1.4962      1.00000
    180      -1.4962      1.00000
    181      -1.4962      1.00000
    182      -1.4962      1.00000
    183      -1.4962      1.00000
    184      -1.4962      1.00000
    185      -1.4962      1.00000
    186      -1.4962      1.00000
    187      -1.4962      1.00000
    188      -1.4962      1.00000
    189      -1.4962      1.00000
    190      -1.4962      1.00000
    191      -1.4962      1.00000
    192      -1.4249      1.00000
    193      -1.4249      1.00000
    194      -1.4249      1.00000
    195      -1.4249      1.00000
    196      -1.4249      1.00000
    197      -1.4249      1.00000
    198      -1.4249      1.00000
    199      -1.4249      1.00000
    200      -1.4249      1.00000
    201      -1.4249      1.00000
    202      -1.4249      1.00000
    203      -1.4249      1.00000
    204      -0.1087      1.00000
    205      -0.1087      1.00000
    206      -0.1087      1.00000
    207      -0.1087      1.00000
    208      -0.1087      1.00000
    209      -0.1087      1.00000
    210      -0.1087      1.00000
    211      -0.1087      1.00000
    212      -0.1087      1.00000
    213      -0.1087      1.00000
    214      -0.1087      1.00000
    215      -0.1087      1.00000
    216      -0.0018      1.00000
    217      -0.0018      1.00000
    218      -0.0018      1.00000
    219      -0.0018      1.00000
    220      -0.0018      1.00000
    221      -0.0018      1.00000
    222      -0.0018      1.00000
    223      -0.0018      1.00000
    224      -0.0018      1.00000
    225      -0.0018      1.00000
    226      -0.0018      1.00000
    227      -0.0018      1.00000
    228      -0.0013      1.00000
    229      -0.0012      1.00000
    230      -0.0012      1.00000
    231      -0.0012      1.00000
    232      -0.0012      1.00000
    233      -0.0012      1.00000
    234       0.7251      1.00000
    235       0.7251      1.00000
    236       0.7251      1.00000
    237       0.7251      1.00000
    238       0.7251      1.00000
    239       0.7251      1.00000
    240       0.7251      1.00000
    241       0.7251      1.00000
    242       0.7251      1.00000
    243       0.7251      1.00000
    244       0.7251      1.00000
    245       0.7251      1.00000
    246       0.7251      1.00000
    247       0.7251      1.00000
    248       0.7251      1.00000
    249       0.7251      1.00000
    250       0.7251      1.00000
    251       0.7251      1.00000
    252       0.7251      1.00000
    253       0.7251      1.00000
    254       0.7251      1.00000
    255       0.7251      1.00000
    256       0.7251      1.00000
    257       0.7251      1.00000
    258       1.2061      1.00000
    259       1.2061      1.00000
    260       1.2061      1.00000
    261       1.2061      1.00000
    262       1.2061      1.00000
    263       1.2061      1.00000
    264       1.2061      1.00000
    265       1.2061      1.00000
    266       1.2061      1.00000
    267       1.2061      1.00000
    268       1.2061      1.00000
    269       1.2061      1.00000
    270       1.3147      1.00000
    271       1.3147      1.00000
    272       1.3147      1.00000
    273       1.3147      1.00000
    274       1.3147      1.00000
    275       1.3147      1.00000
    276       2.2785      1.00000
    277       2.2785      1.00000
    278       2.2785      1.00000
    279       2.2785      1.00000
    280       2.2785      1.00000
    281       2.2785      1.00000
    282       2.2785      1.00000
    283       2.2785      1.00000
    284       2.2785      1.00000
    285       2.2785      1.00000
    286       2.2785      1.00000
    287       2.2785      1.00000
    288       2.6149      1.00000
    289       2.6149      1.00000
    290       2.6149      1.00000
    291       2.6149      1.00000
    292       2.6149      1.00000
    293       2.6149      1.00000
    294       2.6149      1.00000
    295       2.6149      1.00000
    296       2.6149      1.00000
    297       2.6149      1.00000
    298       2.6149      1.00000
    299       2.6149      1.00000
    300       2.6149      1.00000
    301       2.6149      1.00000
    302       2.6149      1.00000
    303       2.6149      1.00000
    304       2.6149      1.00000
    305       2.6149      1.00000
    306       2.6149      1.00000
    307       2.6149      1.00000
    308       2.6149      1.00000
    309       2.6150      1.00000
    310       2.6150      1.00000
    311       2.6150      1.00000
    312       2.8304      1.00000
    313       2.8304      1.00000
    314       2.8304      1.00000
    315       2.8304      1.00000
    316       2.8304      1.00000
    317       2.8304      1.00000
    318       2.8304      1.00000
    319       2.8304      1.00000
    320       2.8304      1.00000
    321       2.8304      1.00000
    322       2.8304      1.00000
    323       2.8304      1.00000
    324       2.8304      1.00000
    325       2.8304      1.00000
    326       2.8304      1.00000
    327       2.8304      1.00000
    328       2.8304      1.00000
    329       2.8304      1.00000
    330       2.8304      1.00000
    331       2.8304      1.00000
    332       2.8304      1.00000
    333       2.8304      1.00000
    334       2.8304      1.00000
    335       2.8304      1.00000
    336       2.8733      1.00000
    337       2.8733      1.00000
    338       2.8733      1.00000
    339       2.8733      1.00000
    340       2.8733      1.00000
    341       2.8733      1.00000
    342       2.8733      1.00000
    343       2.8733      1.00000
    344       2.8733      1.00000
    345       2.8733      1.00000
    346       2.8733      1.00000
    347       2.8733      1.00000
    348       3.0711      1.00000
    349       3.0711      1.00000
    350       3.0711      1.00000
    351       3.0711      1.00000
    352       3.0711      1.00000
    353       3.0711      1.00000
    354       3.0711      1.00000
    355       3.0711      1.00000
    356       3.0711      1.00000
    357       3.0711      1.00000
    358       3.0711      1.00000
    359       3.0711      1.00000
    360       3.5409      1.00000
    361       3.5409      1.00000
    362       3.5409      1.00000
    363       3.5409      1.00000
    364       3.5409      1.00000
    365       3.5409      1.00000
    366       3.5409      1.00000
    367       3.5409      1.00000
    368       3.5409      1.00000
    369       3.5409      1.00000
    370       3.5409      1.00000
    371       3.5409      1.00000
    372       3.5409      1.00000
    373       3.5409      1.00000
    374       3.5409      1.00000
    375       3.5409      1.00000
    376       3.5409      1.00000
    377       3.5409      1.00000
    378       3.5409      1.00000
    379       3.5409      1.00000
    380       3.5409      1.00000
    381       3.5409      1.00000
    382       3.5409      1.00000
    383       3.5409      1.00000
    384       4.4325      1.00000
    385       4.4325      1.00000
    386       4.4325      1.00000
    387       4.4325      1.00000
    388       4.4325      1.00000
    389       4.4325      1.00000
    390       4.7988      1.00000
    391       4.7988      1.00000
    392       4.7988      1.00000
    393       4.7988      1.00000
    394       4.7988      1.00000
    395       4.7988      1.00000
    396       4.7988      1.00000
    397       4.7988      1.00000
    398       4.7988      1.00000
    399       4.7988      1.00000
    400       4.7988      1.00000
    401       4.7988      1.00000
    402       4.9929      1.00000
    403       4.9929      1.00000
    404       4.9929      1.00000
    405       4.9929      1.00000
    406       4.9929      1.00000
    407       4.9929      1.00000
    408       4.9929      1.00000
    409       4.9929      1.00000
    410       4.9929      1.00000
    411       4.9929      1.00000
    412       4.9929      1.00000
    413       4.9929      1.00000
    414       4.9929      1.00000
    415       4.9929      1.00000
    416       4.9929      1.00000
    417       4.9929      1.00000
    418       5.7681      1.00000
    419       5.7681      1.00000
    420       5.7681      1.00000
    421       5.7681      1.00000
    422       5.7681      1.00000
    423       5.7681      1.00000
    424       5.7681      1.00000
    425       5.7681      1.00000
    426       5.7681      1.00000
    427       5.7681      1.00000
    428       5.7681      1.00000
    429       5.7681      1.00000
    430       6.7022      1.00000
    431       6.7022      1.00000
    432       6.7022      1.00000
    433      12.5250      0.00000
    434      12.5250      0.00000
    435      12.5250      0.00000
    436      13.8919      0.00000
    437      13.8919      0.00000
    438      13.8919      0.00000
    439      13.8919      0.00000
    440      13.8919      0.00000
    441      13.8919      0.00000
    442      16.0789      0.00000
    443      16.0789      0.00000
    444      16.0789      0.00000
    445      16.0789      0.00000
    446      16.0789      0.00000
    447      16.0789      0.00000
    448      16.0789      0.00000
    449      16.0789      0.00000
    450      16.0789      0.00000
    451      16.0789      0.00000
    452      16.0789      0.00000
    453      16.0789      0.00000
    454      16.1426      0.00000
    455      16.1426      0.00000
    456      16.1426      0.00000
    457      16.1426      0.00000
    458      16.1426      0.00000
    459      16.1426      0.00000
    460      16.1426      0.00000
    461      16.1426      0.00000
    462      16.1426      0.00000
    463      16.1426      0.00000
    464      16.1426      0.00000
    465      16.1426      0.00000
    466      16.1698      0.00000
    467      16.1698      0.00000
    468      16.1698      0.00000
    469      16.1698      0.00000
    470      16.1698      0.00000
    471      16.1698      0.00000
    472      17.2049      0.00000
    473      17.2049      0.00000
    474      17.2049      0.00000
    475      17.2049      0.00000
    476      17.2049      0.00000
    477      17.2049      0.00000
    478      17.2049      0.00000
    479      17.2049      0.00000
    480      17.2049      0.00000
    481      17.2049      0.00000
    482      17.2049      0.00000
    483      17.2049      0.00000
    484      17.2049      0.00000
    485      17.2049      0.00000
    486      17.2049      0.00000
    487      17.2049      0.00000
    488      17.2049      0.00000
    489      17.2049      0.00000
    490      17.2049      0.00000
    491      17.2049      0.00000
    492      17.2049      0.00000
    493      17.2049      0.00000
    494      17.2049      0.00000
    495      17.2049      0.00000
    496      17.2767      0.00000
    497      17.2767      0.00000
    498      17.2767      0.00000
    499      17.2767      0.00000
    500      17.2767      0.00000
    501      17.2767      0.00000
    502      17.2767      0.00000
    503      17.2767      0.00000
    504      17.2767      0.00000
    505      17.2767      0.00000
    506      17.2767      0.00000
    507      17.2767      0.00000
    508      17.2767      0.00000
    509      17.2767      0.00000
    510      17.2767      0.00000
    511      17.2767      0.00000
    512      17.2767      0.00000
    513      17.2767      0.00000
    514      17.2767      0.00000
    515      17.2767      0.00000
    516      17.2767      0.00000
    517      17.2767      0.00000
    518      17.2767      0.00000
    519      17.2767      0.00000
    520      17.3596      0.00000
    521      17.3596      0.00000
    522      17.3596      0.00000
    523      17.5486      0.00000
    524      17.5486      0.00000
    525      17.5486      0.00000
    526      18.5196      0.00000
    527      18.5196      0.00000
    528      18.5196      0.00000
    529      18.5196      0.00000
    530      18.5196      0.00000
    531      18.5196      0.00000
    532      18.5196      0.00000
    533      18.5196      0.00000
    534      18.7059      0.00000
    535      18.7059      0.00000
    536      18.7059      0.00000
    537      18.7059      0.00000
    538      18.7059      0.00000
    539      18.7059      0.00000
    540      19.0021      0.00000
    541      19.0021      0.00000
    542      19.0021      0.00000
    543      19.0021      0.00000
    544      19.0021      0.00000
    545      19.0021      0.00000
    546      19.0021      0.00000
    547      19.0021      0.00000
    548      19.0021      0.00000
    549      19.0021      0.00000
    550      19.0021      0.00000
    551      19.0021      0.00000
    552      19.1069      0.00000
    553      19.1927      0.00000
    554      19.1927      0.00000
    555      19.1927      0.00000
    556      19.1927      0.00000
    557      19.1927      0.00000
    558      19.1927      0.00000
    559      19.1927      0.00000
    560      19.1927      0.00000
    561      19.1927      0.00000
    562      19.1927      0.00000
    563      19.1927      0.00000
    564      19.1927      0.00000
    565      19.3097      0.00000
    566      19.3097      0.00000
    567      19.3097      0.00000
    568      19.3097      0.00000
    569      19.3097      0.00000
    570      19.3097      0.00000
    571      19.3097      0.00000
    572      19.3097      0.00000
    573      19.3097      0.00000
    574      19.3097      0.00000
    575      19.3097      0.00000
    576      19.3097      0.00000
    577      19.3097      0.00000
    578      19.3097      0.00000
    579      19.3097      0.00000
    580      19.3097      0.00000
    581      19.5554      0.00000
    582      19.5554      0.00000
    583      19.5554      0.00000
    584      19.5554      0.00000
    585      19.5554      0.00000
    586      19.5554      0.00000
    587      19.5554      0.00000
    588      19.5554      0.00000
    589      19.5554      0.00000
    590      19.5554      0.00000
    591      19.5554      0.00000
    592      19.5554      0.00000
    593      20.0745      0.00000
    594      20.0745      0.00000
    595      20.0745      0.00000
    596      20.0745      0.00000
    597      20.0745      0.00000
    598      20.0745      0.00000
    599      20.0745      0.00000
    600      20.0745      0.00000
    601      20.0745      0.00000
    602      20.0745      0.00000
    603      20.0745      0.00000
    604      20.0745      0.00000
    605      20.4893      0.00000
    606      20.4893      0.00000
    607      20.4893      0.00000
    608      20.4893      0.00000
    609      20.4893      0.00000
    610      20.4893      0.00000
    611      20.4893      0.00000
    612      20.4893      0.00000
    613      20.4893      0.00000
    614      20.4893      0.00000
    615      20.4893      0.00000
    616      20.4893      0.00000
    617      20.4893      0.00000
    618      20.4893      0.00000
    619      20.4893      0.00000
    620      20.4893      0.00000
    621      20.4893      0.00000
    622      20.4893      0.00000
    623      20.4894      0.00000
    624      20.4894      0.00000
    625      20.4894      0.00000
    626      20.4894      0.00000
    627      20.4894      0.00000
    628      20.4895      0.00000
    629      20.5854      0.00000
    630      20.5854      0.00000
    631      20.5854      0.00000
    632      20.5854      0.00000
    633      20.5854      0.00000
    634      20.5854      0.00000
    635      20.5855      0.00000
    636      20.5855      0.00000
    637      20.5855      0.00000
    638      20.5856      0.00000
    639      20.5857      0.00000
    640      20.5859      0.00000
    641      20.7720      0.00000
    642      20.7721      0.00000
    643      20.7722      0.00000
    644      20.7726      0.00000
    645      20.7731      0.00000
    646      20.7746      0.00000
    647      21.1522      0.00000
    648      21.1524      0.00000
    649      21.1524      0.00000
    650      21.1526      0.00000
    651      21.1537      0.00000
    652      21.1551      0.00000


--------------------------------------------------------------------------------------------------------


 soft charge-density along one line, spin component           1
         0         1         2         3         4         5         6         7         8         9
 total charge-density along one line
 
 soft charge-density along one line, spin component           2
         0         1         2         3         4         5         6         7         8         9
 total charge-density along one line
 
 pseudopotential strength for first ion, spin component:           1
  5.850   8.872  -0.000  -0.000   0.000  -0.000  -0.000   0.000
  8.872  13.445  -0.000  -0.000   0.000  -0.000  -0.000   0.000
 -0.000  -0.000  -1.951   0.000  -0.000  -3.244   0.000  -0.000
 -0.000  -0.000   0.000  -1.951   0.000   0.000  -3.244   0.000
  0.000   0.000  -0.000   0.000  -1.951  -0.000   0.000  -3.244
 -0.000  -0.000  -3.244   0.000  -0.000  -5.187   0.000  -0.000
 -0.000  -0.000   0.000  -3.244   0.000   0.000  -5.187   0.000
  0.000   0.000  -0.000   0.000  -3.244  -0.000   0.000  -5.187
 pseudopotential strength for first ion, spin component:           2
  5.850   8.872  -0.000  -0.000   0.000  -0.000  -0.000   0.000
  8.872  13.445  -0.000  -0.000   0.000  -0.000  -0.000   0.000
 -0.000  -0.000  -1.951   0.000  -0.000  -3.244   0.000  -0.000
 -0.000  -0.000   0.000  -1.951   0.000   0.000  -3.244   0.000
  0.000   0.000  -0.000   0.000  -1.951  -0.000   0.000  -3.244
 -0.000  -0.000  -3.244   0.000  -0.000  -5.187   0.000  -0.000
 -0.000  -0.000   0.000  -3.244   0.000   0.000  -5.187   0.000
  0.000   0.000  -0.000   0.000  -3.244  -0.000   0.000  -5.187
 total augmentation occupancy for first ion, spin component:           1
  4.172  -1.281   0.000   0.000  -0.000  -0.000  -0.000   0.000
 -1.281   0.420  -0.000  -0.000   0.000   0.000   0.000  -0.000
  0.000  -0.000   3.869   0.000  -0.000  -1.171  -0.000  -0.000
  0.000  -0.000   0.000   3.869   0.000   0.000  -1.171  -0.000
 -0.000   0.000  -0.000   0.000   3.869   0.000  -0.000  -1.171
 -0.000   0.000  -1.171   0.000   0.000   0.367   0.000   0.000
 -0.000   0.000  -0.000  -1.171  -0.000   0.000   0.367   0.000
  0.000  -0.000  -0.000  -0.000  -1.171   0.000   0.000   0.367
 total augmentation occupancy for first ion, spin component:           2
 -0.000   0.000   0.000  -0.000   0.000   0.000  -0.000  -0.000
  0.000  -0.000  -0.000  -0.000  -0.000   0.000   0.000   0.000
  0.000  -0.000  -0.000  -0.000  -0.000   0.000   0.000   0.000
 -0.000  -0.000  -0.000  -0.000  -0.000   0.000   0.000   0.000
  0.000  -0.000  -0.000  -0.000  -0.000   0.000   0.000   0.000
  0.000   0.000   0.000   0.000   0.000  -0.000  -0.000  -0.000
 -0.000   0.000   0.000   0.000   0.000  -0.000  -0.000  -0.000
 -0.000   0.000   0.000   0.000   0.000  -0.000  -0.000  -0.000


------------------------ aborting loop because EDIFF is reached ----------------------------------------





 total charge

# of ion       s       p       d       tot
------------------------------------------
    1        0.684   1.367   0.000   2.052
    2        0.684   1.367   0.000   2.052
    3        0.684   1.367   0.000   2.052
    4        0.684   1.367   0.000   2.052
    5        0.684   1.367   0.000   2.052
    6        0.684   1.367   0.000   2.052
    7        0.684   1.367   0.000   2.052
    8        0.684   1.367   0.000   2.052
    9        0.684   1.367   0.000   2.052
   10        0.684   1.367   0.000   2.052
   11        0.684   1.367   0.000   2.052
   12        0.684   1.367   0.000   2.052
   13        0.684   1.367   0.000   2.052
   14        0.684   1.367   0.000   2.052
   15        0.684   1.367   0.000   2.052
   16        0.684   1.367   0.000   2.052
   17        0.684   1.367   0.000   2.052
   18        0.684   1.367   0.000   2.052
   19        0.684   1.367   0.000   2.052
   20        0.684   1.367   0.000   2.052
   21        0.684   1.367   0.000   2.052
   22        0.684   1.367   0.000   2.052
   23        0.684   1.367   0.000   2.052
   24        0.684   1.367   0.000   2.052
   25        0.684   1.367   0.000   2.052
   26        0.684   1.367   0.000   2.052
   27        0.684   1.367   0.000   2.052
   28        0.684   1.367   0.000   2.052
   29        0.684   1.367   0.000   2.052
   30        0.684   1.367   0.000   2.052
   31        0.684   1.367   0.000   2.052
   32        0.684   1.367   0.000   2.052
   33        0.684   1.367   0.000   2.052
   34        0.684   1.367   0.000   2.052
   35        0.684   1.367   0.000   2.052
   36        0.684   1.367   0.000   2.052
   37        0.684   1.367   0.000   2.052
   38        0.684   1.367   0.000   2.052
   39        0.684   1.367   0.000   2.052
   40        0.684   1.367   0.000   2.052
   41        0.684   1.367   0.000   2.052
   42        0.684   1.367   0.000   2.052
   43        0.684   1.367   0.000   2.052
   44        0.684   1.367   0.000   2.052
   45        0.684   1.367   0.000   2.052
   46        0.684   1.367   0.000   2.052
   47        0.684   1.367   0.000   2.052
   48        0.684   1.367   0.000   2.052
   49        0.684   1.367   0.000   2.052
   50        0.684   1.367   0.000   2.052
   51        0.684   1.367   0.000   2.052
   52        0.684   1.367   0.000   2.052
   53        0.684   1.367   0.000   2.052
   54        0.684   1.367   0.000   2.052
   55        0.684   1.367   0.000   2.052
   56        0.684   1.367   0.000   2.052
   57        0.684   1.367   0.000   2.052
   58        0.684   1.367   0.000   2.052
   59        0.684   1.367   0.000   2.052
   60        0.684   1.367   0.000   2.052
   61        0.684   1.367   0.000   2.052
   62        0.684   1.367   0.000   2.052
   63        0.684   1.367   0.000   2.052
   64        0.684   1.367   0.000   2.052
   65        0.684   1.367   0.000   2.052
   66        0.684   1.367   0.000   2.052
   67        0.684   1.367   0.000   2.052
   68        0.684   1.367   0.000   2.052
   69        0.684   1.367   0.000   2.052
   70        0.684   1.367   0.000   2.052
   71        0.684   1.367   0.000   2.052
   72        0.684   1.367   0.000   2.052
   73        0.684   1.367   0.000   2.052
   74        0.684   1.367   0.000   2.052
   75        0.684   1.367   0.000   2.052
   76        0.684   1.367   0.000   2.052
   77        0.684   1.367   0.000   2.052
   78        0.684   1.367   0.000   2.052
   79        0.684   1.367   0.000   2.052
   80        0.684   1.367   0.000   2.052
   81        0.684   1.367   0.000   2.052
   82        0.684   1.367   0.000   2.052
   83        0.684   1.367   0.000   2.052
   84        0.684   1.367   0.000   2.052
   85        0.684   1.367   0.000   2.052
   86        0.684   1.367   0.000   2.052
   87        0.684   1.367   0.000   2.052
   88        0.684   1.367   0.000   2.052
   89        0.684   1.367   0.000   2.052
   90        0.684   1.367   0.000   2.052
   91        0.684   1.367   0.000   2.052
   92        0.684   1.367   0.000   2.052
   93        0.684   1.367   0.000   2.052
   94        0.684   1.367   0.000   2.052
   95        0.684   1.367   0.000   2.052
   96        0.684   1.367   0.000   2.052
   97        0.684   1.367   0.000   2.052
   98        0.684   1.367   0.000   2.052
   99        0.684   1.367   0.000   2.052
  100        0.684   1.367   0.000   2.052
  101        0.684   1.367   0.000   2.052
  102        0.684   1.367   0.000   2.052
  103        0.684   1.367   0.000   2.052
  104        0.684   1.367   0.000   2.052
  105        0.684   1.367   0.000   2.052
  106        0.684   1.367   0.000   2.052
  107        0.684   1.367   0.000   2.052
  108        0.684   1.367   0.000   2.052
  109        1.220   2.787   0.000   4.007
  110        1.220   2.787   0.000   4.007
  111        1.220   2.787   0.000   4.007
  112        1.220   2.787   0.000   4.007
  113        1.220   2.787   0.000   4.007
  114        1.220   2.787   0.000   4.007
  115        1.220   2.787   0.000   4.007
  116        1.220   2.787   0.000   4.007
  117        1.220   2.787   0.000   4.007
  118        1.220   2.787   0.000   4.007
  119        1.220   2.787   0.000   4.007
  120        1.220   2.787   0.000   4.007
  121        1.220   2.787   0.000   4.007
  122        1.220   2.787   0.000   4.007
  123        1.220   2.787   0.000   4.007
  124        1.220   2.787   0.000   4.007
  125        1.220   2.787   0.000   4.007
  126        1.220   2.787   0.000   4.007
  127        1.220   2.787   0.000   4.007
  128        1.220   2.787   0.000   4.007
  129        1.220   2.787   0.000   4.007
  130        1.220   2.787   0.000   4.007
  131        1.220   2.787   0.000   4.007
  132        1.220   2.787   0.000   4.007
  133        1.220   2.787   0.000   4.007
  134        1.220   2.787   0.000   4.007
  135        1.220   2.787   0.000   4.007
  136        1.220   2.787   0.000   4.007
  137        1.220   2.787   0.000   4.007
  138        1.220   2.787   0.000   4.007
  139        1.220   2.787   0.000   4.007
  140        1.220   2.787   0.000   4.007
  141        1.220   2.787   0.000   4.007
  142        1.220   2.787   0.000   4.007
  143        1.220   2.787   0.000   4.007
  144        1.220   2.787   0.000   4.007
  145        1.220   2.787   0.000   4.007
  146        1.220   2.787   0.000   4.007
  147        1.220   2.787   0.000   4.007
  148        1.220   2.787   0.000   4.007
  149        1.220   2.787   0.000   4.007
  150        1.220   2.787   0.000   4.007
  151        1.220   2.787   0.000   4.007
  152        1.220   2.787   0.000   4.007
  153        1.220   2.787   0.000   4.007
  154        1.220   2.787   0.000   4.007
  155        1.220   2.787   0.000   4.007
  156        1.220   2.787   0.000   4.007
  157        1.220   2.787   0.000   4.007
  158        1.220   2.787   0.000   4.007
  159        1.220   2.787   0.000   4.007
  160        1.220   2.787   0.000   4.007
  161        1.220   2.787   0.000   4.007
  162        1.220   2.787   0.000   4.007
  163        1.220   2.787   0.000   4.007
  164        1.220   2.787   0.000   4.007
  165        1.220   2.787   0.000   4.007
  166        1.220   2.787   0.000   4.007
  167        1.220   2.787   0.000   4.007
  168        1.220   2.787   0.000   4.007
  169        1.220   2.787   0.000   4.007
  170        1.220   2.787   0.000   4.007
  171        1.220   2.787   0.000   4.007
  172        1.220   2.787   0.000   4.007
  173        1.220   2.787   0.000   4.007
  174        1.220   2.787   0.000   4.007
  175        1.220   2.787   0.000   4.007
  176        1.220   2.787   0.000   4.007
  177        1.220   2.787   0.000   4.007
  178        1.220   2.787   0.000   4.007
  179        1.220   2.787   0.000   4.007
  180        1.220   2.787   0.000   4.007
  181        1.220   2.787   0.000   4.007
  182        1.220   2.787   0.000   4.007
  183        1.220   2.787   0.000   4.007
  184        1.220   2.787   0.000   4.007
  185        1.220   2.787   0.000   4.007
  186        1.220   2.787   0.000   4.007
  187        1.220   2.787   0.000   4.007
  188        1.220   2.787   0.000   4.007
  189        1.220   2.787   0.000   4.007
  190        1.220   2.787   0.000   4.007
  191        1.220   2.787   0.000   4.007
  192        1.220   2.787   0.000   4.007
  193        1.220   2.787   0.000   4.007
  194        1.220   2.787   0.000   4.007
  195        1.220   2.787   0.000   4.007
  196        1.220   2.787   0.000   4.007
  197        1.220   2.787   0.000   4.007
  198        1.220   2.787   0.000   4.007
  199        1.220   2.787   0.000   4.007
  200        1.220   2.787   0.000   4.007
  201        1.220   2.787   0.000   4.007
  202        1.220   2.787   0.000   4.007
  203        1.220   2.787   0.000   4.007
  204        1.220   2.787   0.000   4.007
  205        1.220   2.787   0.000   4.007
  206        1.220   2.787   0.000   4.007
  207        1.220   2.787   0.000   4.007
  208        1.220   2.787   0.000   4.007
  209        1.220   2.787   0.000   4.007
  210        1.220   2.787   0.000   4.007
  211        1.220   2.787   0.000   4.007
  212        1.220   2.787   0.000   4.007
  213        1.220   2.787   0.000   4.007
  214        1.220   2.787   0.000   4.007
  215        1.220   2.787   0.000   4.007
  216        1.220   2.787   0.000   4.007
--------------------------------------------------
tot        205.734 448.659   0.000 654.393



 magnetization (x)

# of ion       s       p       d       tot
------------------------------------------
    1       -0.000  -0.000   0.000  -0.000
    2       -0.000  -0.000   0.000  -0.000
    3       -0.000  -0.000   0.000  -0.000
    4       -0.000  -0.000   0.000  -0.000
    5       -0.000  -0.000   0.000  -0.000
    6       -0.000  -0.000   0.000  -0.000
    7       -0.000  -0.000   0.000  -0.000
    8       -0.000  -0.000   0.000  -0.000
    9       -0.000  -0.000   0.000  -0.000
   10       -0.000  -0.000   0.000  -0.000
   11       -0.000  -0.000   0.000  -0.000
   12       -0.000  -0.000   0.000  -0.000
   13       -0.000  -0.000   0.000  -0.000
   14       -0.000  -0.000   0.000  -0.000
   15       -0.000  -0.000   0.000  -0.000
   16       -0.000  -0.000   0.000  -0.000
   17       -0.000  -0.000   0.000  -0.000
   18       -0.000  -0.000   0.000  -0.000
   19       -0.000  -0.000   0.000  -0.000
   20       -0.000  -0.000   0.000  -0.000
   21       -0.000  -0.000   0.000  -0.000
   22       -0.000  -0.000   0.000  -0.000
   23       -0.000  -0.000   0.000  -0.000
   24       -0.000  -0.000   0.000  -0.000
   25       -0.000  -0.000   0.000  -0.000
   26       -0.000  -0.000   0.000  -0.000
   27       -0.000  -0.000   0.000  -0.000
   28       -0.000  -0.000   0.000  -0.000
   29       -0.000  -0.000   0.000  -0.000
   30       -0.000  -0.000   0.000  -0.000
   31       -0.000  -0.000   0.000  -0.000
   32       -0.000  -0.000   0.000  -0.000
   33       -0.000  -0.000   0.000  -0.000
   34       -0.000  -0.000   0.000  -0.000
   35       -0.000  -0.000   0.000  -0.000
   36       -0.000  -0.000   0.000  -0.000
   37       -0.000  -0.000   0.000  -0.000
   38       -0.000  -0.000   0.000  -0.000
   39       -0.000  -0.000   0.000  -0.000
   40       -0.000  -0.000   0.000  -0.000
   41       -0.000  -0.000   0.000  -0.000
   42       -0.000  -0.000   0.000  -0.000
   43       -0.000  -0.000   0.000  -0.000
   44       -0.000  -0.000   0.000  -0.000
   45       -0.000  -0.000   0.000  -0.000
   46       -0.000  -0.000   0.000  -0.000
   47       -0.000  -0.000   0.000  -0.000
   48       -0.000  -0.000   0.000  -0.000
   49       -0.000  -0.000   0.000  -0.000
   50       -0.000  -0.000   0.000  -0.000
   51       -0.000  -0.000   0.000  -0.000
   52       -0.000  -0.000   0.000  -0.000
   53       -0.000  -0.000   0.000  -0.000
   54       -0.000  -0.000   0.000  -0.000
   55       -0.000  -0.000   0.000  -0.000
   56       -0.000  -0.000   0.000  -0.000
   57       -0.000  -0.000   0.000  -0.000
   58       -0.000  -0.000   0.000  -0.000
   59       -0.000  -0.000   0.000  -0.000
   60       -0.000  -0.000   0.000  -0.000
   61       -0.000  -0.000   0.000  -0.000
   62       -0.000  -0.000   0.000  -0.000
   63       -0.000  -0.000   0.000  -0.000
   64       -0.000  -0.000   0.000  -0.000
   65       -0.000  -0.000   0.000  -0.000
   66       -0.000  -0.000   0.000  -0.000
   67       -0.000  -0.000   0.000  -0.000
   68       -0.000  -0.000   0.000  -0.000
   69       -0.000  -0.000   0.000  -0.000
   70       -0.000  -0.000   0.000  -0.000
   71       -0.000  -0.000   0.000  -0.000
   72       -0.000  -0.000   0.000  -0.000
   73       -0.000  -0.000   0.000  -0.000
   74       -0.000  -0.000   0.000  -0.000
   75       -0.000  -0.000   0.000  -0.000
   76       -0.000  -0.000   0.000  -0.000
   77       -0.000  -0.000   0.000  -0.000
   78       -0.000  -0.000   0.000  -0.000
   79       -0.000  -0.000   0.000  -0.000
   80       -0.000  -0.000   0.000  -0.000
   81       -0.000  -0.000   0.000  -0.000
   82       -0.000  -0.000   0.000  -0.000
   83       -0.000  -0.000   0.000  -0.000
   84       -0.000  -0.000   0.000  -0.000
   85       -0.000  -0.000   0.000  -0.000
   86       -0.000  -0.000   0.000  -0.000
   87       -0.000  -0.000   0.000  -0.000
   88       -0.000  -0.000   0.000  -0.000
   89       -0.000  -0.000   0.000  -0.000
   90       -0.000  -0.000   0.000  -0.000
   91       -0.000  -0.000   0.000  -0.000
   92       -0.000  -0.000   0.000  -0.000
   93       -0.000  -0.000   0.000  -0.000
   94       -0.000  -0.000   0.000  -0.000
   95       -0.000  -0.000   0.000  -0.000
   96       -0.000  -0.000   0.000  -0.000
   97       -0.000  -0.000   0.000  -0.000
   98       -0.000  -0.000   0.000  -0.000
   99       -0.000  -0.000   0.000  -0.000
  100       -0.000  -0.000   0.000  -0.000
  101       -0.000  -0.000   0.000  -0.000
  102       -0.000  -0.000   0.000  -0.000
  103       -0.000  -0.000   0.000  -0.000
  104       -0.000  -0.000   0.000  -0.000
  105       -0.000  -0.000   0.000  -0.000
  106       -0.000  -0.000   0.000  -0.000
  107       -0.000  -0.000   0.000  -0.000
  108       -0.000  -0.000   0.000  -0.000
  109       -0.000  -0.000   0.000  -0.000
  110       -0.000  -0.000   0.000  -0.000
  111       -0.000  -0.000   0.000  -0.000
  112       -0.000  -0.000   0.000  -0.000
  113       -0.000  -0.000   0.000  -0.000
  114       -0.000  -0.000   0.000  -0.000
  115       -0.000  -0.000   0.000  -0.000
  116       -0.000  -0.000   0.000  -0.000
  117       -0.000  -0.000   0.000  -0.000
  118       -0.000  -0.000   0.000  -0.000
  119       -0.000  -0.000   0.000  -0.000
  120       -0.000  -0.000   0.000  -0.000
  121       -0.000  -0.000   0.000  -0.000
  122       -0.000  -0.000   0.000  -0.000
  123       -0.000  -0.000   0.000  -0.000
  124       -0.000  -0.000   0.000  -0.000
  125       -0.000  -0.000   0.000  -0.000
  126       -0.000  -0.000   0.000  -0.000
  127       -0.000  -0.000   0.000  -0.000
  128       -0.000  -0.000   0.000  -0.000
  129       -0.000  -0.000   0.000  -0.000
  130       -0.000  -0.000   0.000  -0.000
  131       -0.000  -0.000   0.000  -0.000
  132       -0.000  -0.000   0.000  -0.000
  133       -0.000  -0.000   0.000  -0.000
  134       -0.000  -0.000   0.000  -0.000
  135       -0.000  -0.000   0.000  -0.000
  136       -0.000  -0.000   0.000  -0.000
  137       -0.000  -0.000   0.000  -0.000
  138       -0.000  -0.000   0.000  -0.000
  139       -0.000  -0.000   0.000  -0.000
  140       -0.000  -0.000   0.000  -0.000
  141       -0.000  -0.000   0.000  -0.000
  142       -0.000  -0.000   0.000  -0.000
  143       -0.000  -0.000   0.000  -0.000
  144       -0.000  -0.000   0.000  -0.000
  145       -0.000  -0.000   0.000  -0.000
  146       -0.000  -0.000   0.000  -0.000
  147       -0.000  -0.000   0.000  -0.000
  148       -0.000  -0.000   0.000  -0.000
  149       -0.000  -0.000   0.000  -0.000
  150       -0.000  -0.000   0.000  -0.000
  151       -0.000  -0.000   0.000  -0.000
  152       -0.000  -0.000   0.000  -0.000
  153       -0.000  -0.000   0.000  -0.000
  154       -0.000  -0.000   0.000  -0.000
  155       -0.000  -0.000   0.000  -0.000
  156       -0.000  -0.000   0.000  -0.000
  157       -0.000  -0.000   0.000  -0.000
  158       -0.000  -0.000   0.000  -0.000
  159       -0.000  -0.000   0.000  -0.000
  160       -0.000  -0.000   0.000  -0.000
  161       -0.000  -0.000   0.000  -0.000
  162       -0.000  -0.000   0.000  -0.000
  163       -0.000  -0.000   0.000  -0.000
  164       -0.000  -0.000   0.000  -0.000
  165       -0.000  -0.000   0.000  -0.000
  166       -0.000  -0.000   0.000  -0.000
  167       -0.000  -0.000   0.000  -0.000
  168       -0.000  -0.000   0.000  -0.000
  169       -0.000  -0.000   0.000  -0.000
  170       -0.000  -0.000   0.000  -0.000
  171       -0.000  -0.000   0.000  -0.000
  172       -0.000  -0.000   0.000  -0.000
  173       -0.000  -0.000   0.000  -0.000
  174       -0.000  -0.000   0.000  -0.000
  175       -0.000  -0.000   0.000  -0.000
  176       -0.000  -0.000   0.000  -0.000
  177       -0.000  -0.000   0.000  -0.000
  178       -0.000  -0.000   0.000  -0.000
  179       -0.000  -0.000   0.000  -0.000
  180       -0.000  -0.000   0.000  -0.000
  181       -0.000  -0.000   0.000  -0.000
  182       -0.000  -0.000   0.000  -0.000
  183       -0.000  -0.000   0.000  -0.000
  184       -0.000  -0.000   0.000  -0.000
  185       -0.000  -0.000   0.000  -0.000
  186       -0.000  -0.000   0.000  -0.000
  187       -0.000  -0.000   0.000  -0.000
  188       -0.000  -0.000   0.000  -0.000
  189       -0.000  -0.000   0.000  -0.000
  190       -0.000  -0.000   0.000  -0.000
  191       -0.000  -0.000   0.000  -0.000
  192       -0.000  -0.000   0.000  -0.000
  193       -0.000  -0.000   0.000  -0.000
  194       -0.000  -0.000   0.000  -0.000
  195       -0.000  -0.000   0.000  -0.000
  196       -0.000  -0.000   0.000  -0.000
  197       -0.000  -0.000   0.000  -0.000
  198       -0.000  -0.000   0.000  -0.000
  199       -0.000  -0.000   0.000  -0.000
  200       -0.000  -0.000   0.000  -0.000
  201       -0.000  -0.000   0.000  -0.000
  202       -0.000  -0.000   0.000  -0.000
  203       -0.000  -0.000   0.000  -0.000
  204       -0.000  -0.000   0.000  -0.000
  205       -0.000  -0.000   0.000  -0.000
  206       -0.000  -0.000   0.000  -0.000
  207       -0.000  -0.000   0.000  -0.000
  208       -0.000  -0.000   0.000  -0.000
  209       -0.000  -0.000   0.000  -0.000
  210       -0.000  -0.000   0.000  -0.000
  211       -0.000  -0.000   0.000  -0.000
  212       -0.000  -0.000   0.000  -0.000
  213       -0.000  -0.000   0.000  -0.000
  214       -0.000  -0.000   0.000  -0.000
  215       -0.000  -0.000   0.000  -0.000
  216       -0.000  -0.000   0.000  -0.000
--------------------------------------------------
tot         -0.000  -0.000   0.000  -0.000
 
    CHARGE:  cpu time      0.0788: real time      0.0793
    FORLOC:  cpu time      0.0497: real time      0.0499
    FORHF :  cpu time    162.6237: real time    163.6040
    FORNL :  cpu time      0.9075: real time      0.9144
    STRESS:  cpu time      2.6895: real time      2.7105
    FORCOR:  cpu time      0.2509: real time      0.2521
    FORHAR:  cpu time      0.0593: real time      0.0596
    MIXING:  cpu time      0.0010: real time      0.0010
    OFIELD:  cpu time      0.0000: real time      0.0000

  FORCE on cell =-STRESS in cart. coord.  units (eV):
  Direction    XX          YY          ZZ          XY          YZ          ZX
  --------------------------------------------------------------------------------------
  Alpha Z  3300.56433  3300.56433  3300.56433
  Ewald  -12963.34744-12963.34744-12963.34744    -0.00000     0.00000     0.00000
  Hartree  1763.70834  1763.70834  1763.70834    -0.00000     0.00000    -0.00000
  E(xc)   -2644.81987 -2644.81987 -2644.81987    -0.00000    -0.00000     0.00000
  Local   -1727.12748 -1727.12748 -1727.12748     0.00000     0.00000    -0.00000
  n-local -1509.35830 -1509.35830 -1509.35830    -0.00000     0.00000    -0.00000
  augment   114.49871   114.49871   114.49871    -0.00000     0.00000    -0.00000
  Kinetic 14627.65101 14627.65101 14627.65101     0.00000    -0.00000     0.00000
  Fock     -963.43226  -963.43226  -963.43226    -0.00000    -0.00000    -0.00000
  -------------------------------------------------------------------------------------
  Total      -1.66295    -1.66295    -1.66295     0.00000    -0.00000    -0.00000
  in kB      -2.11869    -2.11869    -2.11869     0.00000    -0.00000    -0.00000
  external pressure =       -2.12 kB  Pullay stress =        0.00 kB


 VOLUME and BASIS-vectors are now :
 -----------------------------------------------------------------------------
  energy-cutoff  :      500.00
  volume of cell :     1257.54
      direct lattice vectors                 reciprocal lattice vectors
    10.793797628  0.000000000  0.000000000     0.092645798  0.000000000  0.000000000
     0.000000000 10.793797628  0.000000000     0.000000000  0.092645798  0.000000000
     0.000000000  0.000000000 10.793797628     0.000000000  0.000000000  0.092645798

  length of vectors
    10.793797628 10.793797628 10.793797628     0.092645798  0.092645798  0.092645798


 FORCES acting on ions
    electron-ion (+dipol)            ewald-force                    non-local-force                 convergence-correction
 -----------------------------------------------------------------------------------------------
   -.623E-06 -.108E-05 0.779E-07   -.142E-13 -.977E-14 -.409E-13   -.264E-20 -.144E-20 0.195E-20   0.758E-06 0.119E-05 -.417E-07
   -.653E-06 -.677E-06 -.825E-05   -.666E-13 0.249E-13 -.110E-10   0.935E-21 -.212E-20 -.414E-20   0.862E-06 0.103E-05 -.100E-05
   -.721E-06 -.690E-06 0.853E-05   -.702E-13 -.888E-15 0.109E-10   -.228E-20 -.165E-20 0.167E-20   0.935E-06 0.881E-06 0.752E-06
   0.135E-06 -.812E-05 -.283E-06   -.320E-13 -.110E-10 -.393E-13   -.614E-21 0.403E-21 0.327E-22   -.158E-06 -.127E-05 0.275E-06
   -.392E-05 -.875E-05 -.843E-05   -.111E-12 -.110E-10 -.110E-10   -.104E-20 -.610E-23 0.296E-20   0.542E-06 -.336E-06 -.641E-06
   0.329E-05 -.871E-05 0.903E-05   -.484E-13 -.110E-10 0.110E-10   -.155E-20 -.189E-21 -.228E-20   0.281E-06 -.580E-06 0.457E-07
   -.371E-06 0.930E-05 -.220E-06   -.702E-13 0.109E-10 -.333E-13   0.218E-20 0.521E-20 0.734E-21   0.579E-06 -.211E-06 0.389E-06
   0.369E-05 0.987E-05 -.876E-05   -.480E-13 0.110E-10 -.110E-10   -.136E-21 -.200E-20 0.262E-20   -.939E-07 -.872E-06 -.484E-06
   -.405E-05 0.975E-05 0.902E-05   -.675E-13 0.110E-10 0.110E-10   -.240E-20 -.263E-20 -.483E-21   0.652E-06 -.694E-06 0.818E-07
   -.825E-05 -.238E-06 0.250E-06   -.110E-10 -.211E-13 -.444E-15   0.621E-21 0.210E-20 -.193E-20   -.119E-05 0.430E-06 -.231E-06
   -.865E-05 -.415E-05 -.920E-05   -.110E-10 -.999E-14 -.110E-10   0.226E-20 0.149E-20 -.189E-20   -.663E-06 0.712E-06 0.169E-06
   -.833E-05 0.323E-05 0.886E-05   -.110E-10 -.333E-14 0.110E-10   -.171E-20 0.902E-21 0.173E-20   -.986E-06 0.462E-06 0.287E-06
   -.886E-05 -.835E-05 -.348E-05   -.110E-10 -.110E-10 0.389E-13   0.190E-20 -.322E-21 0.410E-21   -.305E-06 -.803E-06 -.335E-07
   -.431E-05 -.448E-05 -.467E-05   -.110E-10 -.110E-10 -.110E-10   -.983E-21 0.107E-20 -.299E-20   -.954E-06 -.587E-06 -.327E-06
   0.353E-05 0.350E-05 -.291E-05   -.110E-10 -.110E-10 0.110E-10   0.239E-20 0.203E-20 -.168E-20   -.953E-06 -.882E-06 -.700E-07
   -.850E-05 0.898E-05 0.364E-05   -.110E-10 0.110E-10 0.977E-14   -.120E-21 0.798E-21 -.285E-20   -.785E-06 0.153E-06 0.143E-07
   0.275E-05 -.235E-05 0.306E-05   -.110E-10 0.110E-10 -.110E-10   0.283E-20 -.120E-21 0.198E-20   -.750E-07 -.651E-06 -.229E-06
   -.476E-05 0.479E-05 0.486E-05   -.110E-10 0.110E-10 0.110E-10   -.859E-21 0.241E-20 0.780E-22   -.313E-06 0.213E-06 0.209E-06
   0.911E-05 -.474E-06 -.319E-06   0.109E-10 -.142E-13 -.142E-13   0.290E-21 -.123E-20 -.364E-21   0.249E-06 0.603E-06 0.493E-06
   0.920E-05 0.318E-05 -.862E-05   0.109E-10 0.466E-14 -.110E-10   -.188E-20 -.103E-20 -.114E-21   -.145E-06 0.419E-06 -.543E-06
   0.900E-05 -.420E-05 0.904E-05   0.110E-10 -.382E-13 0.109E-10   -.180E-20 0.236E-21 -.253E-20   0.133E-06 0.847E-06 -.930E-08
   0.872E-05 -.899E-05 0.356E-05   0.110E-10 -.110E-10 -.251E-13   -.489E-21 0.596E-21 -.318E-22   0.439E-06 -.170E-06 0.241E-08
   -.282E-05 0.323E-05 0.319E-05   0.110E-10 -.110E-10 -.110E-10   0.180E-20 0.357E-21 -.670E-21   0.149E-06 -.564E-06 -.451E-06
   0.481E-05 -.482E-05 0.513E-05   0.110E-10 -.110E-10 0.110E-10   0.438E-21 0.120E-20 -.552E-21   0.223E-06 -.308E-06 0.918E-07
   0.906E-05 0.968E-05 -.376E-05   0.110E-10 0.110E-10 -.160E-13   -.176E-20 -.100E-20 0.160E-20   0.148E-06 -.751E-06 0.152E-06
   0.502E-05 0.495E-05 -.448E-05   0.110E-10 0.110E-10 -.110E-10   0.418E-21 -.324E-21 0.368E-21   0.353E-07 -.448E-07 -.506E-06
   -.230E-05 -.239E-05 -.295E-05   0.110E-10 0.110E-10 0.110E-10   0.547E-20 0.207E-20 0.147E-21   -.518E-06 -.652E-06 -.100E-06
   0.936E-05 0.915E-05 -.339E-05   0.110E-10 0.110E-10 0.198E-13   0.179E-20 -.507E-21 -.157E-20   -.248E-06 -.171E-07 -.198E-06
   0.542E-05 0.440E-05 -.474E-05   0.110E-10 0.110E-10 -.110E-10   -.759E-21 0.236E-20 0.504E-22   -.391E-06 0.734E-06 -.223E-06
   -.299E-05 -.306E-05 -.294E-05   0.110E-10 0.109E-10 0.110E-10   0.136E-20 0.126E-20 -.218E-20   0.133E-06 0.305E-06 -.436E-07
   0.917E-05 0.272E-06 -.138E-07   0.109E-10 0.142E-13 0.272E-13   0.137E-21 0.139E-20 -.330E-21   0.155E-06 -.295E-06 0.333E-07
   0.934E-05 0.429E-05 -.878E-05   0.110E-10 0.125E-13 -.109E-10   0.417E-21 -.696E-21 0.204E-20   -.389E-06 -.103E-05 -.506E-07
   0.950E-05 -.327E-05 0.904E-05   0.109E-10 -.413E-13 0.110E-10   0.756E-21 -.119E-20 -.301E-21   -.419E-06 -.536E-06 0.116E-08
   0.887E-05 -.966E-05 0.357E-05   0.110E-10 -.110E-10 -.933E-14   0.315E-21 -.905E-21 0.132E-21   0.188E-06 0.752E-06 -.471E-07
   -.279E-05 0.206E-05 0.304E-05   0.110E-10 -.110E-10 -.110E-10   0.243E-21 0.163E-20 0.390E-21   0.983E-08 0.834E-06 -.210E-06
   0.466E-05 -.543E-05 0.471E-05   0.110E-10 -.110E-10 0.110E-10   -.176E-20 -.151E-20 0.173E-20   0.579E-06 0.543E-06 0.344E-06
   0.637E-06 0.856E-05 -.243E-06   -.444E-14 0.110E-10 0.209E-13   0.412E-20 -.233E-20 -.211E-20   -.821E-06 0.883E-06 0.294E-06
   0.394E-05 0.889E-05 -.880E-05   0.466E-13 0.110E-10 -.109E-10   -.222E-20 -.413E-21 -.228E-20   -.522E-06 0.244E-06 -.330E-06
   -.291E-05 0.896E-05 0.912E-05   -.107E-13 0.110E-10 0.110E-10   0.257E-20 0.314E-20 -.452E-21   -.817E-06 0.186E-06 0.272E-07
   0.184E-06 0.761E-06 -.192E-06   -.138E-13 0.533E-14 0.289E-14   0.242E-20 0.928E-21 -.235E-20   -.952E-07 -.113E-05 0.144E-07
   0.499E-06 0.923E-07 -.849E-05   -.167E-13 0.688E-14 -.109E-10   0.226E-20 0.368E-20 0.437E-20   -.630E-06 -.306E-06 -.849E-06
   0.285E-06 -.126E-06 0.870E-05   -.977E-14 -.144E-13 0.109E-10   0.180E-20 0.141E-20 0.139E-20   -.346E-06 -.886E-07 0.394E-06
   0.647E-06 -.949E-05 -.125E-06   -.320E-13 -.109E-10 -.622E-14   -.134E-20 0.759E-22 -.227E-21   -.871E-06 0.431E-06 0.152E-06
   -.353E-05 -.925E-05 -.865E-05   -.755E-13 -.110E-10 -.110E-10   0.154E-20 0.125E-20 -.223E-20   -.767E-07 0.145E-06 -.443E-06
   0.456E-05 -.922E-05 0.883E-05   -.142E-13 -.110E-10 0.110E-10   0.602E-20 -.214E-21 -.146E-21   -.119E-05 -.164E-07 0.192E-06
   -.981E-05 0.836E-05 0.359E-05   -.110E-10 0.110E-10 -.284E-13   -.103E-20 -.205E-20 0.265E-20   0.892E-06 0.779E-06 -.166E-06
   0.235E-05 -.357E-05 0.340E-05   -.110E-10 0.110E-10 -.110E-10   0.109E-20 0.126E-21 -.338E-21   0.744E-06 0.829E-06 -.484E-06
   -.544E-05 0.454E-05 0.461E-05   -.110E-10 0.110E-10 0.110E-10   -.146E-20 -.350E-20 0.149E-20   0.755E-06 0.697E-06 0.578E-06
   -.917E-05 0.663E-06 -.592E-06   -.109E-10 0.622E-14 -.278E-13   -.977E-21 -.237E-20 0.204E-20   0.121E-06 -.984E-06 0.680E-06
   -.981E-05 -.334E-05 -.866E-05   -.110E-10 -.113E-13 -.110E-10   -.521E-21 -.192E-20 0.267E-20   0.115E-05 -.540E-06 -.554E-06
   -.978E-05 0.399E-05 0.910E-05   -.109E-10 0.377E-13 0.109E-10   -.211E-20 0.161E-20 -.209E-20   0.884E-06 -.694E-06 -.639E-07
   -.928E-05 -.950E-05 -.400E-05   -.110E-10 -.110E-10 -.142E-13   -.381E-20 0.322E-21 -.826E-21   0.573E-06 0.427E-06 0.487E-06
   -.524E-05 -.476E-05 -.439E-05   -.111E-10 -.110E-10 -.110E-10   -.145E-20 -.263E-20 0.356E-20   0.175E-06 -.234E-06 -.614E-06
   0.252E-05 0.256E-05 -.302E-05   -.110E-10 -.110E-10 0.110E-10   -.257E-20 -.298E-20 0.131E-20   0.635E-06 0.471E-06 0.630E-07
   0.941E-05 -.396E-05 0.973E-05   0.110E-10 -.404E-13 0.109E-10   -.120E-21 -.135E-20 0.680E-21   -.261E-06 0.624E-06 -.817E-06
   0.843E-05 -.609E-06 0.944E-07   0.109E-10 -.455E-14 0.888E-15   -.616E-21 0.105E-20 -.551E-21   0.918E-06 0.912E-06 0.399E-07
   0.877E-05 0.315E-05 -.967E-05   0.109E-10 -.231E-13 -.110E-10   -.119E-21 -.138E-21 0.200E-20   0.394E-06 0.576E-06 0.683E-06
   0.542E-05 -.426E-05 0.467E-05   0.110E-10 -.110E-10 0.110E-10   -.133E-20 -.137E-20 0.934E-21   -.544E-06 -.885E-06 0.285E-06
   0.923E-05 -.854E-05 0.356E-05   0.109E-10 -.110E-10 -.167E-13   -.269E-21 -.149E-20 0.673E-21   -.433E-06 -.602E-06 -.188E-06
   -.251E-05 0.337E-05 0.270E-05   0.109E-10 -.110E-10 -.110E-10   -.298E-21 0.163E-20 0.103E-20   -.193E-06 -.841E-06 0.335E-06
   -.284E-05 -.245E-05 -.233E-05   0.110E-10 0.110E-10 0.110E-10   0.127E-20 0.133E-20 -.195E-20   -.195E-06 -.412E-06 -.618E-06
   0.909E-05 0.961E-05 -.375E-05   0.110E-10 0.110E-10 -.311E-13   0.729E-21 -.109E-20 -.187E-20   0.561E-07 -.567E-06 0.267E-06
   0.506E-05 0.513E-05 -.548E-05   0.110E-10 0.110E-10 -.110E-10   -.203E-21 0.240E-20 0.399E-21   0.424E-07 -.153E-06 0.556E-06
   0.950E-07 -.270E-06 0.916E-05   0.888E-15 -.488E-14 0.109E-10   0.175E-20 0.132E-20 0.253E-21   -.288E-06 0.476E-06 -.202E-06
   -.119E-07 -.384E-06 -.143E-06   -.222E-13 -.160E-13 -.369E-13   0.177E-20 0.771E-21 -.263E-20   -.723E-06 0.619E-06 -.542E-07
   0.942E-06 -.263E-06 -.935E-05   -.355E-14 -.195E-13 -.110E-10   0.236E-20 0.419E-20 0.475E-20   -.122E-05 0.349E-06 0.314E-06
   0.386E-05 -.860E-05 0.958E-05   0.266E-14 -.110E-10 0.109E-10   0.335E-20 0.184E-21 0.995E-21   -.387E-06 -.535E-06 -.576E-06
   0.331E-06 -.846E-05 0.163E-06   -.122E-13 -.109E-10 -.129E-13   -.822E-21 -.816E-22 -.423E-21   -.493E-06 -.100E-05 -.143E-06
   -.338E-05 -.877E-05 -.976E-05   -.275E-13 -.110E-10 -.110E-10   0.190E-20 0.627E-21 -.158E-20   -.192E-06 -.384E-06 0.992E-06
   -.349E-05 0.917E-05 0.897E-05   -.133E-13 0.110E-10 0.110E-10   0.179E-20 0.292E-20 0.767E-22   -.279E-06 -.120E-06 -.156E-07
   0.357E-06 0.890E-05 -.251E-06   -.213E-13 0.109E-10 -.222E-15   0.312E-20 -.220E-20 -.233E-20   -.463E-06 0.175E-06 0.134E-06
   0.400E-05 0.925E-05 -.920E-05   -.622E-14 0.110E-10 -.110E-10   -.289E-20 0.877E-22 -.242E-20   -.742E-06 -.102E-06 0.209E-07
   -.957E-05 0.302E-05 0.963E-05   -.109E-10 0.133E-13 0.109E-10   -.366E-21 0.416E-21 -.212E-20   0.481E-06 0.691E-06 -.578E-06
   -.922E-05 -.464E-06 0.528E-07   -.109E-10 -.844E-14 0.346E-13   -.883E-21 -.376E-20 0.215E-20   -.316E-07 0.758E-06 -.808E-07
   -.969E-05 -.453E-05 -.958E-05   -.110E-10 -.568E-13 -.109E-10   -.127E-20 -.227E-20 0.299E-20   0.852E-06 0.138E-05 0.653E-06
   0.196E-05 0.285E-05 -.238E-05   -.110E-10 -.110E-10 0.110E-10   -.267E-20 -.246E-20 0.134E-20   0.110E-05 -.798E-07 -.612E-06
   -.990E-05 -.897E-05 -.343E-05   -.110E-10 -.110E-10 0.433E-13   -.154E-20 0.391E-20 -.109E-20   0.104E-05 -.229E-06 -.100E-06
   -.576E-05 -.429E-05 -.558E-05   -.110E-10 -.110E-10 -.110E-10   -.108E-20 -.329E-20 0.312E-20   0.924E-06 -.907E-06 0.777E-06
   -.556E-05 0.556E-05 0.507E-05   -.110E-10 0.110E-10 0.110E-10   -.115E-20 -.338E-20 0.211E-20   0.796E-06 -.795E-06 -.744E-07
   -.961E-05 0.967E-05 0.404E-05   -.110E-10 0.110E-10 0.844E-14   -.903E-21 -.169E-20 0.156E-20   0.638E-06 -.746E-06 -.544E-06
   0.232E-05 -.206E-05 0.237E-05   -.110E-10 0.110E-10 -.110E-10   0.150E-21 0.352E-21 0.407E-22   0.608E-06 -.852E-06 0.604E-06
   -.399E-05 0.831E-05 0.943E-05   -.302E-13 0.110E-10 0.110E-10   -.206E-20 -.270E-20 -.983E-21   0.554E-06 0.937E-06 -.480E-06
   -.595E-06 0.806E-05 -.145E-07   -.480E-13 0.110E-10 0.577E-14   0.196E-20 0.490E-20 0.374E-21   0.842E-06 0.145E-05 -.184E-07
   0.335E-05 0.870E-05 -.958E-05   -.293E-13 0.110E-10 -.109E-10   0.131E-20 -.268E-20 0.211E-20   0.214E-06 0.567E-06 0.684E-06
   0.164E-06 0.612E-06 0.876E-05   -.187E-13 0.111E-13 0.109E-10   -.293E-20 -.162E-20 0.150E-20   -.212E-06 -.909E-06 0.308E-06
   -.423E-06 0.702E-06 0.722E-07   -.275E-13 -.193E-13 0.888E-14   -.180E-20 -.107E-20 0.352E-20   0.470E-06 -.105E-05 -.194E-06
   -.200E-06 0.649E-06 -.902E-05   -.537E-13 -.364E-13 -.109E-10   0.840E-21 -.224E-20 -.573E-20   0.250E-06 -.796E-06 -.170E-06
   0.329E-05 -.945E-05 0.944E-05   -.213E-13 -.110E-10 0.110E-10   -.264E-20 0.779E-21 -.151E-20   0.394E-06 0.266E-06 -.402E-06
   -.660E-06 -.890E-05 -.197E-06   0.178E-14 -.109E-10 0.457E-13   -.645E-21 -.201E-20 0.271E-21   0.728E-06 -.242E-06 0.273E-06
   -.439E-05 -.941E-05 -.948E-05   -.497E-13 -.110E-10 -.110E-10   -.195E-20 0.145E-21 0.295E-20   0.113E-05 0.470E-06 0.581E-06
   -.454E-05 0.467E-05 0.513E-05   -.110E-10 0.110E-10 0.110E-10   0.389E-21 0.270E-20 0.762E-21   -.479E-06 0.411E-06 -.410E-06
   -.818E-05 0.888E-05 0.339E-05   -.110E-10 0.110E-10 -.360E-13   0.401E-21 0.179E-20 -.238E-20   -.102E-05 0.142E-06 0.143E-06
   0.331E-05 -.292E-05 0.249E-05   -.110E-10 0.110E-10 -.110E-10   0.214E-20 0.823E-22 0.133E-20   -.811E-06 0.696E-07 0.548E-06
   -.877E-05 0.412E-05 0.915E-05   -.109E-10 0.189E-13 0.109E-10   -.112E-20 0.213E-21 0.191E-20   -.423E-06 -.723E-06 -.904E-07
   -.829E-05 0.425E-06 -.695E-07   -.109E-10 -.377E-14 -.143E-13   0.324E-21 0.219E-20 -.163E-20   -.110E-05 -.479E-06 -.692E-08
   -.845E-05 -.322E-05 -.933E-05   -.110E-10 -.193E-13 -.110E-10   0.158E-20 0.780E-21 -.222E-20   -.753E-06 -.426E-06 0.449E-06
   0.333E-05 0.236E-05 -.215E-05   -.110E-10 -.110E-10 0.109E-10   0.253E-20 0.236E-20 -.135E-20   -.476E-06 0.530E-06 -.990E-06
   -.858E-05 -.961E-05 -.397E-05   -.110E-10 -.110E-10 -.209E-13   0.157E-20 -.220E-20 0.241E-21   -.606E-06 0.623E-06 0.471E-06
   -.439E-05 -.559E-05 -.499E-05   -.110E-10 -.110E-10 -.110E-10   -.132E-20 0.110E-20 -.386E-20   -.661E-06 0.687E-06 0.292E-07
   -.268E-05 -.343E-05 -.268E-05   0.110E-10 0.110E-10 0.110E-10   0.376E-20 0.720E-21 -.435E-22   -.251E-07 0.623E-06 -.320E-06
   0.907E-05 0.867E-05 -.356E-05   0.110E-10 0.110E-10 0.364E-13   -.365E-20 -.882E-21 0.110E-20   0.238E-07 0.473E-06 -.556E-07
   0.452E-05 0.439E-05 -.549E-05   0.110E-10 0.110E-10 -.110E-10   -.116E-21 -.199E-22 0.946E-21   0.658E-06 0.740E-06 0.678E-06
   0.861E-05 -.292E-05 0.944E-05   0.110E-10 -.191E-13 0.110E-10   -.155E-20 -.234E-21 -.198E-20   0.611E-06 -.713E-06 -.679E-06
   0.893E-05 0.373E-06 -.884E-07   0.110E-10 -.138E-13 0.198E-13   0.529E-21 -.146E-20 -.661E-21   0.601E-06 -.508E-06 0.110E-06
   0.922E-05 0.435E-05 -.965E-05   0.110E-10 0.195E-13 -.109E-10   -.127E-20 -.974E-21 0.103E-21   -.731E-07 -.990E-06 0.777E-06
   0.525E-05 -.550E-05 0.478E-05   0.111E-10 -.110E-10 0.110E-10   0.516E-21 0.643E-21 0.728E-21   -.258E-06 0.568E-06 0.943E-07
   0.915E-05 -.937E-05 0.365E-05   0.110E-10 -.110E-10 0.178E-13   -.123E-20 0.345E-21 0.176E-21   -.163E-06 0.202E-06 -.314E-06
   -.247E-05 0.241E-05 0.245E-05   0.110E-10 -.110E-10 -.110E-10   0.115E-20 0.582E-21 0.576E-21   -.271E-06 0.348E-06 0.581E-06
   0.516E-06 0.120E-06 0.119E-05   -.303E-10 -.304E-10 -.304E-10   -.710E-21 -.503E-21 0.125E-20   -.120E-06 0.509E-06 -.107E-05
   0.332E-05 0.340E-05 -.361E-05   -.304E-10 -.304E-10 0.303E-10   0.844E-22 -.744E-21 0.900E-21   0.170E-05 0.179E-05 -.138E-05
   0.638E-05 0.656E-05 -.109E-04   -.303E-10 -.303E-10 -.346E-13   -.227E-21 0.130E-22 -.129E-20   0.113E-05 0.111E-05 0.104E-05
   0.500E-05 -.350E-05 0.434E-05   -.304E-10 0.304E-10 -.304E-10   0.417E-21 0.117E-20 -.132E-20   -.271E-06 -.176E-05 0.784E-06
   0.489E-06 0.188E-06 -.273E-06   -.303E-10 0.303E-10 0.303E-10   0.140E-21 -.299E-21 0.177E-20   -.231E-06 -.829E-06 -.190E-06
   0.751E-05 -.665E-05 0.971E-05   -.303E-10 0.304E-10 -.213E-13   0.367E-21 -.104E-20 -.601E-21   -.232E-06 -.911E-06 0.614E-07
   0.680E-05 -.102E-04 0.799E-05   -.303E-10 0.435E-13 -.304E-10   -.213E-21 -.361E-21 0.113E-20   0.629E-06 0.210E-06 -.609E-06
   0.721E-05 0.984E-05 -.728E-05   -.303E-10 0.888E-15 0.303E-10   0.662E-21 0.285E-21 -.985E-21   0.207E-06 -.247E-06 -.612E-07
   -.386E-05 -.288E-06 -.354E-06   -.303E-10 0.426E-13 -.302E-13   -.929E-21 -.698E-21 -.472E-21   0.707E-06 0.275E-06 0.339E-06
   -.385E-05 0.368E-05 0.513E-05   0.304E-10 -.304E-10 -.304E-10   0.153E-20 0.976E-21 -.394E-21   -.116E-05 0.137E-05 -.216E-06
   0.516E-06 -.198E-06 -.525E-06   0.304E-10 -.304E-10 0.304E-10   -.147E-20 -.385E-21 -.667E-21   -.919E-06 0.740E-06 0.197E-06
   -.602E-05 0.684E-05 0.948E-05   0.304E-10 -.303E-10 -.222E-13   -.153E-21 0.531E-21 0.538E-21   -.177E-05 0.480E-06 0.486E-06
   -.139E-06 0.421E-06 0.959E-06   0.304E-10 0.304E-10 -.303E-10   0.142E-21 0.384E-21 0.101E-20   -.144E-06 -.971E-06 -.481E-06
   -.342E-05 -.369E-05 -.427E-05   0.305E-10 0.304E-10 0.304E-10   0.109E-20 0.152E-21 -.107E-20   -.160E-05 -.140E-05 -.843E-06
   -.665E-05 -.674E-05 -.108E-04   0.304E-10 0.304E-10 -.280E-13   -.173E-22 -.738E-21 0.779E-21   -.968E-06 -.904E-06 0.974E-06
   -.625E-05 0.920E-05 0.764E-05   0.304E-10 0.888E-15 -.303E-10   0.624E-22 -.450E-21 0.622E-22   -.122E-05 0.763E-06 -.283E-06
   -.692E-05 -.101E-04 -.715E-05   0.304E-10 0.275E-13 0.304E-10   0.100E-20 0.400E-21 -.164E-22   -.505E-06 -.774E-08 -.356E-06
   0.390E-05 -.451E-06 -.195E-06   0.304E-10 0.151E-13 -.799E-14   -.102E-21 0.140E-22 -.425E-21   -.827E-06 0.371E-06 0.205E-06
   -.107E-04 0.628E-05 0.781E-05   -.515E-14 -.304E-10 -.303E-10   -.153E-20 -.311E-21 0.106E-20   0.912E-06 0.136E-05 -.355E-06
   0.995E-05 0.643E-05 -.696E-05   -.444E-14 -.303E-10 0.304E-10   -.189E-21 0.111E-21 -.277E-21   0.137E-06 0.129E-05 -.619E-06
   -.626E-06 -.440E-05 -.540E-06   0.195E-14 -.303E-10 0.284E-13   -.719E-21 0.389E-21 -.419E-23   0.911E-06 0.120E-05 0.644E-06
   0.898E-05 -.667E-05 0.784E-05   -.115E-13 0.304E-10 -.303E-10   0.415E-21 -.948E-22 0.131E-21   0.115E-05 -.912E-06 -.401E-06
   -.110E-04 -.657E-05 -.757E-05   0.431E-13 0.304E-10 0.304E-10   -.181E-20 0.267E-21 0.688E-21   0.129E-05 -.932E-06 -.386E-07
   -.524E-06 0.399E-05 -.965E-06   0.221E-13 0.303E-10 0.711E-13   0.897E-22 0.512E-21 0.659E-21   0.661E-06 -.810E-06 0.989E-06
   -.779E-06 -.140E-07 -.317E-05   -.265E-13 0.142E-13 -.302E-10   0.131E-20 0.104E-20 0.796E-21   0.820E-06 -.202E-06 -.118E-06
   -.785E-06 -.114E-06 0.386E-05   0.333E-13 0.284E-13 0.303E-10   0.329E-21 -.221E-21 -.561E-21   0.921E-06 -.799E-07 -.527E-06
   -.763E-07 -.134E-06 -.416E-06   0.498E-13 0.426E-13 0.711E-13   -.781E-21 -.187E-22 0.629E-21   0.258E-06 -.425E-07 0.516E-06
   0.749E-06 0.742E-07 -.325E-05   -.237E-13 -.666E-14 -.303E-10   0.166E-21 0.516E-21 -.415E-21   -.891E-06 -.242E-06 -.194E-06
   0.110E-05 0.313E-07 0.325E-05   0.189E-14 -.244E-14 0.303E-10   0.380E-22 0.636E-22 -.594E-21   -.109E-05 -.114E-06 0.130E-06
   0.820E-06 0.480E-06 -.978E-07   0.217E-14 0.444E-14 0.622E-14   0.346E-21 0.175E-21 -.431E-21   -.822E-06 -.639E-06 0.165E-06
   -.912E-05 0.810E-05 0.744E-05   -.281E-13 -.303E-10 -.303E-10   0.469E-21 -.326E-21 -.213E-21   -.824E-06 -.523E-06 -.726E-07
   0.107E-04 0.874E-05 -.736E-05   -.277E-13 -.303E-10 0.303E-10   0.573E-21 0.560E-21 -.289E-21   -.880E-06 -.145E-05 -.943E-07
   0.784E-06 -.219E-05 -.382E-06   -.507E-13 -.303E-10 0.577E-14   -.427E-21 -.434E-21 0.321E-21   -.717E-06 -.104E-05 0.547E-06
   0.105E-04 -.803E-05 0.798E-05   -.149E-13 0.303E-10 -.303E-10   -.490E-21 -.539E-21 0.108E-20   -.706E-06 0.551E-06 -.931E-06
   -.958E-05 -.891E-05 -.793E-05   0.279E-13 0.304E-10 0.303E-10   0.894E-21 0.107E-21 -.419E-22   -.263E-06 0.165E-05 0.392E-06
   0.196E-06 0.225E-05 -.368E-06   -.142E-13 0.303E-10 0.142E-13   -.695E-23 0.495E-21 -.490E-21   -.119E-06 0.114E-05 0.567E-06
   0.783E-05 -.101E-04 0.720E-05   -.304E-10 0.711E-14 -.303E-10   -.148E-21 -.209E-21 0.299E-21   -.185E-06 0.220E-06 0.214E-06
   0.761E-05 0.100E-04 -.726E-05   -.304E-10 -.799E-14 0.303E-10   0.454E-21 0.827E-21 -.696E-21   -.345E-06 -.202E-06 -.282E-06
   -.295E-05 -.296E-06 -.818E-06   -.303E-10 0.302E-13 0.711E-14   -.475E-22 0.604E-21 -.273E-21   -.413E-06 0.266E-06 0.854E-06
   0.592E-06 0.162E-05 0.936E-06   -.304E-10 -.304E-10 -.303E-10   -.511E-21 0.150E-22 0.167E-21   0.672E-07 -.131E-05 -.483E-06
   0.496E-05 0.464E-05 -.409E-05   -.304E-10 -.304E-10 0.304E-10   -.637E-22 0.456E-21 0.399E-21   -.468E-07 0.231E-06 -.843E-06
   0.778E-05 0.772E-05 -.101E-04   -.304E-10 -.303E-10 0.631E-13   0.791E-21 0.356E-21 -.766E-21   -.422E-06 -.377E-06 0.332E-06
   0.496E-05 -.533E-05 0.433E-05   -.304E-10 0.304E-10 -.303E-10   0.182E-20 0.653E-21 -.393E-21   -.185E-06 0.517E-06 0.652E-06
   0.110E-05 -.173E-05 0.454E-08   -.304E-10 0.303E-10 0.304E-10   0.418E-21 0.407E-21 -.691E-21   -.561E-06 0.115E-05 -.456E-06
   0.805E-05 -.790E-05 0.946E-05   -.304E-10 0.304E-10 0.497E-13   -.145E-20 0.249E-21 -.545E-22   -.933E-06 0.410E-06 0.547E-06
   -.829E-05 0.923E-05 0.772E-05   0.304E-10 0.888E-14 -.303E-10   -.136E-20 -.107E-21 0.744E-21   0.906E-06 0.604E-06 -.372E-06
   -.875E-05 -.109E-04 -.705E-05   0.304E-10 -.755E-14 0.304E-10   -.183E-20 -.343E-21 0.625E-25   0.140E-05 0.104E-05 -.570E-06
   0.185E-05 -.565E-06 -.932E-06   0.303E-10 0.355E-14 0.497E-13   0.944E-21 0.808E-21 -.117E-21   0.164E-05 0.601E-06 0.129E-05
   -.489E-05 0.580E-05 0.416E-05   0.304E-10 -.304E-10 -.303E-10   -.708E-21 0.243E-21 -.282E-21   0.692E-07 -.106E-05 0.755E-06
   -.157E-05 0.183E-05 -.278E-06   0.304E-10 -.304E-10 0.304E-10   0.519E-21 -.633E-21 0.499E-21   0.104E-05 -.139E-05 -.337E-06
   -.866E-05 0.851E-05 0.100E-04   0.303E-10 -.304E-10 0.639E-13   -.135E-21 -.113E-20 0.177E-21   0.130E-05 -.139E-05 -.206E-06
   -.134E-05 -.220E-05 0.746E-06   0.304E-10 0.304E-10 -.303E-10   -.531E-21 0.120E-21 0.696E-21   0.109E-05 0.179E-05 -.358E-06
   -.526E-05 -.524E-05 -.411E-05   0.304E-10 0.304E-10 0.304E-10   0.532E-22 -.267E-21 -.127E-20   0.414E-06 0.307E-06 -.985E-06
   -.843E-05 -.849E-05 -.106E-04   0.304E-10 0.304E-10 0.711E-14   -.322E-22 -.163E-21 0.599E-21   0.116E-05 0.115E-05 0.889E-06
   0.733E-06 -.445E-05 0.132E-06   0.506E-13 -.303E-10 0.142E-13   -.538E-21 -.426E-21 -.150E-22   -.822E-06 0.134E-05 -.256E-06
   -.981E-05 0.650E-05 0.728E-05   0.672E-13 -.303E-10 -.303E-10   0.670E-21 -.390E-21 0.886E-21   -.603E-07 0.102E-05 0.188E-06
   0.108E-04 0.717E-05 -.756E-05   -.666E-14 -.304E-10 0.303E-10   0.264E-21 0.102E-20 -.465E-21   -.110E-05 0.283E-06 0.596E-07
   0.731E-06 0.440E-05 0.102E-07   0.443E-13 0.303E-10 -.533E-14   -.194E-21 -.968E-22 -.598E-21   -.956E-06 -.125E-05 -.223E-07
   0.104E-04 -.658E-05 0.802E-05   0.143E-13 0.303E-10 -.303E-10   -.586E-21 -.737E-21 0.102E-20   -.706E-06 -.109E-05 -.583E-06
   -.967E-05 -.663E-05 -.734E-05   0.697E-13 0.304E-10 0.304E-10   0.891E-21 -.126E-21 0.154E-21   -.153E-06 -.980E-06 0.656E-07
   0.112E-06 -.105E-06 0.880E-06   0.233E-14 0.284E-13 0.178E-14   0.506E-21 0.368E-22 -.388E-21   -.437E-07 0.214E-07 -.127E-05
   -.146E-06 -.607E-06 -.372E-05   0.173E-13 0.258E-13 -.303E-10   0.111E-21 0.304E-21 -.137E-21   0.173E-08 0.615E-06 0.429E-06
   0.609E-06 -.772E-06 0.293E-05   0.350E-13 0.195E-13 0.303E-10   -.952E-22 -.278E-21 0.110E-22   -.643E-06 0.740E-06 0.460E-06
   0.746E-05 0.619E-05 -.951E-05   -.304E-10 -.304E-10 -.320E-13   0.102E-20 0.250E-21 -.423E-21   -.860E-07 0.119E-05 -.630E-06
   0.105E-05 -.388E-06 0.987E-06   -.304E-10 -.303E-10 -.303E-10   -.438E-21 0.421E-21 0.104E-21   -.763E-06 0.890E-06 -.644E-06
   0.528E-05 0.378E-05 -.529E-05   -.304E-10 -.304E-10 0.303E-10   0.867E-22 0.806E-21 0.514E-24   -.321E-06 0.123E-05 0.431E-06
   0.725E-05 -.613E-05 0.104E-04   -.304E-10 0.303E-10 -.568E-13   -.155E-20 0.426E-21 -.143E-21   0.145E-07 -.122E-05 -.841E-06
   0.438E-05 -.352E-05 0.491E-05   -.304E-10 0.304E-10 -.304E-10   0.167E-20 0.973E-21 0.106E-21   0.669E-06 -.136E-05 0.160E-06
   0.683E-06 0.224E-06 -.129E-05   -.303E-10 0.304E-10 0.303E-10   0.277E-21 0.334E-21 -.339E-21   -.828E-07 -.761E-06 0.805E-06
   -.294E-05 -.253E-06 0.162E-06   -.303E-10 0.142E-13 -.533E-13   0.335E-22 0.638E-21 -.323E-21   -.333E-06 0.203E-06 -.351E-06
   0.838E-05 -.945E-05 0.715E-05   -.304E-10 0.453E-13 -.304E-10   -.206E-21 -.327E-21 0.518E-21   -.950E-06 -.459E-06 0.310E-06
   0.802E-05 0.999E-05 -.748E-05   -.303E-10 0.711E-14 0.303E-10   0.616E-21 0.549E-21 -.705E-21   -.763E-06 -.223E-06 0.204E-06
   -.838E-05 0.622E-05 0.104E-04   0.303E-10 -.304E-10 -.711E-14   0.384E-22 -.696E-21 -.950E-22   0.112E-05 0.128E-05 -.819E-06
   -.552E-05 0.309E-05 0.418E-05   0.304E-10 -.304E-10 -.304E-10   -.487E-21 0.488E-21 -.457E-21   0.813E-06 0.191E-05 0.791E-06
   -.159E-05 -.548E-06 -.144E-05   0.304E-10 -.304E-10 0.304E-10   0.714E-21 -.177E-21 0.982E-22   0.126E-05 0.121E-05 0.105E-05
   -.823E-05 -.617E-05 -.932E-05   0.304E-10 0.304E-10 -.249E-13   -.288E-21 -.293E-21 0.336E-22   0.116E-05 -.139E-05 -.823E-06
   -.178E-05 0.363E-06 0.118E-05   0.304E-10 0.304E-10 -.304E-10   -.385E-21 -.154E-21 0.756E-21   0.157E-05 -.777E-06 -.661E-06
   -.492E-05 -.293E-05 -.510E-05   0.304E-10 0.304E-10 0.304E-10   0.300E-21 -.412E-21 -.108E-20   0.577E-08 -.221E-05 0.209E-06
   0.280E-05 0.602E-06 0.226E-06   0.303E-10 0.213E-13 -.657E-13   0.147E-20 0.119E-20 -.521E-24   0.553E-06 -.680E-06 -.351E-06
   -.887E-05 0.101E-04 0.733E-05   0.303E-10 -.178E-14 -.304E-10   -.992E-21 0.123E-21 0.697E-21   0.155E-05 -.339E-06 -.694E-07
   -.864E-05 -.973E-05 -.800E-05   0.304E-10 0.142E-13 0.303E-10   -.157E-20 -.864E-22 0.281E-21   0.134E-05 -.184E-06 0.632E-06
   -.318E-05 -.456E-06 0.227E-06   -.303E-10 -.444E-14 -.888E-14   -.384E-21 -.283E-21 -.969E-21   -.106E-06 0.546E-06 -.347E-06
   0.708E-05 -.104E-04 0.735E-05   -.303E-10 0.377E-13 -.303E-10   -.571E-21 -.763E-21 0.103E-20   0.398E-06 0.562E-06 -.492E-07
   0.761E-05 0.102E-04 -.781E-05   -.304E-10 0.124E-13 0.303E-10   0.635E-21 0.325E-21 -.217E-22   -.307E-06 -.485E-06 0.537E-06
   0.759E-05 0.882E-05 -.981E-05   -.304E-10 -.304E-10 0.107E-13   -.638E-21 0.334E-21 -.985E-21   -.390E-06 -.163E-05 -.128E-06
   0.691E-06 0.215E-05 0.488E-06   -.304E-10 -.303E-10 -.303E-10   -.765E-21 -.388E-21 0.120E-20   -.173E-06 -.179E-05 -.117E-06
   0.391E-05 0.537E-05 -.486E-05   -.304E-10 -.304E-10 0.304E-10   0.320E-21 -.668E-21 -.525E-22   0.941E-06 -.224E-06 -.231E-07
   0.686E-05 -.890E-05 0.107E-04   -.303E-10 0.303E-10 0.488E-13   0.265E-21 -.133E-20 -.101E-20   0.472E-06 0.163E-05 -.894E-06
   0.334E-05 -.517E-05 0.422E-05   -.304E-10 0.304E-10 -.303E-10   0.195E-21 0.942E-21 -.934E-21   0.164E-05 0.175E-06 0.883E-06
   -.721E-06 -.225E-05 -.118E-05   -.303E-10 0.304E-10 0.304E-10   0.213E-21 -.183E-21 0.156E-20   0.121E-05 0.180E-05 0.826E-06
   0.401E-05 0.224E-07 0.567E-06   0.303E-10 -.209E-13 0.169E-13   -.197E-22 0.588E-22 -.411E-21   -.848E-06 -.102E-06 -.621E-06
   -.570E-05 0.102E-04 0.750E-05   0.304E-10 0.231E-13 -.303E-10   -.164E-21 0.295E-22 0.946E-21   -.174E-05 -.423E-06 -.104E-06
   -.641E-05 -.964E-05 -.783E-05   0.304E-10 0.355E-14 0.304E-10   0.657E-21 0.747E-21 0.375E-22   -.125E-05 -.207E-06 0.598E-06
   -.677E-05 0.813E-05 0.980E-05   0.304E-10 -.303E-10 -.844E-14   0.256E-21 0.737E-21 0.153E-21   -.843E-06 -.874E-06 0.587E-07
   -.376E-05 0.496E-05 0.433E-05   0.304E-10 -.304E-10 -.304E-10   0.157E-20 0.783E-21 -.609E-21   -.119E-05 0.116E-06 0.612E-06
   0.399E-07 0.154E-05 -.744E-06   0.304E-10 -.304E-10 0.304E-10   -.206E-20 -.323E-21 -.554E-21   -.408E-06 -.103E-05 0.231E-06
   -.662E-05 -.794E-05 -.923E-05   0.304E-10 0.304E-10 -.444E-14   0.176E-21 -.217E-21 0.211E-21   -.707E-06 0.647E-06 -.831E-06
   0.947E-06 -.135E-05 0.231E-06   0.304E-10 0.304E-10 -.304E-10   0.446E-21 0.171E-21 0.716E-21   -.147E-05 0.957E-06 0.195E-06
   -.331E-05 -.553E-05 -.468E-05   0.305E-10 0.305E-10 0.304E-10   0.935E-21 -.365E-23 -.891E-21   -.176E-05 0.632E-06 -.267E-06
   -.384E-06 -.226E-06 0.603E-06   -.788E-14 -.142E-13 -.355E-13   -.867E-21 0.357E-21 0.308E-21   0.707E-06 0.186E-06 -.947E-06
   -.489E-06 -.430E-06 -.312E-05   -.132E-13 -.320E-13 -.303E-10   0.156E-20 0.165E-20 0.710E-21   0.604E-06 0.357E-06 -.366E-06
   -.119E-05 -.322E-06 0.255E-05   0.222E-13 -.391E-13 0.303E-10   0.311E-21 0.294E-21 -.257E-21   0.140E-05 0.327E-06 0.930E-06
   -.107E-05 -.212E-05 0.513E-06   -.430E-13 -.303E-10 -.497E-13   -.659E-21 -.227E-21 -.127E-21   0.132E-05 -.121E-05 -.831E-06
   -.105E-04 0.867E-05 0.749E-05   0.166E-13 -.304E-10 -.304E-10   -.157E-20 -.370E-21 0.816E-21   0.699E-06 -.130E-05 -.100E-07
   0.962E-05 0.865E-05 -.839E-05   -.627E-14 -.304E-10 0.303E-10   0.395E-21 -.347E-21 -.470E-22   0.535E-06 -.132E-05 0.983E-06
   -.701E-07 0.269E-05 0.666E-06   -.267E-13 0.303E-10 -.426E-13   -.339E-21 0.858E-21 -.524E-23   0.148E-06 0.795E-06 -.786E-06
   0.980E-05 -.821E-05 0.757E-05   -.893E-14 0.303E-10 -.304E-10   0.468E-21 0.978E-22 0.312E-21   0.136E-06 0.892E-06 -.149E-06
   -.104E-04 -.860E-05 -.771E-05   0.211E-13 0.303E-10 0.303E-10   -.223E-20 0.165E-21 0.977E-21   0.731E-06 0.118E-05 0.542E-06
 -----------------------------------------------------------------------------------------------
   0.693E-06 -.627E-05 -.146E-05   -.276E-12 0.187E-12 -.149E-12   0.448E-20 0.930E-20 0.746E-20   0.277E-05 0.217E-05 -.185E-05
 
 
 POSITION                                       TOTAL-FORCE (eV/Angst)
 -----------------------------------------------------------------------------------
      0.00000      0.00000      0.00000         0.000000      0.000000      0.000000
      0.00000      0.00000      3.59793        -0.000000      0.000000      0.000000
      0.00000      0.00000      7.19587        -0.000000      0.000000      0.000000
      0.00000      3.59793      0.00000         0.000000      0.000000      0.000000
      0.00000      3.59793      3.59793         0.000000      0.000000      0.000000
      0.00000      3.59793      7.19587         0.000000      0.000000     -0.000000
      0.00000      7.19587      0.00000        -0.000000      0.000000      0.000000
      0.00000      7.19587      3.59793         0.000000      0.000000     -0.000000
      0.00000      7.19587      7.19587         0.000000      0.000000      0.000000
      3.59793      0.00000      0.00000         0.000000      0.000000      0.000000
      3.59793      0.00000      3.59793        -0.000000      0.000000     -0.000000
      3.59793      0.00000      7.19587        -0.000000      0.000000     -0.000000
      3.59793      3.59793      0.00000         0.000000      0.000000      0.000000
      3.59793      3.59793      3.59793        -0.000000     -0.000000     -0.000000
      3.59793      3.59793      7.19587        -0.000000     -0.000000      0.000000
      3.59793      7.19587      0.00000        -0.000000     -0.000000     -0.000000
      3.59793      7.19587      3.59793        -0.000000      0.000000     -0.000000
      3.59793      7.19587      7.19587         0.000000      0.000000     -0.000000
      7.19587      0.00000      0.00000        -0.000000     -0.000000      0.000000
      7.19587      0.00000      3.59793        -0.000000     -0.000000     -0.000000
      7.19587      0.00000      7.19587         0.000000      0.000000      0.000000
      7.19587      3.59793      0.00000        -0.000000     -0.000000     -0.000000
      7.19587      3.59793      3.59793         0.000000      0.000000     -0.000000
      7.19587      3.59793      7.19587        -0.000000     -0.000000     -0.000000
      7.19587      7.19587      0.00000         0.000000     -0.000000      0.000000
      7.19587      7.19587      3.59793        -0.000000     -0.000000     -0.000000
      7.19587      7.19587      7.19587         0.000000      0.000000     -0.000000
      1.79897      1.79897      0.00000         0.000000      0.000000     -0.000000
      1.79897      1.79897      3.59793         0.000000      0.000000     -0.000000
      1.79897      1.79897      7.19587        -0.000000     -0.000000     -0.000000
      1.79897      5.39690      0.00000        -0.000000      0.000000     -0.000000
      1.79897      5.39690      3.59793        -0.000000      0.000000     -0.000000
      1.79897      5.39690      7.19587        -0.000000      0.000000     -0.000000
      1.79897      8.99483      0.00000         0.000000      0.000000     -0.000000
      1.79897      8.99483      3.59793        -0.000000     -0.000000     -0.000000
      1.79897      8.99483      7.19587         0.000000      0.000000     -0.000000
      5.39690      1.79897      0.00000         0.000000     -0.000000      0.000000
      5.39690      1.79897      3.59793         0.000000     -0.000000      0.000000
      5.39690      1.79897      7.19587         0.000000      0.000000      0.000000
      5.39690      5.39690      0.00000        -0.000000      0.000000      0.000000
      5.39690      5.39690      3.59793        -0.000000     -0.000000     -0.000000
      5.39690      5.39690      7.19587        -0.000000      0.000000     -0.000000
      5.39690      8.99483      0.00000        -0.000000      0.000000      0.000000
      5.39690      8.99483      3.59793         0.000000     -0.000000      0.000000
      5.39690      8.99483      7.19587         0.000000     -0.000000      0.000000
      8.99483      1.79897      0.00000         0.000000     -0.000000      0.000000
      8.99483      1.79897      3.59793         0.000000      0.000000     -0.000000
      8.99483      1.79897      7.19587         0.000000      0.000000     -0.000000
      8.99483      5.39690      0.00000        -0.000000      0.000000     -0.000000
      8.99483      5.39690      3.59793        -0.000000      0.000000      0.000000
      8.99483      5.39690      7.19587        -0.000000      0.000000      0.000000
      8.99483      8.99483      0.00000         0.000000      0.000000     -0.000000
      8.99483      8.99483      3.59793         0.000000     -0.000000     -0.000000
      8.99483      8.99483      7.19587         0.000000      0.000000     -0.000000
      1.79897      0.00000      1.79897        -0.000000      0.000000      0.000000
      1.79897      0.00000      5.39690        -0.000000      0.000000     -0.000000
      1.79897      0.00000      8.99483        -0.000000      0.000000     -0.000000
      1.79897      3.59793      1.79897         0.000000     -0.000000     -0.000000
      1.79897      3.59793      5.39690         0.000000      0.000000     -0.000000
      1.79897      3.59793      8.99483        -0.000000     -0.000000     -0.000000
      1.79897      7.19587      1.79897        -0.000000      0.000000     -0.000000
      1.79897      7.19587      5.39690         0.000000      0.000000     -0.000000
      1.79897      7.19587      8.99483         0.000000      0.000000     -0.000000
      5.39690      0.00000      1.79897         0.000000      0.000000     -0.000000
      5.39690      0.00000      5.39690         0.000000      0.000000      0.000000
      5.39690      0.00000      8.99483        -0.000000     -0.000000     -0.000000
      5.39690      3.59793      1.79897         0.000000      0.000000      0.000000
      5.39690      3.59793      5.39690        -0.000000      0.000000     -0.000000
      5.39690      3.59793      8.99483        -0.000000      0.000000     -0.000000
      5.39690      7.19587      1.79897         0.000000      0.000000      0.000000
      5.39690      7.19587      5.39690         0.000000      0.000000      0.000000
      5.39690      7.19587      8.99483         0.000000     -0.000000      0.000000
      8.99483      0.00000      1.79897        -0.000000      0.000000     -0.000000
      8.99483      0.00000      5.39690         0.000000      0.000000     -0.000000
      8.99483      0.00000      8.99483        -0.000000      0.000000     -0.000000
      8.99483      3.59793      1.79897         0.000000     -0.000000     -0.000000
      8.99483      3.59793      5.39690         0.000000      0.000000     -0.000000
      8.99483      3.59793      8.99483         0.000000     -0.000000     -0.000000
      8.99483      7.19587      1.79897         0.000000     -0.000000     -0.000000
      8.99483      7.19587      5.39690         0.000000      0.000000      0.000000
      8.99483      7.19587      8.99483        -0.000000     -0.000000     -0.000000
      0.00000      1.79897      1.79897         0.000000     -0.000000      0.000000
      0.00000      1.79897      5.39690        -0.000000      0.000000      0.000000
      0.00000      1.79897      8.99483         0.000000      0.000000     -0.000000
      0.00000      5.39690      1.79897         0.000000     -0.000000      0.000000
      0.00000      5.39690      5.39690         0.000000      0.000000     -0.000000
      0.00000      5.39690      8.99483         0.000000      0.000000      0.000000
      0.00000      8.99483      1.79897         0.000000      0.000000     -0.000000
      0.00000      8.99483      5.39690         0.000000      0.000000      0.000000
      0.00000      8.99483      8.99483        -0.000000      0.000000     -0.000000
      3.59793      1.79897      1.79897         0.000000      0.000000      0.000000
      3.59793      1.79897      5.39690         0.000000      0.000000     -0.000000
      3.59793      1.79897      8.99483        -0.000000      0.000000     -0.000000
      3.59793      5.39690      1.79897        -0.000000      0.000000     -0.000000
      3.59793      5.39690      5.39690        -0.000000     -0.000000      0.000000
      3.59793      5.39690      8.99483        -0.000000      0.000000     -0.000000
      3.59793      8.99483      1.79897        -0.000000      0.000000     -0.000000
      3.59793      8.99483      5.39690         0.000000     -0.000000     -0.000000
      3.59793      8.99483      8.99483         0.000000     -0.000000     -0.000000
      7.19587      1.79897      1.79897         0.000000     -0.000000     -0.000000
      7.19587      1.79897      5.39690         0.000000     -0.000000      0.000000
      7.19587      1.79897      8.99483        -0.000000     -0.000000     -0.000000
      7.19587      5.39690      1.79897        -0.000000      0.000000      0.000000
      7.19587      5.39690      5.39690        -0.000000      0.000000     -0.000000
      7.19587      5.39690      8.99483         0.000000     -0.000000     -0.000000
      7.19587      8.99483      1.79897         0.000000     -0.000000     -0.000000
      7.19587      8.99483      5.39690        -0.000000     -0.000000     -0.000000
      7.19587      8.99483      8.99483         0.000000      0.000000     -0.000000
      0.89948      0.89948      0.89948         0.000000     -0.000000     -0.000000
      0.89948      0.89948      4.49742        -0.000000     -0.000000      0.000000
      0.89948      0.89948      8.09535        -0.000000     -0.000000     -0.000000
      0.89948      4.49742      0.89948        -0.000000     -0.000000      0.000000
      0.89948      4.49742      4.49742         0.000000     -0.000000      0.000000
      0.89948      4.49742      8.09535         0.000000     -0.000000      0.000000
      0.89948      8.09535      0.89948         0.000000     -0.000000     -0.000000
      0.89948      8.09535      4.49742        -0.000000      0.000000      0.000000
      0.89948      8.09535      8.09535        -0.000000     -0.000000      0.000000
      4.49742      0.89948      0.89948        -0.000000     -0.000000      0.000000
      4.49742      0.89948      4.49742         0.000000     -0.000000     -0.000000
      4.49742      0.89948      8.09535         0.000000      0.000000     -0.000000
      4.49742      4.49742      0.89948         0.000000     -0.000000      0.000000
      4.49742      4.49742      4.49742        -0.000000     -0.000000      0.000000
      4.49742      4.49742      8.09535        -0.000000     -0.000000     -0.000000
      4.49742      8.09535      0.89948        -0.000000     -0.000000      0.000000
      4.49742      8.09535      4.49742         0.000000     -0.000000      0.000000
      4.49742      8.09535      8.09535         0.000000      0.000000     -0.000000
      8.09535      0.89948      0.89948        -0.000000      0.000000     -0.000000
      8.09535      0.89948      4.49742         0.000000     -0.000000      0.000000
      8.09535      0.89948      8.09535         0.000000     -0.000000     -0.000000
      8.09535      4.49742      0.89948         0.000000      0.000000     -0.000000
      8.09535      4.49742      4.49742        -0.000000     -0.000000      0.000000
      8.09535      4.49742      8.09535        -0.000000      0.000000      0.000000
      8.09535      8.09535      0.89948        -0.000000     -0.000000     -0.000000
      8.09535      8.09535      4.49742        -0.000000     -0.000000     -0.000000
      8.09535      8.09535      8.09535        -0.000000     -0.000000      0.000000
      2.69845      2.69845      0.89948         0.000000      0.000000      0.000000
      2.69845      2.69845      4.49742        -0.000000     -0.000000      0.000000
      2.69845      2.69845      8.09535         0.000000     -0.000000      0.000000
      2.69845      6.29638      0.89948        -0.000000     -0.000000     -0.000000
      2.69845      6.29638      4.49742        -0.000000      0.000000      0.000000
      2.69845      6.29638      8.09535         0.000000     -0.000000     -0.000000
      2.69845      9.89431      0.89948        -0.000000      0.000000      0.000000
      2.69845      9.89431      4.49742         0.000000      0.000000      0.000000
      2.69845      9.89431      8.09535         0.000000      0.000000      0.000000
      6.29638      2.69845      0.89948        -0.000000     -0.000000      0.000000
      6.29638      2.69845      4.49742        -0.000000     -0.000000      0.000000
      6.29638      2.69845      8.09535        -0.000000      0.000000      0.000000
      6.29638      6.29638      0.89948         0.000000     -0.000000     -0.000000
      6.29638      6.29638      4.49742         0.000000      0.000000      0.000000
      6.29638      6.29638      8.09535        -0.000000     -0.000000     -0.000000
      6.29638      9.89431      0.89948         0.000000     -0.000000     -0.000000
      6.29638      9.89431      4.49742         0.000000      0.000000      0.000000
      6.29638      9.89431      8.09535        -0.000000      0.000000      0.000000
      9.89431      2.69845      0.89948        -0.000000     -0.000000     -0.000000
      9.89431      2.69845      4.49742        -0.000000      0.000000      0.000000
      9.89431      2.69845      8.09535        -0.000000     -0.000000      0.000000
      9.89431      6.29638      0.89948        -0.000000     -0.000000     -0.000000
      9.89431      6.29638      4.49742         0.000000     -0.000000     -0.000000
      9.89431      6.29638      8.09535         0.000000      0.000000     -0.000000
      9.89431      9.89431      0.89948         0.000000      0.000000     -0.000000
      9.89431      9.89431      4.49742        -0.000000      0.000000      0.000000
      9.89431      9.89431      8.09535        -0.000000     -0.000000     -0.000000
      2.69845      0.89948      2.69845         0.000000     -0.000000     -0.000000
      2.69845      0.89948      6.29638         0.000000      0.000000     -0.000000
      2.69845      0.89948      9.89431        -0.000000      0.000000      0.000000
      2.69845      4.49742      2.69845         0.000000     -0.000000      0.000000
      2.69845      4.49742      6.29638        -0.000000      0.000000     -0.000000
      2.69845      4.49742      9.89431        -0.000000     -0.000000      0.000000
      2.69845      8.09535      2.69845         0.000000      0.000000     -0.000000
      2.69845      8.09535      6.29638         0.000000      0.000000     -0.000000
      2.69845      8.09535      9.89431         0.000000     -0.000000      0.000000
      6.29638      0.89948      2.69845        -0.000000     -0.000000     -0.000000
      6.29638      0.89948      6.29638         0.000000     -0.000000     -0.000000
      6.29638      0.89948      9.89431         0.000000      0.000000      0.000000
      6.29638      4.49742      2.69845        -0.000000      0.000000      0.000000
      6.29638      4.49742      6.29638         0.000000     -0.000000     -0.000000
      6.29638      4.49742      9.89431         0.000000      0.000000      0.000000
      6.29638      8.09535      2.69845        -0.000000      0.000000      0.000000
      6.29638      8.09535      6.29638        -0.000000     -0.000000      0.000000
      6.29638      8.09535      9.89431        -0.000000     -0.000000      0.000000
      9.89431      0.89948      2.69845         0.000000     -0.000000     -0.000000
      9.89431      0.89948      6.29638         0.000000     -0.000000     -0.000000
      9.89431      0.89948      9.89431        -0.000000     -0.000000     -0.000000
      9.89431      4.49742      2.69845        -0.000000     -0.000000     -0.000000
      9.89431      4.49742      6.29638        -0.000000      0.000000     -0.000000
      9.89431      4.49742      9.89431        -0.000000      0.000000      0.000000
      9.89431      8.09535      2.69845        -0.000000      0.000000     -0.000000
      9.89431      8.09535      6.29638        -0.000000     -0.000000     -0.000000
      9.89431      8.09535      9.89431         0.000000     -0.000000      0.000000
      0.89948      2.69845      2.69845         0.000000     -0.000000      0.000000
      0.89948      2.69845      6.29638        -0.000000     -0.000000     -0.000000
      0.89948      2.69845      9.89431         0.000000      0.000000      0.000000
      0.89948      6.29638      2.69845        -0.000000     -0.000000     -0.000000
      0.89948      6.29638      6.29638         0.000000     -0.000000     -0.000000
      0.89948      6.29638      9.89431        -0.000000     -0.000000      0.000000
      0.89948      9.89431      2.69845         0.000000      0.000000      0.000000
      0.89948      9.89431      6.29638        -0.000000     -0.000000      0.000000
      0.89948      9.89431      9.89431        -0.000000      0.000000      0.000000
      4.49742      2.69845      2.69845         0.000000     -0.000000     -0.000000
      4.49742      2.69845      6.29638        -0.000000     -0.000000     -0.000000
      4.49742      2.69845      9.89431         0.000000     -0.000000      0.000000
      4.49742      6.29638      2.69845         0.000000     -0.000000     -0.000000
      4.49742      6.29638      6.29638        -0.000000      0.000000     -0.000000
      4.49742      6.29638      9.89431         0.000000     -0.000000     -0.000000
      4.49742      9.89431      2.69845         0.000000      0.000000     -0.000000
      4.49742      9.89431      6.29638         0.000000     -0.000000      0.000000
      4.49742      9.89431      9.89431         0.000000     -0.000000      0.000000
      8.09535      2.69845      2.69845        -0.000000     -0.000000      0.000000
      8.09535      2.69845      6.29638        -0.000000     -0.000000     -0.000000
      8.09535      2.69845      9.89431        -0.000000     -0.000000     -0.000000
      8.09535      6.29638      2.69845         0.000000     -0.000000     -0.000000
      8.09535      6.29638      6.29638        -0.000000     -0.000000      0.000000
      8.09535      6.29638      9.89431        -0.000000      0.000000      0.000000
      8.09535      9.89431      2.69845        -0.000000     -0.000000      0.000000
      8.09535      9.89431      6.29638        -0.000000      0.000000     -0.000000
      8.09535      9.89431      9.89431        -0.000000      0.000000      0.000000
 -----------------------------------------------------------------------------------
    total drift:                                0.000003     -0.000004     -0.000003


--------------------------------------------------------------------------------------------------------



  FREE ENERGIE OF THE ION-ELECTRON SYSTEM (eV)
  ---------------------------------------------------
  free  energy   TOTEN  =     -2199.23797061 eV

  energy  without entropy=    -2199.23797061  energy(sigma->0) =    -2199.23797061
 


--------------------------------------------------------------------------------------------------------


    POTLOK:  cpu time      0.3656: real time      0.3701


--------------------------------------------------------------------------------------------------------




--------------------------------------------------------------------------------------------------------


  
 reached required accuracy - stopping structural energy minimisation
 writing wavefunctions
     LOOP+:  cpu time   2285.4863: real time   2302.3596
    4ORBIT:  cpu time      0.0000: real time      0.0000



 total charge

# of ion       s       p       d       tot
------------------------------------------
    1        0.684   1.367   0.000   2.052
    2        0.684   1.367   0.000   2.052
    3        0.684   1.367   0.000   2.052
    4        0.684   1.367   0.000   2.052
    5        0.684   1.367   0.000   2.052
    6        0.684   1.367   0.000   2.052
    7        0.684   1.367   0.000   2.052
    8        0.684   1.367   0.000   2.052
    9        0.684   1.367   0.000   2.052
   10        0.684   1.367   0.000   2.052
   11        0.684   1.367   0.000   2.052
   12        0.684   1.367   0.000   2.052
   13        0.684   1.367   0.000   2.052
   14        0.684   1.367   0.000   2.052
   15        0.684   1.367   0.000   2.052
   16        0.684   1.367   0.000   2.052
   17        0.684   1.367   0.000   2.052
   18        0.684   1.367   0.000   2.052
   19        0.684   1.367   0.000   2.052
   20        0.684   1.367   0.000   2.052
   21        0.684   1.367   0.000   2.052
   22        0.684   1.367   0.000   2.052
   23        0.684   1.367   0.000   2.052
   24        0.684   1.367   0.000   2.052
   25        0.684   1.367   0.000   2.052
   26        0.684   1.367   0.000   2.052
   27        0.684   1.367   0.000   2.052
   28        0.684   1.367   0.000   2.052
   29        0.684   1.367   0.000   2.052
   30        0.684   1.367   0.000   2.052
   31        0.684   1.367   0.000   2.052
   32        0.684   1.367   0.000   2.052
   33        0.684   1.367   0.000   2.052
   34        0.684   1.367   0.000   2.052
   35        0.684   1.367   0.000   2.052
   36        0.684   1.367   0.000   2.052
   37        0.684   1.367   0.000   2.052
   38        0.684   1.367   0.000   2.052
   39        0.684   1.367   0.000   2.052
   40        0.684   1.367   0.000   2.052
   41        0.684   1.367   0.000   2.052
   42        0.684   1.367   0.000   2.052
   43        0.684   1.367   0.000   2.052
   44        0.684   1.367   0.000   2.052
   45        0.684   1.367   0.000   2.052
   46        0.684   1.367   0.000   2.052
   47        0.684   1.367   0.000   2.052
   48        0.684   1.367   0.000   2.052
   49        0.684   1.367   0.000   2.052
   50        0.684   1.367   0.000   2.052
   51        0.684   1.367   0.000   2.052
   52        0.684   1.367   0.000   2.052
   53        0.684   1.367   0.000   2.052
   54        0.684   1.367   0.000   2.052
   55        0.684   1.367   0.000   2.052
   56        0.684   1.367   0.000   2.052
   57        0.684   1.367   0.000   2.052
   58        0.684   1.367   0.000   2.052
   59        0.684   1.367   0.000   2.052
   60        0.684   1.367   0.000   2.052
   61        0.684   1.367   0.000   2.052
   62        0.684   1.367   0.000   2.052
   63        0.684   1.367   0.000   2.052
   64        0.684   1.367   0.000   2.052
   65        0.684   1.367   0.000   2.052
   66        0.684   1.367   0.000   2.052
   67        0.684   1.367   0.000   2.052
   68        0.684   1.367   0.000   2.052
   69        0.684   1.367   0.000   2.052
   70        0.684   1.367   0.000   2.052
   71        0.684   1.367   0.000   2.052
   72        0.684   1.367   0.000   2.052
   73        0.684   1.367   0.000   2.052
   74        0.684   1.367   0.000   2.052
   75        0.684   1.367   0.000   2.052
   76        0.684   1.367   0.000   2.052
   77        0.684   1.367   0.000   2.052
   78        0.684   1.367   0.000   2.052
   79        0.684   1.367   0.000   2.052
   80        0.684   1.367   0.000   2.052
   81        0.684   1.367   0.000   2.052
   82        0.684   1.367   0.000   2.052
   83        0.684   1.367   0.000   2.052
   84        0.684   1.367   0.000   2.052
   85        0.684   1.367   0.000   2.052
   86        0.684   1.367   0.000   2.052
   87        0.684   1.367   0.000   2.052
   88        0.684   1.367   0.000   2.052
   89        0.684   1.367   0.000   2.052
   90        0.684   1.367   0.000   2.052
   91        0.684   1.367   0.000   2.052
   92        0.684   1.367   0.000   2.052
   93        0.684   1.367   0.000   2.052
   94        0.684   1.367   0.000   2.052
   95        0.684   1.367   0.000   2.052
   96        0.684   1.367   0.000   2.052
   97        0.684   1.367   0.000   2.052
   98        0.684   1.367   0.000   2.052
   99        0.684   1.367   0.000   2.052
  100        0.684   1.367   0.000   2.052
  101        0.684   1.367   0.000   2.052
  102        0.684   1.367   0.000   2.052
  103        0.684   1.367   0.000   2.052
  104        0.684   1.367   0.000   2.052
  105        0.684   1.367   0.000   2.052
  106        0.684   1.367   0.000   2.052
  107        0.684   1.367   0.000   2.052
  108        0.684   1.367   0.000   2.052
  109        1.220   2.787   0.000   4.007
  110        1.220   2.787   0.000   4.007
  111        1.220   2.787   0.000   4.007
  112        1.220   2.787   0.000   4.007
  113        1.220   2.787   0.000   4.007
  114        1.220   2.787   0.000   4.007
  115        1.220   2.787   0.000   4.007
  116        1.220   2.787   0.000   4.007
  117        1.220   2.787   0.000   4.007
  118        1.220   2.787   0.000   4.007
  119        1.220   2.787   0.000   4.007
  120        1.220   2.787   0.000   4.007
  121        1.220   2.787   0.000   4.007
  122        1.220   2.787   0.000   4.007
  123        1.220   2.787   0.000   4.007
  124        1.220   2.787   0.000   4.007
  125        1.220   2.787   0.000   4.007
  126        1.220   2.787   0.000   4.007
  127        1.220   2.787   0.000   4.007
  128        1.220   2.787   0.000   4.007
  129        1.220   2.787   0.000   4.007
  130        1.220   2.787   0.000   4.007
  131        1.220   2.787   0.000   4.007
  132        1.220   2.787   0.000   4.007
  133        1.220   2.787   0.000   4.007
  134        1.220   2.787   0.000   4.007
  135        1.220   2.787   0.000   4.007
  136        1.220   2.787   0.000   4.007
  137        1.220   2.787   0.000   4.007
  138        1.220   2.787   0.000   4.007
  139        1.220   2.787   0.000   4.007
  140        1.220   2.787   0.000   4.007
  141        1.220   2.787   0.000   4.007
  142        1.220   2.787   0.000   4.007
  143        1.220   2.787   0.000   4.007
  144        1.220   2.787   0.000   4.007
  145        1.220   2.787   0.000   4.007
  146        1.220   2.787   0.000   4.007
  147        1.220   2.787   0.000   4.007
  148        1.220   2.787   0.000   4.007
  149        1.220   2.787   0.000   4.007
  150        1.220   2.787   0.000   4.007
  151        1.220   2.787   0.000   4.007
  152        1.220   2.787   0.000   4.007
  153        1.220   2.787   0.000   4.007
  154        1.220   2.787   0.000   4.007
  155        1.220   2.787   0.000   4.007
  156        1.220   2.787   0.000   4.007
  157        1.220   2.787   0.000   4.007
  158        1.220   2.787   0.000   4.007
  159        1.220   2.787   0.000   4.007
  160        1.220   2.787   0.000   4.007
  161        1.220   2.787   0.000   4.007
  162        1.220   2.787   0.000   4.007
  163        1.220   2.787   0.000   4.007
  164        1.220   2.787   0.000   4.007
  165        1.220   2.787   0.000   4.007
  166        1.220   2.787   0.000   4.007
  167        1.220   2.787   0.000   4.007
  168        1.220   2.787   0.000   4.007
  169        1.220   2.787   0.000   4.007
  170        1.220   2.787   0.000   4.007
  171        1.220   2.787   0.000   4.007
  172        1.220   2.787   0.000   4.007
  173        1.220   2.787   0.000   4.007
  174        1.220   2.787   0.000   4.007
  175        1.220   2.787   0.000   4.007
  176        1.220   2.787   0.000   4.007
  177        1.220   2.787   0.000   4.007
  178        1.220   2.787   0.000   4.007
  179        1.220   2.787   0.000   4.007
  180        1.220   2.787   0.000   4.007
  181        1.220   2.787   0.000   4.007
  182        1.220   2.787   0.000   4.007
  183        1.220   2.787   0.000   4.007
  184        1.220   2.787   0.000   4.007
  185        1.220   2.787   0.000   4.007
  186        1.220   2.787   0.000   4.007
  187        1.220   2.787   0.000   4.007
  188        1.220   2.787   0.000   4.007
  189        1.220   2.787   0.000   4.007
  190        1.220   2.787   0.000   4.007
  191        1.220   2.787   0.000   4.007
  192        1.220   2.787   0.000   4.007
  193        1.220   2.787   0.000   4.007
  194        1.220   2.787   0.000   4.007
  195        1.220   2.787   0.000   4.007
  196        1.220   2.787   0.000   4.007
  197        1.220   2.787   0.000   4.007
  198        1.220   2.787   0.000   4.007
  199        1.220   2.787   0.000   4.007
  200        1.220   2.787   0.000   4.007
  201        1.220   2.787   0.000   4.007
  202        1.220   2.787   0.000   4.007
  203        1.220   2.787   0.000   4.007
  204        1.220   2.787   0.000   4.007
  205        1.220   2.787   0.000   4.007
  206        1.220   2.787   0.000   4.007
  207        1.220   2.787   0.000   4.007
  208        1.220   2.787   0.000   4.007
  209        1.220   2.787   0.000   4.007
  210        1.220   2.787   0.000   4.007
  211        1.220   2.787   0.000   4.007
  212        1.220   2.787   0.000   4.007
  213        1.220   2.787   0.000   4.007
  214        1.220   2.787   0.000   4.007
  215        1.220   2.787   0.000   4.007
  216        1.220   2.787   0.000   4.007
--------------------------------------------------
tot        205.734 448.659   0.000 654.393



 magnetization (x)

# of ion       s       p       d       tot
------------------------------------------
    1       -0.000  -0.000   0.000  -0.000
    2       -0.000  -0.000   0.000  -0.000
    3       -0.000  -0.000   0.000  -0.000
    4       -0.000  -0.000   0.000  -0.000
    5       -0.000  -0.000   0.000  -0.000
    6       -0.000  -0.000   0.000  -0.000
    7       -0.000  -0.000   0.000  -0.000
    8       -0.000  -0.000   0.000  -0.000
    9       -0.000  -0.000   0.000  -0.000
   10       -0.000  -0.000   0.000  -0.000
   11       -0.000  -0.000   0.000  -0.000
   12       -0.000  -0.000   0.000  -0.000
   13       -0.000  -0.000   0.000  -0.000
   14       -0.000  -0.000   0.000  -0.000
   15       -0.000  -0.000   0.000  -0.000
   16       -0.000  -0.000   0.000  -0.000
   17       -0.000  -0.000   0.000  -0.000
   18       -0.000  -0.000   0.000  -0.000
   19       -0.000  -0.000   0.000  -0.000
   20       -0.000  -0.000   0.000  -0.000
   21       -0.000  -0.000   0.000  -0.000
   22       -0.000  -0.000   0.000  -0.000
   23       -0.000  -0.000   0.000  -0.000
   24       -0.000  -0.000   0.000  -0.000
   25       -0.000  -0.000   0.000  -0.000
   26       -0.000  -0.000   0.000  -0.000
   27       -0.000  -0.000   0.000  -0.000
   28       -0.000  -0.000   0.000  -0.000
   29       -0.000  -0.000   0.000  -0.000
   30       -0.000  -0.000   0.000  -0.000
   31       -0.000  -0.000   0.000  -0.000
   32       -0.000  -0.000   0.000  -0.000
   33       -0.000  -0.000   0.000  -0.000
   34       -0.000  -0.000   0.000  -0.000
   35       -0.000  -0.000   0.000  -0.000
   36       -0.000  -0.000   0.000  -0.000
   37       -0.000  -0.000   0.000  -0.000
   38       -0.000  -0.000   0.000  -0.000
   39       -0.000  -0.000   0.000  -0.000
   40       -0.000  -0.000   0.000  -0.000
   41       -0.000  -0.000   0.000  -0.000
   42       -0.000  -0.000   0.000  -0.000
   43       -0.000  -0.000   0.000  -0.000
   44       -0.000  -0.000   0.000  -0.000
   45       -0.000  -0.000   0.000  -0.000
   46       -0.000  -0.000   0.000  -0.000
   47       -0.000  -0.000   0.000  -0.000
   48       -0.000  -0.000   0.000  -0.000
   49       -0.000  -0.000   0.000  -0.000
   50       -0.000  -0.000   0.000  -0.000
   51       -0.000  -0.000   0.000  -0.000
   52       -0.000  -0.000   0.000  -0.000
   53       -0.000  -0.000   0.000  -0.000
   54       -0.000  -0.000   0.000  -0.000
   55       -0.000  -0.000   0.000  -0.000
   56       -0.000  -0.000   0.000  -0.000
   57       -0.000  -0.000   0.000  -0.000
   58       -0.000  -0.000   0.000  -0.000
   59       -0.000  -0.000   0.000  -0.000
   60       -0.000  -0.000   0.000  -0.000
   61       -0.000  -0.000   0.000  -0.000
   62       -0.000  -0.000   0.000  -0.000
   63       -0.000  -0.000   0.000  -0.000
   64       -0.000  -0.000   0.000  -0.000
   65       -0.000  -0.000   0.000  -0.000
   66       -0.000  -0.000   0.000  -0.000
   67       -0.000  -0.000   0.000  -0.000
   68       -0.000  -0.000   0.000  -0.000
   69       -0.000  -0.000   0.000  -0.000
   70       -0.000  -0.000   0.000  -0.000
   71       -0.000  -0.000   0.000  -0.000
   72       -0.000  -0.000   0.000  -0.000
   73       -0.000  -0.000   0.000  -0.000
   74       -0.000  -0.000   0.000  -0.000
   75       -0.000  -0.000   0.000  -0.000
   76       -0.000  -0.000   0.000  -0.000
   77       -0.000  -0.000   0.000  -0.000
   78       -0.000  -0.000   0.000  -0.000
   79       -0.000  -0.000   0.000  -0.000
   80       -0.000  -0.000   0.000  -0.000
   81       -0.000  -0.000   0.000  -0.000
   82       -0.000  -0.000   0.000  -0.000
   83       -0.000  -0.000   0.000  -0.000
   84       -0.000  -0.000   0.000  -0.000
   85       -0.000  -0.000   0.000  -0.000
   86       -0.000  -0.000   0.000  -0.000
   87       -0.000  -0.000   0.000  -0.000
   88       -0.000  -0.000   0.000  -0.000
   89       -0.000  -0.000   0.000  -0.000
   90       -0.000  -0.000   0.000  -0.000
   91       -0.000  -0.000   0.000  -0.000
   92       -0.000  -0.000   0.000  -0.000
   93       -0.000  -0.000   0.000  -0.000
   94       -0.000  -0.000   0.000  -0.000
   95       -0.000  -0.000   0.000  -0.000
   96       -0.000  -0.000   0.000  -0.000
   97       -0.000  -0.000   0.000  -0.000
   98       -0.000  -0.000   0.000  -0.000
   99       -0.000  -0.000   0.000  -0.000
  100       -0.000  -0.000   0.000  -0.000
  101       -0.000  -0.000   0.000  -0.000
  102       -0.000  -0.000   0.000  -0.000
  103       -0.000  -0.000   0.000  -0.000
  104       -0.000  -0.000   0.000  -0.000
  105       -0.000  -0.000   0.000  -0.000
  106       -0.000  -0.000   0.000  -0.000
  107       -0.000  -0.000   0.000  -0.000
  108       -0.000  -0.000   0.000  -0.000
  109       -0.000  -0.000   0.000  -0.000
  110       -0.000  -0.000   0.000  -0.000
  111       -0.000  -0.000   0.000  -0.000
  112       -0.000  -0.000   0.000  -0.000
  113       -0.000  -0.000   0.000  -0.000
  114       -0.000  -0.000   0.000  -0.000
  115       -0.000  -0.000   0.000  -0.000
  116       -0.000  -0.000   0.000  -0.000
  117       -0.000  -0.000   0.000  -0.000
  118       -0.000  -0.000   0.000  -0.000
  119       -0.000  -0.000   0.000  -0.000
  120       -0.000  -0.000   0.000  -0.000
  121       -0.000  -0.000   0.000  -0.000
  122       -0.000  -0.000   0.000  -0.000
  123       -0.000  -0.000   0.000  -0.000
  124       -0.000  -0.000   0.000  -0.000
  125       -0.000  -0.000   0.000  -0.000
  126       -0.000  -0.000   0.000  -0.000
  127       -0.000  -0.000   0.000  -0.000
  128       -0.000  -0.000   0.000  -0.000
  129       -0.000  -0.000   0.000  -0.000
  130       -0.000  -0.000   0.000  -0.000
  131       -0.000  -0.000   0.000  -0.000
  132       -0.000  -0.000   0.000  -0.000
  133       -0.000  -0.000   0.000  -0.000
  134       -0.000  -0.000   0.000  -0.000
  135       -0.000  -0.000   0.000  -0.000
  136       -0.000  -0.000   0.000  -0.000
  137       -0.000  -0.000   0.000  -0.000
  138       -0.000  -0.000   0.000  -0.000
  139       -0.000  -0.000   0.000  -0.000
  140       -0.000  -0.000   0.000  -0.000
  141       -0.000  -0.000   0.000  -0.000
  142       -0.000  -0.000   0.000  -0.000
  143       -0.000  -0.000   0.000  -0.000
  144       -0.000  -0.000   0.000  -0.000
  145       -0.000  -0.000   0.000  -0.000
  146       -0.000  -0.000   0.000  -0.000
  147       -0.000  -0.000   0.000  -0.000
  148       -0.000  -0.000   0.000  -0.000
  149       -0.000  -0.000   0.000  -0.000
  150       -0.000  -0.000   0.000  -0.000
  151       -0.000  -0.000   0.000  -0.000
  152       -0.000  -0.000   0.000  -0.000
  153       -0.000  -0.000   0.000  -0.000
  154       -0.000  -0.000   0.000  -0.000
  155       -0.000  -0.000   0.000  -0.000
  156       -0.000  -0.000   0.000  -0.000
  157       -0.000  -0.000   0.000  -0.000
  158       -0.000  -0.000   0.000  -0.000
  159       -0.000  -0.000   0.000  -0.000
  160       -0.000  -0.000   0.000  -0.000
  161       -0.000  -0.000   0.000  -0.000
  162       -0.000  -0.000   0.000  -0.000
  163       -0.000  -0.000   0.000  -0.000
  164       -0.000  -0.000   0.000  -0.000
  165       -0.000  -0.000   0.000  -0.000
  166       -0.000  -0.000   0.000  -0.000
  167       -0.000  -0.000   0.000  -0.000
  168       -0.000  -0.000   0.000  -0.000
  169       -0.000  -0.000   0.000  -0.000
  170       -0.000  -0.000   0.000  -0.000
  171       -0.000  -0.000   0.000  -0.000
  172       -0.000  -0.000   0.000  -0.000
  173       -0.000  -0.000   0.000  -0.000
  174       -0.000  -0.000   0.000  -0.000
  175       -0.000  -0.000   0.000  -0.000
  176       -0.000  -0.000   0.000  -0.000
  177       -0.000  -0.000   0.000  -0.000
  178       -0.000  -0.000   0.000  -0.000
  179       -0.000  -0.000   0.000  -0.000
  180       -0.000  -0.000   0.000  -0.000
  181       -0.000  -0.000   0.000  -0.000
  182       -0.000  -0.000   0.000  -0.000
  183       -0.000  -0.000   0.000  -0.000
  184       -0.000  -0.000   0.000  -0.000
  185       -0.000  -0.000   0.000  -0.000
  186       -0.000  -0.000   0.000  -0.000
  187       -0.000  -0.000   0.000  -0.000
  188       -0.000  -0.000   0.000  -0.000
  189       -0.000  -0.000   0.000  -0.000
  190       -0.000  -0.000   0.000  -0.000
  191       -0.000  -0.000   0.000  -0.000
  192       -0.000  -0.000   0.000  -0.000
  193       -0.000  -0.000   0.000  -0.000
  194       -0.000  -0.000   0.000  -0.000
  195       -0.000  -0.000   0.000  -0.000
  196       -0.000  -0.000   0.000  -0.000
  197       -0.000  -0.000   0.000  -0.000
  198       -0.000  -0.000   0.000  -0.000
  199       -0.000  -0.000   0.000  -0.000
  200       -0.000  -0.000   0.000  -0.000
  201       -0.000  -0.000   0.000  -0.000
  202       -0.000  -0.000   0.000  -0.000
  203       -0.000  -0.000   0.000  -0.000
  204       -0.000  -0.000   0.000  -0.000
  205       -0.000  -0.000   0.000  -0.000
  206       -0.000  -0.000   0.000  -0.000
  207       -0.000  -0.000   0.000  -0.000
  208       -0.000  -0.000   0.000  -0.000
  209       -0.000  -0.000   0.000  -0.000
  210       -0.000  -0.000   0.000  -0.000
  211       -0.000  -0.000   0.000  -0.000
  212       -0.000  -0.000   0.000  -0.000
  213       -0.000  -0.000   0.000  -0.000
  214       -0.000  -0.000   0.000  -0.000
  215       -0.000  -0.000   0.000  -0.000
  216       -0.000  -0.000   0.000  -0.000
--------------------------------------------------
tot         -0.000  -0.000   0.000  -0.000
 

 total amount of memory used by VASP MPI-rank0    71133. kBytes
=======================================================================

   base      :      30000. kBytes
   nonlr-proj:       3893. kBytes
   fftplans  :       2668. kBytes
   grid      :       6195. kBytes
   one-center:         33. kBytes
   HF        :          9. kBytes
   wavefun   :       4464. kBytes
   fock_wrk  :      23871. kBytes
 
  
  
 General timing and accounting informations for this job:
 ========================================================
  
                  Total CPU time used (sec):     2311.894
                            User time (sec):     2306.733
                          System time (sec):        5.161
                         Elapsed time (sec):     2330.698
  
                   Maximum memory used (kb):      558256.
                   Average memory used (kb):          N/A
  
                          Minor page faults:        40405
                          Major page faults:         6567
                 Voluntary context switches:        18476
