B108 N108                               
   1.00000000000000     
    10.7937974929999996    0.0000000000000000    0.0000000000000000
     0.0000000000000000   10.7937974929999996    0.0000000000000000
     0.0000000000000000    0.0000000000000000   10.7937974929999996
   B    N    Si
   106   108     1
Direct
  0.0000299200131293  0.0001039382854269 -0.0000173330748917
  0.0000650986945163  0.0001010378706127  0.3332667691435831
  0.0000345493206957  0.0003775632698043  0.6668152912158513
 -0.0002063710785608  0.3333200802325552 -0.0001738788657365
  0.0001701281201588  0.3330842400475589  0.3331418033292979
 -0.0001384406704290  0.3332153142186224  0.6668000506575745
  0.0001286869979502  0.6666482646691838  0.0000668842897245
 -0.0000979293072186  0.6666428239457073  0.3331703566630348
 -0.0000439554596624  0.6665824227781389  0.6668807783177564
  0.3332975542843770  0.0000125642549861 -0.0000400572059739
  0.3332958507562885  0.0007311539406683  0.3333211908560771
  0.3331749981133275  0.0007199180245125  0.6671620474939445
  0.3328778249382232  0.3328733424586320 -0.0004924850666894
  0.3337434267317564  0.3336318931670386  0.3339485436298573
  0.3356968264059844  0.3357295087368799  0.6702145384577780
  0.3342549551358975  0.6656428223660430 -0.0013563366547790
  0.3305640016627512  0.6662774607524777  0.3313358465003502
  0.3300845827046330  0.6639948800156920  0.6681228070372983
  0.6667024832715230  0.0005844372377710 -0.0001461705695452
  0.6669879805953840  0.0003825660534163  0.3330320459323168
  0.6667785687743998  0.0010359292045014  0.6670069043836891
  0.6655911218582984  0.3343535476697534 -0.0016576573723455
  0.6674618792613812  0.3320561670925344  0.3330717366555634
  0.6638566267699143  0.3364521248164773  0.6636710858175835
  0.6671358880438637  0.6669918662889892 -0.0004469990108455
  0.6691588271821259  0.6658914991123949  0.3310584883967969
  0.6690154745171502  0.6647191341184954  0.6739972381646413
  0.1665657324484031  0.1665911803425011  0.0000754866575002
  0.1668659727012799  0.1668937493595304  0.3334910436967405
  0.1663906910095944  0.1665832622616615  0.6674712841919108
  0.1663906910095944  0.4991953828080902  0.0000834047383397
  0.1657352829221657  0.5000679756728045  0.3326357291818362
  0.1665385704991731  0.4993973591272863  0.6672693078727151
  0.1668659727012799  0.8331756223032571 -0.0002270823595292
  0.1661350266046406  0.8335875233440689  0.3330791426559287
  0.1657352829221657  0.8340309368181610  0.6665986913271967
  0.4992913135529272  0.1668428104897021 -0.0001761434897009
  0.5006460390100557  0.1666501019834673  0.3330680361432793
  0.4999379835011671  0.1685125372258808  0.6667551812906333
  0.4999379835011671  0.4999114857093678 -0.0018458702258796
  0.4998965893491889  0.4965290486985127  0.3313075379493785
  0.5006460390100557  0.8335986298567184  0.0000165650165339
  0.4998368195974360  0.8354284466945350  0.3312382193054624
  0.4998965893491890  0.8353591280506190  0.6701376183014885
  0.8329885262429787  0.1671717934395715 -0.0005051264395703
  0.8336298733468377  0.1665038228739558  0.3330198607490704
  0.8334470117103184  0.1668102280722993  0.6661509145398330
  0.8334470117103184  0.5005157524601682 -0.0001435610722980
  0.8345803641954294  0.4989901626541917  0.3325739887311266
  0.8327935349415966  0.4996489113738374  0.6670177556261637
  0.8336298733468377  0.8336468052509275  0.0001628441260454
  0.8335779207082067  0.8334346238837549  0.3332320421162427
  0.8345803641954294  0.8340926772688708  0.6676765043458097
  0.1666741004649780  0.0000404437545730  0.1666262232454282
  0.1663186456971952  0.0008519669735671  0.5001888445455267
  0.1666371113327258  0.0000554525504217  0.8334663371549078
  0.1666371113327258  0.3332003288450898  0.1666112144495796
  0.1663202984415186  0.3329640910250567  0.5008876800577983
  0.1667981931869156  0.3328710666980078  0.8337955993019895
  0.1663186456971952  0.6664778224544745  0.1658147000264341
  0.1659263092972543  0.6669176500972250  0.4997490169027760
  0.1663202984415186  0.6657789869422029  0.8337025749749406
  0.5000885714031409  0.0005573443511505  0.1661093226488507
  0.5000877535247310  0.0007365268104570  0.5002798125426799
  0.4999091318663063  0.0010284655745091  0.8339350574472931
  0.4999091318663063  0.3327316085527044  0.1656382014254921
  0.5033385914333551  0.3358920931726602  0.5027748333471174
  0.4965010618927767  0.3366139888955393  0.8300526771044581
  0.5000877535247310  0.6663868544573212  0.1659301401895443
  0.5033385914333551  0.6638918336528838  0.8307745728273372
  0.8334298175015180  0.0001839908938597  0.1664826761061415
  0.8340272401907730  0.0006956341690795  0.5000065547448684
  0.8333197200390369  0.0005817075427656  0.8334106768885892
  0.8333197200390369  0.3332559891114084  0.1660849594572356
  0.8340842477265757  0.3320269975172651  0.4996213421584286
  0.8321795732128600  0.3343170697674927  0.8323495962325049
  0.8340272401907730  0.6666601122551328  0.1659710328309217
  0.8333151733745308  0.6657718423986769  0.5008948246013243
  0.8340842477265757  0.6670453248415724  0.8346396684827325
  0.0000299200131293  0.1666840000748929  0.1665627287145743
  0.0001286869979502  0.1665997827102767  0.5000184023308174
 -0.0002063710785608  0.1668405458657378  0.8333465857674424
  0.0000345493206957  0.4998513757841502  0.1662891037301970
 -0.0000439554596624  0.4997858886822452  0.5000842442218623
 -0.0001384406704290  0.4998666163424269  0.8334513517813751
  0.0000650986945163  0.8333998968564144  0.1665656291293884
 -0.0000979293072186  0.8334963093369629  0.5000238430542939
  0.0001701281201588  0.8335248626706996  0.8335824259524387
  0.3332975542843770  0.1667067242059751  0.1666541027450151
  0.3342549551358975  0.1680230036547803  0.5010238446339582
  0.3328778249382232  0.1671591520666906  0.8337933235413655
  0.3331749981133275  0.4995046195060565  0.1659467489754888
  0.3300845827046330  0.4985438599627030  0.5026717869843093
  0.3356968264059844  0.4964521285422231  0.8309371572631175
  0.3332958507562885  0.8333454751439201  0.1659355130593329
  0.3305640016627512  0.8353308194996475  0.5003892062475235
  0.3337434267317564  0.8327181223701403  0.8330347728329593
  0.6667024832715230  0.1668128375695464  0.1660822297622302
  0.6671358880438637  0.1671136660108467  0.4996748007110119
  0.6655911218582984  0.1683243243723467  0.8323131183302444
  0.6667785687743998  0.4996597626163120  0.1656307377954999
  0.6690154745171502  0.4926694288353598  0.5019475328815058
  0.6638566267699143  0.5029955811824177  0.8302145411835200
  0.6669879805953840  0.8336346200676806  0.1662841009465850
  0.6691588271821259  0.8356081776032007  0.5007751678876063
  0.6674618792613812  0.8335949293444341  0.8346104989074633
  0.0831957501939899  0.0831531445888562  0.0835135214111414
  0.0833011004248804  0.0834055198404273  0.4164706821311548
  0.0827822874315693  0.0828724246860710  0.7502103159813733
  0.0827822874315693  0.4164563510186277  0.0837942413139266
  0.0828403821213184  0.4163391449740308  0.4162333303269896
  0.0826466299802882  0.4162168635050501  0.7504498034949512
  0.0833011004248804  0.7501959848688461  0.0832611461595703
  0.0826834095111285  0.7505370911271853  0.4161295758728157
  0.0828403821213184  0.7504333366730119  0.7503275220259703
  0.4165445421916686  0.0829716829475710  0.0836949830524266
  0.4167094646734244  0.0833370141301502  0.4165220015316589
  0.4164351119121079  0.0834724593803592  0.7502902277950038
  0.4164351119121079  0.4163764392049973  0.0831942066196384
  0.4164859619945888  0.4167961803734316  0.4165405501744641
  0.4085622444303300  0.4093666477897389  0.7573000192102624
  0.4167094646734244  0.7501446654683424  0.0833296518698474
  0.4126023914714502  0.7553907505448352  0.4112759164551661
  0.4164859619945888  0.7501261168255369  0.7498704866265695
  0.7501946822188845  0.0834860943507543  0.0831805716492433
  0.7506312502032312  0.0828988127223481  0.4160444255470912
  0.7501642935099738  0.0836410446575538  0.7501139766180741
  0.7501642935099738  0.4165526903819271  0.0830256213424438
  0.7541089242681575  0.4148233498812196  0.4138592995399633
  0.7501293493079337  0.4172014649693302  0.7494652020306714
  0.7506312502032312  0.7506222414529098  0.0837678532776495
  0.7503246814199078  0.7499915111427600  0.4166751558572416
  0.7541089242681575  0.7528073674600382  0.7518433171187816
  0.2494827364756947  0.2494431721424157  0.0839258524672057
  0.2499143191836359  0.2499237802556074  0.4167028006099697
  0.2475413264049481  0.2476502310044170  0.7506166418730046
  0.2498405566546164  0.5832764828498387  0.0832041929414170
  0.2469083794138018  0.5833194260508620  0.4143498708137994
  0.2471676444703350  0.5829966396970404  0.7517985426781616
  0.2498580729439378  0.9166647868007952  0.0833399094744934
  0.2489115550105566  0.9178921826556896  0.4163431980634710
  0.2496817704093135  0.9169482919449004  0.7501500370614227
  0.5833188163345973  0.2497264191605661  0.0829281021082210
  0.5839098889250721  0.2478314421406058  0.4142908803206014
  0.5828734348371674  0.2504061120284975  0.7493534304040209
  0.5835673523693558  0.5834943208560929  0.0833209657231927
  0.5899488194425512  0.5767012276639466  0.4102007536066649
  0.5914707129453831  0.5917158172575752  0.7567540210806044
  0.5835212898522212  0.9173709316756198  0.0837130304658642
  0.5836332133172478  0.9169854946575483  0.4165604273015708
  0.5836283185634018  0.9181953239615331  0.7515207785469646
  0.9166189540644140  0.2498355481310550  0.0831689524972566
  0.9175890925798125  0.2490966743602345  0.4159931900950371
  0.9166156032728093  0.2498566086483241  0.7500533136408489
  0.9173406302057210  0.5834614226720952  0.0835723161020363
  0.9169907800775946  0.5833670564078774  0.4162578247038733
  0.9171149302852168  0.5835487846574825  0.7504038900723653
  0.9168855755928175  0.9169302561679524  0.0835362355080540
  0.9167946105325659  0.9167922740387477  0.4164202679927826
  0.9174266005776518  0.9176189891835999  0.7503053936720429
  0.2498580729439378  0.0833267565255042  0.2500018801992059
  0.2498405566546164  0.0834624730585805  0.5833901831501589
  0.2494827364756947  0.0827408135327919  0.9172234948575853
  0.2496817704093135  0.4165166299385785  0.2497183750551009
  0.2471676444703350  0.4148681243218397  0.5836700263029572
  0.2475413264049481  0.4160500251269967  0.9190164359955840
  0.2489115550105566  0.7503234689365303  0.2487744843443118
  0.2469083794138018  0.7523167961862018  0.5833472399491356
  0.2499143191836359  0.7499638663900313  0.9167428867443936
  0.5835212898522212  0.0829536355341334  0.2492957353243816
  0.5835673523693558  0.0833457002768049  0.5831723451439047
  0.5833188163345973  0.0837385638917765  0.9169402478394350
  0.5836283185634018  0.4151458884530367  0.2484713430384679
  0.5914707129453831  0.4099126459193967  0.5749508487424224
  0.5828734348371674  0.4173132365959802  0.9162605549715038
  0.5836332133172478  0.7501062396984305  0.2496811723424528
  0.5899488194425512  0.7564659133933364  0.5899654383360510
  0.5839098889250721  0.7523757866793997  0.9188352248593952
  0.9168855755928175  0.0831304304919436  0.2497364108320486
  0.9173406302057210  0.0830943498979612  0.5832052433279024
  0.9166189540644140  0.0834977135027410  0.9168311188689463
  0.9174266005776518  0.4163612733279585  0.2490476778164012
  0.9171149302852168  0.4162627769276360  0.5831178813425151
  0.9166156032728093  0.4166133533591524  0.9168100583516769
  0.9167946105325659  0.7502463990072183  0.2498743929612534
  0.9169907800775946  0.7504088422961276  0.5832996095921201
  0.9175890925798125  0.7506734769049641  0.9175699926397666
  0.0833896564753763  0.2497448454891709  0.2499124310546174
  0.0826893070004885  0.2492578982907799  0.5833015411767420
  0.0826401272743834  0.2494679562742698  0.9171987107257316
  0.0826630809793465  0.5833848422086029  0.2491933379682614
  0.0827999546073673  0.5834775596764991  0.5831891063234985
  0.0826893070004885  0.5833651248232555  0.9174087687092213
  0.0832129394080638  0.9168394578587178  0.2498272091412836
  0.0826630809793465  0.9174733290317397  0.5832818237913947
  0.0833896564753763  0.9167542359453837  0.9169218215108305
  0.4165686391081196  0.2497025290310428  0.2497339410863232
  0.4170759809079570  0.2502427318517679  0.5836233054678612
  0.4160516378103856  0.2479017191755695  0.9187649478244317
  0.4165326415144656  0.5831977954498473  0.2495354656274468
  0.3985406883310505  0.5819610719800677  0.5847055940199298
  0.4170759809079570  0.5830433605321363  0.9164239351482335
  0.4166740652046068  0.9177596574941640  0.2489070095058373
  0.4165326415144656  0.9171312013725544  0.5834688705501503
  0.4165686391081196  0.9169327259136780  0.9169641379689585
  0.7506522239776489  0.2493272918141693  0.2490504868413740
  0.7522644768079690  0.2478740848429257  0.5827462289658462
  0.7497497460479663  0.2503591831940122  0.9163074838059891
  0.7515423046875755  0.5832407175321791  0.2485248567475949
  0.7512896545953656  0.5830460864855801  0.5836205795144175
  0.7522644768079690  0.5839204370341514  0.9187925821570753
  0.7502234537782801  0.9167462528426503  0.2499204141573509
  0.7515423046875755  0.9181418102524068  0.5834259484678185
  0.7506522239776489  0.9176161801586272  0.9173393751858319
  0.4989234505341040  0.6591004783963643  0.5075661886036369
 
  0.00000000E+00  0.00000000E+00  0.00000000E+00
  0.00000000E+00  0.00000000E+00  0.00000000E+00
  0.00000000E+00  0.00000000E+00  0.00000000E+00
  0.00000000E+00  0.00000000E+00  0.00000000E+00
  0.00000000E+00  0.00000000E+00  0.00000000E+00
  0.00000000E+00  0.00000000E+00  0.00000000E+00
  0.00000000E+00  0.00000000E+00  0.00000000E+00
  0.00000000E+00  0.00000000E+00  0.00000000E+00
  0.00000000E+00  0.00000000E+00  0.00000000E+00
  0.00000000E+00  0.00000000E+00  0.00000000E+00
  0.00000000E+00  0.00000000E+00  0.00000000E+00
  0.00000000E+00  0.00000000E+00  0.00000000E+00
  0.00000000E+00  0.00000000E+00  0.00000000E+00
  0.00000000E+00  0.00000000E+00  0.00000000E+00
  0.00000000E+00  0.00000000E+00  0.00000000E+00
  0.00000000E+00  0.00000000E+00  0.00000000E+00
  0.00000000E+00  0.00000000E+00  0.00000000E+00
  0.00000000E+00  0.00000000E+00  0.00000000E+00
  0.00000000E+00  0.00000000E+00  0.00000000E+00
  0.00000000E+00  0.00000000E+00  0.00000000E+00
  0.00000000E+00  0.00000000E+00  0.00000000E+00
  0.00000000E+00  0.00000000E+00  0.00000000E+00
  0.00000000E+00  0.00000000E+00  0.00000000E+00
  0.00000000E+00  0.00000000E+00  0.00000000E+00
  0.00000000E+00  0.00000000E+00  0.00000000E+00
  0.00000000E+00  0.00000000E+00  0.00000000E+00
  0.00000000E+00  0.00000000E+00  0.00000000E+00
  0.00000000E+00  0.00000000E+00  0.00000000E+00
  0.00000000E+00  0.00000000E+00  0.00000000E+00
  0.00000000E+00  0.00000000E+00  0.00000000E+00
  0.00000000E+00  0.00000000E+00  0.00000000E+00
  0.00000000E+00  0.00000000E+00  0.00000000E+00
  0.00000000E+00  0.00000000E+00  0.00000000E+00
  0.00000000E+00  0.00000000E+00  0.00000000E+00
  0.00000000E+00  0.00000000E+00  0.00000000E+00
  0.00000000E+00  0.00000000E+00  0.00000000E+00
  0.00000000E+00  0.00000000E+00  0.00000000E+00
  0.00000000E+00  0.00000000E+00  0.00000000E+00
  0.00000000E+00  0.00000000E+00  0.00000000E+00
  0.00000000E+00  0.00000000E+00  0.00000000E+00
  0.00000000E+00  0.00000000E+00  0.00000000E+00
  0.00000000E+00  0.00000000E+00  0.00000000E+00
  0.00000000E+00  0.00000000E+00  0.00000000E+00
  0.00000000E+00  0.00000000E+00  0.00000000E+00
  0.00000000E+00  0.00000000E+00  0.00000000E+00
  0.00000000E+00  0.00000000E+00  0.00000000E+00
  0.00000000E+00  0.00000000E+00  0.00000000E+00
  0.00000000E+00  0.00000000E+00  0.00000000E+00
  0.00000000E+00  0.00000000E+00  0.00000000E+00
  0.00000000E+00  0.00000000E+00  0.00000000E+00
  0.00000000E+00  0.00000000E+00  0.00000000E+00
  0.00000000E+00  0.00000000E+00  0.00000000E+00
  0.00000000E+00  0.00000000E+00  0.00000000E+00
  0.00000000E+00  0.00000000E+00  0.00000000E+00
  0.00000000E+00  0.00000000E+00  0.00000000E+00
  0.00000000E+00  0.00000000E+00  0.00000000E+00
  0.00000000E+00  0.00000000E+00  0.00000000E+00
  0.00000000E+00  0.00000000E+00  0.00000000E+00
  0.00000000E+00  0.00000000E+00  0.00000000E+00
  0.00000000E+00  0.00000000E+00  0.00000000E+00
  0.00000000E+00  0.00000000E+00  0.00000000E+00
  0.00000000E+00  0.00000000E+00  0.00000000E+00
  0.00000000E+00  0.00000000E+00  0.00000000E+00
  0.00000000E+00  0.00000000E+00  0.00000000E+00
  0.00000000E+00  0.00000000E+00  0.00000000E+00
  0.00000000E+00  0.00000000E+00  0.00000000E+00
  0.00000000E+00  0.00000000E+00  0.00000000E+00
  0.00000000E+00  0.00000000E+00  0.00000000E+00
  0.00000000E+00  0.00000000E+00  0.00000000E+00
  0.00000000E+00  0.00000000E+00  0.00000000E+00
  0.00000000E+00  0.00000000E+00  0.00000000E+00
  0.00000000E+00  0.00000000E+00  0.00000000E+00
  0.00000000E+00  0.00000000E+00  0.00000000E+00
  0.00000000E+00  0.00000000E+00  0.00000000E+00
  0.00000000E+00  0.00000000E+00  0.00000000E+00
  0.00000000E+00  0.00000000E+00  0.00000000E+00
  0.00000000E+00  0.00000000E+00  0.00000000E+00
  0.00000000E+00  0.00000000E+00  0.00000000E+00
  0.00000000E+00  0.00000000E+00  0.00000000E+00
  0.00000000E+00  0.00000000E+00  0.00000000E+00
  0.00000000E+00  0.00000000E+00  0.00000000E+00
  0.00000000E+00  0.00000000E+00  0.00000000E+00
  0.00000000E+00  0.00000000E+00  0.00000000E+00
  0.00000000E+00  0.00000000E+00  0.00000000E+00
  0.00000000E+00  0.00000000E+00  0.00000000E+00
  0.00000000E+00  0.00000000E+00  0.00000000E+00
  0.00000000E+00  0.00000000E+00  0.00000000E+00
  0.00000000E+00  0.00000000E+00  0.00000000E+00
  0.00000000E+00  0.00000000E+00  0.00000000E+00
  0.00000000E+00  0.00000000E+00  0.00000000E+00
  0.00000000E+00  0.00000000E+00  0.00000000E+00
  0.00000000E+00  0.00000000E+00  0.00000000E+00
  0.00000000E+00  0.00000000E+00  0.00000000E+00
  0.00000000E+00  0.00000000E+00  0.00000000E+00
  0.00000000E+00  0.00000000E+00  0.00000000E+00
  0.00000000E+00  0.00000000E+00  0.00000000E+00
  0.00000000E+00  0.00000000E+00  0.00000000E+00
  0.00000000E+00  0.00000000E+00  0.00000000E+00
  0.00000000E+00  0.00000000E+00  0.00000000E+00
  0.00000000E+00  0.00000000E+00  0.00000000E+00
  0.00000000E+00  0.00000000E+00  0.00000000E+00
  0.00000000E+00  0.00000000E+00  0.00000000E+00
  0.00000000E+00  0.00000000E+00  0.00000000E+00
  0.00000000E+00  0.00000000E+00  0.00000000E+00
  0.00000000E+00  0.00000000E+00  0.00000000E+00
  0.00000000E+00  0.00000000E+00  0.00000000E+00
  0.00000000E+00  0.00000000E+00  0.00000000E+00
  0.00000000E+00  0.00000000E+00  0.00000000E+00
  0.00000000E+00  0.00000000E+00  0.00000000E+00
  0.00000000E+00  0.00000000E+00  0.00000000E+00
  0.00000000E+00  0.00000000E+00  0.00000000E+00
  0.00000000E+00  0.00000000E+00  0.00000000E+00
  0.00000000E+00  0.00000000E+00  0.00000000E+00
  0.00000000E+00  0.00000000E+00  0.00000000E+00
  0.00000000E+00  0.00000000E+00  0.00000000E+00
  0.00000000E+00  0.00000000E+00  0.00000000E+00
  0.00000000E+00  0.00000000E+00  0.00000000E+00
  0.00000000E+00  0.00000000E+00  0.00000000E+00
  0.00000000E+00  0.00000000E+00  0.00000000E+00
  0.00000000E+00  0.00000000E+00  0.00000000E+00
  0.00000000E+00  0.00000000E+00  0.00000000E+00
  0.00000000E+00  0.00000000E+00  0.00000000E+00
  0.00000000E+00  0.00000000E+00  0.00000000E+00
  0.00000000E+00  0.00000000E+00  0.00000000E+00
  0.00000000E+00  0.00000000E+00  0.00000000E+00
  0.00000000E+00  0.00000000E+00  0.00000000E+00
  0.00000000E+00  0.00000000E+00  0.00000000E+00
  0.00000000E+00  0.00000000E+00  0.00000000E+00
  0.00000000E+00  0.00000000E+00  0.00000000E+00
  0.00000000E+00  0.00000000E+00  0.00000000E+00
  0.00000000E+00  0.00000000E+00  0.00000000E+00
  0.00000000E+00  0.00000000E+00  0.00000000E+00
  0.00000000E+00  0.00000000E+00  0.00000000E+00
  0.00000000E+00  0.00000000E+00  0.00000000E+00
  0.00000000E+00  0.00000000E+00  0.00000000E+00
  0.00000000E+00  0.00000000E+00  0.00000000E+00
  0.00000000E+00  0.00000000E+00  0.00000000E+00
  0.00000000E+00  0.00000000E+00  0.00000000E+00
  0.00000000E+00  0.00000000E+00  0.00000000E+00
  0.00000000E+00  0.00000000E+00  0.00000000E+00
  0.00000000E+00  0.00000000E+00  0.00000000E+00
  0.00000000E+00  0.00000000E+00  0.00000000E+00
  0.00000000E+00  0.00000000E+00  0.00000000E+00
  0.00000000E+00  0.00000000E+00  0.00000000E+00
  0.00000000E+00  0.00000000E+00  0.00000000E+00
  0.00000000E+00  0.00000000E+00  0.00000000E+00
  0.00000000E+00  0.00000000E+00  0.00000000E+00
  0.00000000E+00  0.00000000E+00  0.00000000E+00
  0.00000000E+00  0.00000000E+00  0.00000000E+00
  0.00000000E+00  0.00000000E+00  0.00000000E+00
  0.00000000E+00  0.00000000E+00  0.00000000E+00
  0.00000000E+00  0.00000000E+00  0.00000000E+00
  0.00000000E+00  0.00000000E+00  0.00000000E+00
  0.00000000E+00  0.00000000E+00  0.00000000E+00
  0.00000000E+00  0.00000000E+00  0.00000000E+00
  0.00000000E+00  0.00000000E+00  0.00000000E+00
  0.00000000E+00  0.00000000E+00  0.00000000E+00
  0.00000000E+00  0.00000000E+00  0.00000000E+00
  0.00000000E+00  0.00000000E+00  0.00000000E+00
  0.00000000E+00  0.00000000E+00  0.00000000E+00
  0.00000000E+00  0.00000000E+00  0.00000000E+00
  0.00000000E+00  0.00000000E+00  0.00000000E+00
  0.00000000E+00  0.00000000E+00  0.00000000E+00
  0.00000000E+00  0.00000000E+00  0.00000000E+00
  0.00000000E+00  0.00000000E+00  0.00000000E+00
  0.00000000E+00  0.00000000E+00  0.00000000E+00
  0.00000000E+00  0.00000000E+00  0.00000000E+00
  0.00000000E+00  0.00000000E+00  0.00000000E+00
  0.00000000E+00  0.00000000E+00  0.00000000E+00
  0.00000000E+00  0.00000000E+00  0.00000000E+00
  0.00000000E+00  0.00000000E+00  0.00000000E+00
  0.00000000E+00  0.00000000E+00  0.00000000E+00
  0.00000000E+00  0.00000000E+00  0.00000000E+00
  0.00000000E+00  0.00000000E+00  0.00000000E+00
  0.00000000E+00  0.00000000E+00  0.00000000E+00
  0.00000000E+00  0.00000000E+00  0.00000000E+00
  0.00000000E+00  0.00000000E+00  0.00000000E+00
  0.00000000E+00  0.00000000E+00  0.00000000E+00
  0.00000000E+00  0.00000000E+00  0.00000000E+00
  0.00000000E+00  0.00000000E+00  0.00000000E+00
  0.00000000E+00  0.00000000E+00  0.00000000E+00
  0.00000000E+00  0.00000000E+00  0.00000000E+00
  0.00000000E+00  0.00000000E+00  0.00000000E+00
  0.00000000E+00  0.00000000E+00  0.00000000E+00
  0.00000000E+00  0.00000000E+00  0.00000000E+00
  0.00000000E+00  0.00000000E+00  0.00000000E+00
  0.00000000E+00  0.00000000E+00  0.00000000E+00
  0.00000000E+00  0.00000000E+00  0.00000000E+00
  0.00000000E+00  0.00000000E+00  0.00000000E+00
  0.00000000E+00  0.00000000E+00  0.00000000E+00
  0.00000000E+00  0.00000000E+00  0.00000000E+00
  0.00000000E+00  0.00000000E+00  0.00000000E+00
  0.00000000E+00  0.00000000E+00  0.00000000E+00
  0.00000000E+00  0.00000000E+00  0.00000000E+00
  0.00000000E+00  0.00000000E+00  0.00000000E+00
  0.00000000E+00  0.00000000E+00  0.00000000E+00
  0.00000000E+00  0.00000000E+00  0.00000000E+00
  0.00000000E+00  0.00000000E+00  0.00000000E+00
  0.00000000E+00  0.00000000E+00  0.00000000E+00
  0.00000000E+00  0.00000000E+00  0.00000000E+00
  0.00000000E+00  0.00000000E+00  0.00000000E+00
  0.00000000E+00  0.00000000E+00  0.00000000E+00
  0.00000000E+00  0.00000000E+00  0.00000000E+00
  0.00000000E+00  0.00000000E+00  0.00000000E+00
  0.00000000E+00  0.00000000E+00  0.00000000E+00
  0.00000000E+00  0.00000000E+00  0.00000000E+00
  0.00000000E+00  0.00000000E+00  0.00000000E+00
  0.00000000E+00  0.00000000E+00  0.00000000E+00
  0.00000000E+00  0.00000000E+00  0.00000000E+00
  0.00000000E+00  0.00000000E+00  0.00000000E+00
  0.00000000E+00  0.00000000E+00  0.00000000E+00
  0.00000000E+00  0.00000000E+00  0.00000000E+00
  0.00000000E+00  0.00000000E+00  0.00000000E+00
  0.00000000E+00  0.00000000E+00  0.00000000E+00
  0.00000000E+00  0.00000000E+00  0.00000000E+00
