B108 N108
1.0
  10.8767746416    0.0000000000    0.0000000000
   0.0000000000   10.8767746416    0.0000000000
   0.0000000000    0.0000000000   10.8767746416
B N
108 108
direct
   0.0000000000    0.0000000000    0.0000000000 B
   0.0000000000    0.0000000000    0.3333333333 B
   0.0000000000    0.0000000000    0.6666666667 B
   0.0000000000    0.3333333333    0.0000000000 B
   0.0000000000    0.3333333333    0.3333333333 B
   0.0000000000    0.3333333333    0.6666666667 B
   0.0000000000    0.6666666667    0.0000000000 B
   0.0000000000    0.6666666667    0.3333333333 B
   0.0000000000    0.6666666667    0.6666666667 B
   0.3333333333    0.0000000000    0.0000000000 B
   0.3333333333    0.0000000000    0.3333333333 B
   0.3333333333    0.0000000000    0.6666666667 B
   0.3333333333    0.3333333333    0.0000000000 B
   0.3333333333    0.3333333333    0.3333333333 B
   0.3333333333    0.3333333333    0.6666666667 B
   0.3333333333    0.6666666667    0.0000000000 B
   0.3333333333    0.6666666667    0.3333333333 B
   0.3333333333    0.6666666667    0.6666666667 B
   0.6666666667    0.0000000000    0.0000000000 B
   0.6666666667    0.0000000000    0.3333333333 B
   0.6666666667    0.0000000000    0.6666666667 B
   0.6666666667    0.3333333333    0.0000000000 B
   0.6666666667    0.3333333333    0.3333333333 B
   0.6666666667    0.3333333333    0.6666666667 B
   0.6666666667    0.6666666667    0.0000000000 B
   0.6666666667    0.6666666667    0.3333333333 B
   0.6666666667    0.6666666667    0.6666666667 B
   0.1666666667    0.1666666667    0.0000000000 B
   0.1666666667    0.1666666667    0.3333333333 B
   0.1666666667    0.1666666667    0.6666666667 B
   0.1666666667    0.5000000000    0.0000000000 B
   0.1666666667    0.5000000000    0.3333333333 B
   0.1666666667    0.5000000000    0.6666666667 B
   0.1666666667    0.8333333333    0.0000000000 B
   0.1666666667    0.8333333333    0.3333333333 B
   0.1666666667    0.8333333333    0.6666666667 B
   0.5000000000    0.1666666667    0.0000000000 B
   0.5000000000    0.1666666667    0.3333333333 B
   0.5000000000    0.1666666667    0.6666666667 B
   0.5000000000    0.5000000000    0.0000000000 B
   0.5000000000    0.5000000000    0.3333333333 B
   0.5000000000    0.5000000000    0.6666666667 B
   0.5000000000    0.8333333333    0.0000000000 B
   0.5000000000    0.8333333333    0.3333333333 B
   0.5000000000    0.8333333333    0.6666666667 B
   0.8333333333    0.1666666667    0.0000000000 B
   0.8333333333    0.1666666667    0.3333333333 B
   0.8333333333    0.1666666667    0.6666666667 B
   0.8333333333    0.5000000000    0.0000000000 B
   0.8333333333    0.5000000000    0.3333333333 B
   0.8333333333    0.5000000000    0.6666666667 B
   0.8333333333    0.8333333333    0.0000000000 B
   0.8333333333    0.8333333333    0.3333333333 B
   0.8333333333    0.8333333333    0.6666666667 B
   0.1666666667    0.0000000000    0.1666666667 B
   0.1666666667    0.0000000000    0.5000000000 B
   0.1666666667    0.0000000000    0.8333333333 B
   0.1666666667    0.3333333333    0.1666666667 B
   0.1666666667    0.3333333333    0.5000000000 B
   0.1666666667    0.3333333333    0.8333333333 B
   0.1666666667    0.6666666667    0.1666666667 B
   0.1666666667    0.6666666667    0.5000000000 B
   0.1666666667    0.6666666667    0.8333333333 B
   0.5000000000    0.0000000000    0.1666666667 B
   0.5000000000    0.0000000000    0.5000000000 B
   0.5000000000    0.0000000000    0.8333333333 B
   0.5000000000    0.3333333333    0.1666666667 B
   0.5000000000    0.3333333333    0.5000000000 B
   0.5000000000    0.3333333333    0.8333333333 B
   0.5000000000    0.6666666667    0.1666666667 B
   0.5000000000    0.6666666667    0.5000000000 B
   0.5000000000    0.6666666667    0.8333333333 B
   0.8333333333    0.0000000000    0.1666666667 B
   0.8333333333    0.0000000000    0.5000000000 B
   0.8333333333    0.0000000000    0.8333333333 B
   0.8333333333    0.3333333333    0.1666666667 B
   0.8333333333    0.3333333333    0.5000000000 B
   0.8333333333    0.3333333333    0.8333333333 B
   0.8333333333    0.6666666667    0.1666666667 B
   0.8333333333    0.6666666667    0.5000000000 B
   0.8333333333    0.6666666667    0.8333333333 B
   0.0000000000    0.1666666667    0.1666666667 B
   0.0000000000    0.1666666667    0.5000000000 B
   0.0000000000    0.1666666667    0.8333333333 B
   0.0000000000    0.5000000000    0.1666666667 B
   0.0000000000    0.5000000000    0.5000000000 B
   0.0000000000    0.5000000000    0.8333333333 B
   0.0000000000    0.8333333333    0.1666666667 B
   0.0000000000    0.8333333333    0.5000000000 B
   0.0000000000    0.8333333333    0.8333333333 B
   0.3333333333    0.1666666667    0.1666666667 B
   0.3333333333    0.1666666667    0.5000000000 B
   0.3333333333    0.1666666667    0.8333333333 B
   0.3333333333    0.5000000000    0.1666666667 B
   0.3333333333    0.5000000000    0.5000000000 B
   0.3333333333    0.5000000000    0.8333333333 B
   0.3333333333    0.8333333333    0.1666666667 B
   0.3333333333    0.8333333333    0.5000000000 B
   0.3333333333    0.8333333333    0.8333333333 B
   0.6666666667    0.1666666667    0.1666666667 B
   0.6666666667    0.1666666667    0.5000000000 B
   0.6666666667    0.1666666667    0.8333333333 B
   0.6666666667    0.5000000000    0.1666666667 B
   0.6666666667    0.5000000000    0.5000000000 B
   0.6666666667    0.5000000000    0.8333333333 B
   0.6666666667    0.8333333333    0.1666666667 B
   0.6666666667    0.8333333333    0.5000000000 B
   0.6666666667    0.8333333333    0.8333333333 B
   0.0833333333    0.0833333333    0.0833333333 N
   0.0833333333    0.0833333333    0.4166666667 N
   0.0833333333    0.0833333333    0.7500000000 N
   0.0833333333    0.4166666667    0.0833333333 N
   0.0833333333    0.4166666667    0.4166666667 N
   0.0833333333    0.4166666667    0.7500000000 N
   0.0833333333    0.7500000000    0.0833333333 N
   0.0833333333    0.7500000000    0.4166666667 N
   0.0833333333    0.7500000000    0.7500000000 N
   0.4166666667    0.0833333333    0.0833333333 N
   0.4166666667    0.0833333333    0.4166666667 N
   0.4166666667    0.0833333333    0.7500000000 N
   0.4166666667    0.4166666667    0.0833333333 N
   0.4166666667    0.4166666667    0.4166666667 N
   0.4166666667    0.4166666667    0.7500000000 N
   0.4166666667    0.7500000000    0.0833333333 N
   0.4166666667    0.7500000000    0.4166666667 N
   0.4166666667    0.7500000000    0.7500000000 N
   0.7500000000    0.0833333333    0.0833333333 N
   0.7500000000    0.0833333333    0.4166666667 N
   0.7500000000    0.0833333333    0.7500000000 N
   0.7500000000    0.4166666667    0.0833333333 N
   0.7500000000    0.4166666667    0.4166666667 N
   0.7500000000    0.4166666667    0.7500000000 N
   0.7500000000    0.7500000000    0.0833333333 N
   0.7500000000    0.7500000000    0.4166666667 N
   0.7500000000    0.7500000000    0.7500000000 N
   0.2500000000    0.2500000000    0.0833333333 N
   0.2500000000    0.2500000000    0.4166666667 N
   0.2500000000    0.2500000000    0.7500000000 N
   0.2500000000    0.5833333333    0.0833333333 N
   0.2500000000    0.5833333333    0.4166666667 N
   0.2500000000    0.5833333333    0.7500000000 N
   0.2500000000    0.9166666667    0.0833333333 N
   0.2500000000    0.9166666667    0.4166666667 N
   0.2500000000    0.9166666667    0.7500000000 N
   0.5833333333    0.2500000000    0.0833333333 N
   0.5833333333    0.2500000000    0.4166666667 N
   0.5833333333    0.2500000000    0.7500000000 N
   0.5833333333    0.5833333333    0.0833333333 N
   0.5833333333    0.5833333333    0.4166666667 N
   0.5833333333    0.5833333333    0.7500000000 N
   0.5833333333    0.9166666667    0.0833333333 N
   0.5833333333    0.9166666667    0.4166666667 N
   0.5833333333    0.9166666667    0.7500000000 N
   0.9166666667    0.2500000000    0.0833333333 N
   0.9166666667    0.2500000000    0.4166666667 N
   0.9166666667    0.2500000000    0.7500000000 N
   0.9166666667    0.5833333333    0.0833333333 N
   0.9166666667    0.5833333333    0.4166666667 N
   0.9166666667    0.5833333333    0.7500000000 N
   0.9166666667    0.9166666667    0.0833333333 N
   0.9166666667    0.9166666667    0.4166666667 N
   0.9166666667    0.9166666667    0.7500000000 N
   0.2500000000    0.0833333333    0.2500000000 N
   0.2500000000    0.0833333333    0.5833333333 N
   0.2500000000    0.0833333333    0.9166666667 N
   0.2500000000    0.4166666667    0.2500000000 N
   0.2500000000    0.4166666667    0.5833333333 N
   0.2500000000    0.4166666667    0.9166666667 N
   0.2500000000    0.7500000000    0.2500000000 N
   0.2500000000    0.7500000000    0.5833333333 N
   0.2500000000    0.7500000000    0.9166666667 N
   0.5833333333    0.0833333333    0.2500000000 N
   0.5833333333    0.0833333333    0.5833333333 N
   0.5833333333    0.0833333333    0.9166666667 N
   0.5833333333    0.4166666667    0.2500000000 N
   0.5833333333    0.4166666667    0.5833333333 N
   0.5833333333    0.4166666667    0.9166666667 N
   0.5833333333    0.7500000000    0.2500000000 N
   0.5833333333    0.7500000000    0.5833333333 N
   0.5833333333    0.7500000000    0.9166666667 N
   0.9166666667    0.0833333333    0.2500000000 N
   0.9166666667    0.0833333333    0.5833333333 N
   0.9166666667    0.0833333333    0.9166666667 N
   0.9166666667    0.4166666667    0.2500000000 N
   0.9166666667    0.4166666667    0.5833333333 N
   0.9166666667    0.4166666667    0.9166666667 N
   0.9166666667    0.7500000000    0.2500000000 N
   0.9166666667    0.7500000000    0.5833333333 N
   0.9166666667    0.7500000000    0.9166666667 N
   0.0833333333    0.2500000000    0.2500000000 N
   0.0833333333    0.2500000000    0.5833333333 N
   0.0833333333    0.2500000000    0.9166666667 N
   0.0833333333    0.5833333333    0.2500000000 N
   0.0833333333    0.5833333333    0.5833333333 N
   0.0833333333    0.5833333333    0.9166666667 N
   0.0833333333    0.9166666667    0.2500000000 N
   0.0833333333    0.9166666667    0.5833333333 N
   0.0833333333    0.9166666667    0.9166666667 N
   0.4166666667    0.2500000000    0.2500000000 N
   0.4166666667    0.2500000000    0.5833333333 N
   0.4166666667    0.2500000000    0.9166666667 N
   0.4166666667    0.5833333333    0.2500000000 N
   0.4166666667    0.5833333333    0.5833333333 N
   0.4166666667    0.5833333333    0.9166666667 N
   0.4166666667    0.9166666667    0.2500000000 N
   0.4166666667    0.9166666667    0.5833333333 N
   0.4166666667    0.9166666667    0.9166666667 N
   0.7500000000    0.2500000000    0.2500000000 N
   0.7500000000    0.2500000000    0.5833333333 N
   0.7500000000    0.2500000000    0.9166666667 N
   0.7500000000    0.5833333333    0.2500000000 N
   0.7500000000    0.5833333333    0.5833333333 N
   0.7500000000    0.5833333333    0.9166666667 N
   0.7500000000    0.9166666667    0.2500000000 N
   0.7500000000    0.9166666667    0.5833333333 N
   0.7500000000    0.9166666667    0.9166666667 N
