B108 N108                               
   1.00000000000000     
    10.7937974929999996    0.0000000000000000    0.0000000000000000
     0.0000000000000000   10.7937974929999996    0.0000000000000000
     0.0000000000000000    0.0000000000000000   10.7937974929999996
   B    N    Si
   106   108     1
Direct
  0.0003031248201141  0.0001154637020429  0.0000076700203457
  0.0004470435710103  0.0001415012893049  0.3332069858186865
  0.0002404908835824  0.0003366258103200  0.6668024404550720
 -0.0000191449994614  0.3333119606105585 -0.0001030973681180
  0.0004497809184201  0.3330363785293171  0.3331151276892053
  0.0000017302107434  0.3331902508061952  0.6667890582266126
  0.0003840811806184  0.6666601116095950  0.0001253558510398
  0.0001293317573561  0.6666841730931344  0.3331334215128808
  0.0001202142777059  0.6666254288571577  0.6668712286365108
  0.3335162374145856 -0.0000224760076393 -0.0000191527035172
  0.3336549671670461  0.0007037706101201  0.3332717929583256
  0.3334603792005357  0.0006543277952502  0.6670826936069317
  0.3330937698390353  0.3328546366625047 -0.0003952000218691
  0.3340366097862809  0.3336114628216210  0.3339643398524220
  0.3358319949501705  0.3356981896394794  0.6701533204315056
  0.3345045013198307  0.6657071957633536 -0.0012584063380119
  0.3309996366846529  0.6664011191296333  0.3312842709425269
  0.3303565146028081  0.6640063702682170  0.6680761286334805
  0.6670014085726848  0.0005293309437200 -0.0000808216735902
  0.6673971297651328  0.0003555782392426  0.3329898916218342
  0.6670326188017299  0.0009566306080161  0.6669923176221806
  0.6657876236811286  0.3343041635517794 -0.0015435200064281
  0.6677020619031323  0.3320322515859608  0.3330618065720045
  0.6639356837774202  0.3363873751426724  0.6635831469518059
  0.6673857639741954  0.6670711341701505 -0.0003849285979351
  0.6695789665776520  0.6660223274728555  0.3310199795843206
  0.6690748361236321  0.6647427328873784  0.6739282761625012
  0.1662762186003006  0.1665648466330769  0.0001018203669243
  0.1666068381369439  0.1668266745628112  0.3334489636237902
  0.1662004456758040  0.1665065948717386  0.6674416334733909
  0.1662004456758040  0.4992250335266104  0.0001600721282626
  0.1655015317753938  0.5001180539263738  0.3326520238780539
  0.1664119605759693  0.4994167932486614  0.6672498737513398
  0.1666068381369439  0.8332177023762074 -0.0001600075628099
  0.1656923220525536  0.8336286072253334  0.3330380587746642
  0.1655015317753938  0.8340146421219434  0.6665486130736274
  0.4990350652916384  0.1667746256123657 -0.0001079586123646
  0.5003367624570909  0.1665679409844422  0.3330153904042201
  0.4997837487989082  0.1683761148568349  0.6667187240022502
  0.4997837487989082  0.4999479429977510 -0.0017094478568337
  0.4995782420305533  0.4967147534373089  0.3314030847813034
  0.5003367624570909  0.8336512755957776  0.0000987260155590
  0.4993989599141450  0.8355663746175194  0.3311002913824784
  0.4995782420305533  0.8352635812186945  0.6699519135626920
  0.8326962098439167  0.1671259023656465 -0.0004592353656454
  0.8333560900490562  0.1664419048935806  0.3329881146789683
  0.8332639138800244  0.1667274445024100  0.6661323794669396
  0.8332639138800244  0.5005342875330616 -0.0000607775024088
  0.8343235894424395  0.4989959320056315  0.3325604390088591
  0.8326221168403858  0.4996497533851272  0.6670169136148739
  0.8333560900490562  0.8336785513210293  0.0002247621064206
  0.8332771038960686  0.8334455524816254  0.3332211135183720
  0.8343235894424395  0.8341062269911385  0.6676707349943701
  0.1663432739001318  0.0000674896920345  0.1665991773079668
  0.1659798891369581  0.0007869999935977  0.5001012667788280
  0.1664231744907806  0.0000327685738111  0.8334905726906122
  0.1664231744907806  0.3331760933093852  0.1666338984261901
  0.1660985423536998  0.3329163374641897  0.5008293585137819
  0.1666614788527153  0.3328355635309229  0.8338311024690745
  0.1659798891369581  0.6665654002211732  0.1658796670064036
  0.1656697765929097  0.6669747745384594  0.4996918924615418
  0.1660985423536998  0.6658373084862194  0.8337503285358080
  0.4997331291734152  0.0005712522638778  0.1660954147361234
  0.4997910255292250  0.0006595716231784  0.5001923265634527
  0.4996480114403575  0.0009480331231941  0.8339467653718020
  0.4996480114403575  0.3327199006281956  0.1657186338768071
  0.5031818188628430  0.3358184969973612  0.5026872654782724
  0.4963708808384369  0.3365189520724144  0.8301477139275830
  0.4997910255292250  0.6664743404365485  0.1660070953768228
  0.5031818188628430  0.6639794015217289  0.8308481690026367
  0.8331176314729299  0.0001715622431704  0.1664951047568309
  0.8337402046652573  0.0006216135862674  0.4999459766691354
  0.8330724353414047  0.0005566577093885  0.8334522650354683
  0.8330724353414047  0.3332144009645288  0.1661100092906127
  0.8338917800491292  0.3319978734495116  0.4995672079003348
  0.8319733174981105  0.3342755046331826  0.8323911613668149
  0.8337402046652573  0.6667206903308657  0.1660450534137337
  0.8330369203277305  0.6658098044168723  0.5008568625831289
  0.8338917800491292  0.6670994590996664  0.8346687925504859
  0.0003031248201141  0.1666589969796556  0.1665512032979583
  0.0003840811806184  0.1665413111489613  0.5000065553904062
 -0.0000191449994614  0.1667697643681193  0.8333547053894393
  0.0002404908835824  0.4998642265449291  0.1663300411896811
  0.0001202142777059  0.4997954383634905  0.5000412381428435
  0.0000017302107434  0.4998776087733885  0.8334764151938026
  0.0004470435710103  0.8334596801813112  0.1665251657106963
  0.0001293317573561  0.8335332444871166  0.4999824939068668
  0.0004497809184201  0.8335515383107927  0.8336302874706802
  0.3335162374145856  0.1666858197035185  0.1666891430076405
  0.3345045013198307  0.1679250733380132  0.5009594712366476
  0.3330937698390353  0.1670618670218703  0.8338120293374927
  0.3334603792005357  0.4995839733930698  0.1660123392047511
  0.3303565146028081  0.4985905383665206  0.5026602967317843
  0.3358319949501705  0.4965133465684956  0.8309684763605181
  0.3336549671670461  0.8333948730416721  0.1659628963898811
  0.3309996366846529  0.8353823950574709  0.5002655478703679
  0.3340366097862809  0.8327023261475756  0.8330552031783767
  0.6670014085726848  0.1667474886735915  0.1661373360562812
  0.6673857639741954  0.1670515955979363  0.4995955328298505
  0.6657876236811286  0.1682101870064294  0.8323625024482181
  0.6670326188017299  0.4996743493778207  0.1657100363919851
  0.6690748361236321  0.4927383908374996  0.5019239341126228
  0.6639356837774202  0.5030835200481953  0.8302792908573252
  0.6673971297651328  0.8336767743781633  0.1663110887607587
  0.6695789665776520  0.8356466864156767  0.5006443395271457
  0.6677020619031323  0.8336048594279930  0.8346344144140366
  0.0831762613679327  0.0831879075108170  0.0834787584891806
  0.0832956420991930  0.0834363110320116  0.4164632726248597
  0.0827691491355937  0.0828745124299606  0.7502148733708561
  0.0827691491355937  0.4164517936291451  0.0837921535700370
  0.0828371979517860  0.4163205998335423  0.4162497204449044
  0.0826538328630064  0.4162002069242877  0.7504664600757139
  0.0832956420991930  0.7502033943751415  0.0832303549679860
  0.0826200787261327  0.7505264597988625  0.4161402072011385
  0.0828371979517860  0.7504169465550968  0.7503460671664586
  0.4164972998536741  0.0830046883721621  0.0836619776278355
  0.4167107017176843  0.0833458461404688  0.4165008684607504
  0.4164572008814333  0.0834395418711018  0.7502910648978690
  0.4164572008814333  0.4163756021021321  0.0832271241288957
  0.4165038034269480  0.4167498833957643  0.4165992763080431
  0.4086096678869107  0.4093768079187488  0.7572898590812522
  0.4167107017176843  0.7501657985392508  0.0833208198595288
  0.4125261037246620  0.7556785424586039  0.4109881245413973
  0.4165038034269480  0.7500673906919582  0.7499167836042367
  0.7501944560559171  0.0834880178403714  0.0831786481596262
  0.7506550839451502  0.0829033371957794  0.4160561925435721
  0.7501654030950706  0.0836415758981139  0.7501275157455425
  0.7501654030950706  0.4165391512544587  0.0830250901018837
  0.7540734893878867  0.4148185171134933  0.4139062629742323
  0.7500629473264246  0.4171823246981349  0.7494843423018661
  0.7506550839451502  0.7506104744564294  0.0837633288042181
  0.7504318108159029  0.7500202984690313  0.4166463685309702
  0.7540734893878867  0.7527604040257688  0.7518481498865081
  0.2494829700927793  0.2494477349701696  0.0839213834622361
  0.2499206842668766  0.2499028666487148  0.4166963705787424
  0.2475742698979966  0.2476134817618769  0.7506223057300575
  0.2498240266216603  0.5832988403502115  0.0832446742681592
  0.2469334498687276  0.5833497115464249  0.4143659195331993
  0.2471574743999038  0.5830076763516530  0.7518149731320388
  0.2498347322761619  0.9166860025512266  0.0833318588786573
  0.2488337542200352  0.9179070215552939  0.4163096032388170
  0.2497021901266513  0.9169276368154489  0.7501382775531038
  0.5833127415578669  0.2497156510838646  0.0829679557414633
  0.5838972302620087  0.2477855741389214  0.4142617077265874
  0.5828744787093381  0.2503437224162122  0.7493640179993408
  0.5835990905262374  0.5835096444449773  0.0833615695727687
  0.5900376048974084  0.5768636994396450  0.4102779741198471
  0.5914328538370134  0.5917496113825322  0.7568309241223967
  0.5835240990202495  0.9173872374614345  0.0837188342927839
  0.5836942085787175  0.9170071219286325  0.4165060297281777
  0.5836421863344416  0.9181283828028438  0.7514909484716228
  0.9165940475249901  0.2498385044131061  0.0831626174570132
  0.9175925750413284  0.2490820687060745  0.4159995900387940
  0.9165791225305001  0.2498520046715277  0.7500578285173963
  0.9173187978548135  0.5834517718280814  0.0836035887149168
  0.9169489884802032  0.5833441113409092  0.4162649023081874
  0.9170930957403094  0.5835354654541858  0.7504177855147920
  0.9168934705467015  0.9169493277910834  0.0835137233267214
  0.9168290827357638  0.9168182144316183  0.4164045139826918
  0.9174156016501211  0.9176051217810880  0.7503285979580677
  0.2498347322761619  0.0833348071213403  0.2499806644487751
  0.2498240266216603  0.0834219917318384  0.5833678256497861
  0.2494829700927793  0.0827452825377614  0.9172189320298317
  0.2497021901266513  0.4165283894468973  0.2497390301845522
  0.2471574743999038  0.4148516938679623  0.5836589896483446
  0.2475742698979966  0.4160443612699437  0.9190531852381243
  0.2488337542200352  0.7503570637611842  0.2487596454447071
  0.2469334498687276  0.7523007474668016  0.5833169544535727
  0.2499206842668766  0.7499702964212590  0.9167638003512865
  0.5835240990202495  0.0829478317072137  0.2492794295385669
  0.5835990905262374  0.0833050964272289  0.5831570215550202
  0.5833127415578669  0.0836987102585343  0.9169510159161365
  0.5836421863344416  0.4151757185283785  0.2485382841971575
  0.5914328538370134  0.4098357428776045  0.5749170546174653
  0.5828744787093381  0.4173026490006604  0.9163229445837888
  0.5836942085787175  0.7501606372718235  0.2496595450713688
  0.5900376048974084  0.7563886928801540  0.5898029665603526
  0.5838972302620087  0.7524049592734137  0.9188810928610797
  0.9168934705467015  0.0831529426732762  0.2497173392089179
  0.9173187978548135  0.0830630772850808  0.5832148941719162
  0.9165940475249901  0.0835040485429843  0.9168281625868951
  0.9174156016501211  0.4163380690419337  0.2490615452189132
  0.9170930957403094  0.4162488814852091  0.5831312005458118
  0.9165791225305001  0.4166088384826047  0.9168146623284734
  0.9168290827357638  0.7502621530173093  0.2498484525683828
  0.9169489884802032  0.7504017646918136  0.5833225546590883
  0.9175925750413284  0.7506670769612070  0.9175845982939267
  0.0834024070341272  0.2497441623616393  0.2498926636933813
  0.0826846441789049  0.2492470742585016  0.5833369729885146
  0.0826211613650342  0.2494833963782941  0.9171832706217073
  0.0826347014582293  0.5833744777916847  0.2492159398687855
  0.0827805096150098  0.5834559511108369  0.5832107148891607
  0.0826846441789049  0.5833296930114830  0.9174195927414998
  0.0831950312668316  0.9168967749626783  0.2497698920373226
  0.0826347014582293  0.9174507271312158  0.5832921882083129
  0.0834024070341272  0.9167740033066197  0.9169225046383617
  0.4165528383251192  0.2497134190353432  0.2497458425453988
  0.4170995328935627  0.2502106808255279  0.5836430813593664
  0.4160808000620100  0.2479217392044767  0.9187449277955243
  0.4165622491625660  0.5832449435513238  0.2495032735337287
  0.3987015211853593  0.5817576120095647  0.5849090539904328
  0.4170995328935627  0.5830235846406312  0.9164559861744733
  0.4166503838505423  0.9178502368020426  0.2488164301979588
  0.4165622491625660  0.9171633934662726  0.5834217224486737
  0.4165528383251192  0.9169208244546025  0.9169532479646580
  0.7506554954889336  0.2493187432738597  0.2490652099633803
  0.7522615363526707  0.2478943468538086  0.5827538603005650
  0.7497140666503027  0.2503442442306858  0.9163224227693154
  0.7515816181918259  0.5831983850392666  0.2485435784166896
  0.7512354279857991  0.5829921452888709  0.5836745207111267
  0.7522615363526707  0.5839128056994326  0.9187723201461926
  0.7502912477720218  0.9167734074438812  0.2498932595561199
  0.7515816181918259  0.9181230885833116  0.5834682809607310
  0.7506554954889336  0.9176014570366210  0.9173479237261413
  0.4983791795489637  0.6594813622640459  0.5071853047359554
 
  0.00000000E+00  0.00000000E+00  0.00000000E+00
  0.00000000E+00  0.00000000E+00  0.00000000E+00
  0.00000000E+00  0.00000000E+00  0.00000000E+00
  0.00000000E+00  0.00000000E+00  0.00000000E+00
  0.00000000E+00  0.00000000E+00  0.00000000E+00
  0.00000000E+00  0.00000000E+00  0.00000000E+00
  0.00000000E+00  0.00000000E+00  0.00000000E+00
  0.00000000E+00  0.00000000E+00  0.00000000E+00
  0.00000000E+00  0.00000000E+00  0.00000000E+00
  0.00000000E+00  0.00000000E+00  0.00000000E+00
  0.00000000E+00  0.00000000E+00  0.00000000E+00
  0.00000000E+00  0.00000000E+00  0.00000000E+00
  0.00000000E+00  0.00000000E+00  0.00000000E+00
  0.00000000E+00  0.00000000E+00  0.00000000E+00
  0.00000000E+00  0.00000000E+00  0.00000000E+00
  0.00000000E+00  0.00000000E+00  0.00000000E+00
  0.00000000E+00  0.00000000E+00  0.00000000E+00
  0.00000000E+00  0.00000000E+00  0.00000000E+00
  0.00000000E+00  0.00000000E+00  0.00000000E+00
  0.00000000E+00  0.00000000E+00  0.00000000E+00
  0.00000000E+00  0.00000000E+00  0.00000000E+00
  0.00000000E+00  0.00000000E+00  0.00000000E+00
  0.00000000E+00  0.00000000E+00  0.00000000E+00
  0.00000000E+00  0.00000000E+00  0.00000000E+00
  0.00000000E+00  0.00000000E+00  0.00000000E+00
  0.00000000E+00  0.00000000E+00  0.00000000E+00
  0.00000000E+00  0.00000000E+00  0.00000000E+00
  0.00000000E+00  0.00000000E+00  0.00000000E+00
  0.00000000E+00  0.00000000E+00  0.00000000E+00
  0.00000000E+00  0.00000000E+00  0.00000000E+00
  0.00000000E+00  0.00000000E+00  0.00000000E+00
  0.00000000E+00  0.00000000E+00  0.00000000E+00
  0.00000000E+00  0.00000000E+00  0.00000000E+00
  0.00000000E+00  0.00000000E+00  0.00000000E+00
  0.00000000E+00  0.00000000E+00  0.00000000E+00
  0.00000000E+00  0.00000000E+00  0.00000000E+00
  0.00000000E+00  0.00000000E+00  0.00000000E+00
  0.00000000E+00  0.00000000E+00  0.00000000E+00
  0.00000000E+00  0.00000000E+00  0.00000000E+00
  0.00000000E+00  0.00000000E+00  0.00000000E+00
  0.00000000E+00  0.00000000E+00  0.00000000E+00
  0.00000000E+00  0.00000000E+00  0.00000000E+00
  0.00000000E+00  0.00000000E+00  0.00000000E+00
  0.00000000E+00  0.00000000E+00  0.00000000E+00
  0.00000000E+00  0.00000000E+00  0.00000000E+00
  0.00000000E+00  0.00000000E+00  0.00000000E+00
  0.00000000E+00  0.00000000E+00  0.00000000E+00
  0.00000000E+00  0.00000000E+00  0.00000000E+00
  0.00000000E+00  0.00000000E+00  0.00000000E+00
  0.00000000E+00  0.00000000E+00  0.00000000E+00
  0.00000000E+00  0.00000000E+00  0.00000000E+00
  0.00000000E+00  0.00000000E+00  0.00000000E+00
  0.00000000E+00  0.00000000E+00  0.00000000E+00
  0.00000000E+00  0.00000000E+00  0.00000000E+00
  0.00000000E+00  0.00000000E+00  0.00000000E+00
  0.00000000E+00  0.00000000E+00  0.00000000E+00
  0.00000000E+00  0.00000000E+00  0.00000000E+00
  0.00000000E+00  0.00000000E+00  0.00000000E+00
  0.00000000E+00  0.00000000E+00  0.00000000E+00
  0.00000000E+00  0.00000000E+00  0.00000000E+00
  0.00000000E+00  0.00000000E+00  0.00000000E+00
  0.00000000E+00  0.00000000E+00  0.00000000E+00
  0.00000000E+00  0.00000000E+00  0.00000000E+00
  0.00000000E+00  0.00000000E+00  0.00000000E+00
  0.00000000E+00  0.00000000E+00  0.00000000E+00
  0.00000000E+00  0.00000000E+00  0.00000000E+00
  0.00000000E+00  0.00000000E+00  0.00000000E+00
  0.00000000E+00  0.00000000E+00  0.00000000E+00
  0.00000000E+00  0.00000000E+00  0.00000000E+00
  0.00000000E+00  0.00000000E+00  0.00000000E+00
  0.00000000E+00  0.00000000E+00  0.00000000E+00
  0.00000000E+00  0.00000000E+00  0.00000000E+00
  0.00000000E+00  0.00000000E+00  0.00000000E+00
  0.00000000E+00  0.00000000E+00  0.00000000E+00
  0.00000000E+00  0.00000000E+00  0.00000000E+00
  0.00000000E+00  0.00000000E+00  0.00000000E+00
  0.00000000E+00  0.00000000E+00  0.00000000E+00
  0.00000000E+00  0.00000000E+00  0.00000000E+00
  0.00000000E+00  0.00000000E+00  0.00000000E+00
  0.00000000E+00  0.00000000E+00  0.00000000E+00
  0.00000000E+00  0.00000000E+00  0.00000000E+00
  0.00000000E+00  0.00000000E+00  0.00000000E+00
  0.00000000E+00  0.00000000E+00  0.00000000E+00
  0.00000000E+00  0.00000000E+00  0.00000000E+00
  0.00000000E+00  0.00000000E+00  0.00000000E+00
  0.00000000E+00  0.00000000E+00  0.00000000E+00
  0.00000000E+00  0.00000000E+00  0.00000000E+00
  0.00000000E+00  0.00000000E+00  0.00000000E+00
  0.00000000E+00  0.00000000E+00  0.00000000E+00
  0.00000000E+00  0.00000000E+00  0.00000000E+00
  0.00000000E+00  0.00000000E+00  0.00000000E+00
  0.00000000E+00  0.00000000E+00  0.00000000E+00
  0.00000000E+00  0.00000000E+00  0.00000000E+00
  0.00000000E+00  0.00000000E+00  0.00000000E+00
  0.00000000E+00  0.00000000E+00  0.00000000E+00
  0.00000000E+00  0.00000000E+00  0.00000000E+00
  0.00000000E+00  0.00000000E+00  0.00000000E+00
  0.00000000E+00  0.00000000E+00  0.00000000E+00
  0.00000000E+00  0.00000000E+00  0.00000000E+00
  0.00000000E+00  0.00000000E+00  0.00000000E+00
  0.00000000E+00  0.00000000E+00  0.00000000E+00
  0.00000000E+00  0.00000000E+00  0.00000000E+00
  0.00000000E+00  0.00000000E+00  0.00000000E+00
  0.00000000E+00  0.00000000E+00  0.00000000E+00
  0.00000000E+00  0.00000000E+00  0.00000000E+00
  0.00000000E+00  0.00000000E+00  0.00000000E+00
  0.00000000E+00  0.00000000E+00  0.00000000E+00
  0.00000000E+00  0.00000000E+00  0.00000000E+00
  0.00000000E+00  0.00000000E+00  0.00000000E+00
  0.00000000E+00  0.00000000E+00  0.00000000E+00
  0.00000000E+00  0.00000000E+00  0.00000000E+00
  0.00000000E+00  0.00000000E+00  0.00000000E+00
  0.00000000E+00  0.00000000E+00  0.00000000E+00
  0.00000000E+00  0.00000000E+00  0.00000000E+00
  0.00000000E+00  0.00000000E+00  0.00000000E+00
  0.00000000E+00  0.00000000E+00  0.00000000E+00
  0.00000000E+00  0.00000000E+00  0.00000000E+00
  0.00000000E+00  0.00000000E+00  0.00000000E+00
  0.00000000E+00  0.00000000E+00  0.00000000E+00
  0.00000000E+00  0.00000000E+00  0.00000000E+00
  0.00000000E+00  0.00000000E+00  0.00000000E+00
  0.00000000E+00  0.00000000E+00  0.00000000E+00
  0.00000000E+00  0.00000000E+00  0.00000000E+00
  0.00000000E+00  0.00000000E+00  0.00000000E+00
  0.00000000E+00  0.00000000E+00  0.00000000E+00
  0.00000000E+00  0.00000000E+00  0.00000000E+00
  0.00000000E+00  0.00000000E+00  0.00000000E+00
  0.00000000E+00  0.00000000E+00  0.00000000E+00
  0.00000000E+00  0.00000000E+00  0.00000000E+00
  0.00000000E+00  0.00000000E+00  0.00000000E+00
  0.00000000E+00  0.00000000E+00  0.00000000E+00
  0.00000000E+00  0.00000000E+00  0.00000000E+00
  0.00000000E+00  0.00000000E+00  0.00000000E+00
  0.00000000E+00  0.00000000E+00  0.00000000E+00
  0.00000000E+00  0.00000000E+00  0.00000000E+00
  0.00000000E+00  0.00000000E+00  0.00000000E+00
  0.00000000E+00  0.00000000E+00  0.00000000E+00
  0.00000000E+00  0.00000000E+00  0.00000000E+00
  0.00000000E+00  0.00000000E+00  0.00000000E+00
  0.00000000E+00  0.00000000E+00  0.00000000E+00
  0.00000000E+00  0.00000000E+00  0.00000000E+00
  0.00000000E+00  0.00000000E+00  0.00000000E+00
  0.00000000E+00  0.00000000E+00  0.00000000E+00
  0.00000000E+00  0.00000000E+00  0.00000000E+00
  0.00000000E+00  0.00000000E+00  0.00000000E+00
  0.00000000E+00  0.00000000E+00  0.00000000E+00
  0.00000000E+00  0.00000000E+00  0.00000000E+00
  0.00000000E+00  0.00000000E+00  0.00000000E+00
  0.00000000E+00  0.00000000E+00  0.00000000E+00
  0.00000000E+00  0.00000000E+00  0.00000000E+00
  0.00000000E+00  0.00000000E+00  0.00000000E+00
  0.00000000E+00  0.00000000E+00  0.00000000E+00
  0.00000000E+00  0.00000000E+00  0.00000000E+00
  0.00000000E+00  0.00000000E+00  0.00000000E+00
  0.00000000E+00  0.00000000E+00  0.00000000E+00
  0.00000000E+00  0.00000000E+00  0.00000000E+00
  0.00000000E+00  0.00000000E+00  0.00000000E+00
  0.00000000E+00  0.00000000E+00  0.00000000E+00
  0.00000000E+00  0.00000000E+00  0.00000000E+00
  0.00000000E+00  0.00000000E+00  0.00000000E+00
  0.00000000E+00  0.00000000E+00  0.00000000E+00
  0.00000000E+00  0.00000000E+00  0.00000000E+00
  0.00000000E+00  0.00000000E+00  0.00000000E+00
  0.00000000E+00  0.00000000E+00  0.00000000E+00
  0.00000000E+00  0.00000000E+00  0.00000000E+00
  0.00000000E+00  0.00000000E+00  0.00000000E+00
  0.00000000E+00  0.00000000E+00  0.00000000E+00
  0.00000000E+00  0.00000000E+00  0.00000000E+00
  0.00000000E+00  0.00000000E+00  0.00000000E+00
  0.00000000E+00  0.00000000E+00  0.00000000E+00
  0.00000000E+00  0.00000000E+00  0.00000000E+00
  0.00000000E+00  0.00000000E+00  0.00000000E+00
  0.00000000E+00  0.00000000E+00  0.00000000E+00
  0.00000000E+00  0.00000000E+00  0.00000000E+00
  0.00000000E+00  0.00000000E+00  0.00000000E+00
  0.00000000E+00  0.00000000E+00  0.00000000E+00
  0.00000000E+00  0.00000000E+00  0.00000000E+00
  0.00000000E+00  0.00000000E+00  0.00000000E+00
  0.00000000E+00  0.00000000E+00  0.00000000E+00
  0.00000000E+00  0.00000000E+00  0.00000000E+00
  0.00000000E+00  0.00000000E+00  0.00000000E+00
  0.00000000E+00  0.00000000E+00  0.00000000E+00
  0.00000000E+00  0.00000000E+00  0.00000000E+00
  0.00000000E+00  0.00000000E+00  0.00000000E+00
  0.00000000E+00  0.00000000E+00  0.00000000E+00
  0.00000000E+00  0.00000000E+00  0.00000000E+00
  0.00000000E+00  0.00000000E+00  0.00000000E+00
  0.00000000E+00  0.00000000E+00  0.00000000E+00
  0.00000000E+00  0.00000000E+00  0.00000000E+00
  0.00000000E+00  0.00000000E+00  0.00000000E+00
  0.00000000E+00  0.00000000E+00  0.00000000E+00
  0.00000000E+00  0.00000000E+00  0.00000000E+00
  0.00000000E+00  0.00000000E+00  0.00000000E+00
  0.00000000E+00  0.00000000E+00  0.00000000E+00
  0.00000000E+00  0.00000000E+00  0.00000000E+00
  0.00000000E+00  0.00000000E+00  0.00000000E+00
  0.00000000E+00  0.00000000E+00  0.00000000E+00
  0.00000000E+00  0.00000000E+00  0.00000000E+00
  0.00000000E+00  0.00000000E+00  0.00000000E+00
  0.00000000E+00  0.00000000E+00  0.00000000E+00
  0.00000000E+00  0.00000000E+00  0.00000000E+00
  0.00000000E+00  0.00000000E+00  0.00000000E+00
  0.00000000E+00  0.00000000E+00  0.00000000E+00
  0.00000000E+00  0.00000000E+00  0.00000000E+00
  0.00000000E+00  0.00000000E+00  0.00000000E+00
  0.00000000E+00  0.00000000E+00  0.00000000E+00
  0.00000000E+00  0.00000000E+00  0.00000000E+00
  0.00000000E+00  0.00000000E+00  0.00000000E+00
  0.00000000E+00  0.00000000E+00  0.00000000E+00
  0.00000000E+00  0.00000000E+00  0.00000000E+00
  0.00000000E+00  0.00000000E+00  0.00000000E+00
  0.00000000E+00  0.00000000E+00  0.00000000E+00
  0.00000000E+00  0.00000000E+00  0.00000000E+00
  0.00000000E+00  0.00000000E+00  0.00000000E+00
  0.00000000E+00  0.00000000E+00  0.00000000E+00
