C  N 
 1.0000000000000000
    10.7211360931000002    0.0000000000000000    0.0000000000000000
     0.0000000000000000   10.7211360931000002    0.0000000000000000
     0.0000000000000000    0.0000000000000000   10.7211360931000002
 C   N  
 214   1
Direct
  0.0833044733455136  0.0833036040528727  0.0833621926544841
  0.0837268517512850  0.0830496670448324  0.4167670010811501
  0.0831008949570284  0.0834725642722529  0.7499645284506677
  0.0837084905547839  0.4166762951200993  0.0829581754452137
  0.0832006940947543  0.4166847962715002  0.4167157847709643
  0.0831117315474590  0.4167345671310779  0.7499197125643788
  0.0831862781844295  0.7499124947383665  0.0834803878155681
  0.0832256683477152  0.7499283415200642  0.4167886907761854
  0.0835732385440549  0.7499835014846429  0.7500447121002117
  0.4167021385493337  0.0834725642722529  0.0835657710429692
  0.4168609186427193  0.0835830552436020  0.4169028107417787
  0.4164608944921201  0.0829732723409682  0.7502057725078812
  0.4167469544356224  0.4167345671310779  0.0835549344525386
  0.4180803568184371  0.4177605218375637  0.4178703446590468
  0.4160239588186591  0.4161587242203616  0.7506427081813356
  0.4166219548997897  0.7499835014846429  0.0830934274559427
  0.4153291683900669  0.7511481412649206  0.4168801704420921
  0.4171837570174268  0.7493764353045759  0.7494829099825748
  0.7498996659188512  0.0830496670448324  0.0829398142487126
  0.7500014095787264  0.0833357824578577  0.4166652574212748
  0.7497638562582225  0.0835830552436020  0.7498057483572815
  0.7499508822290368  0.4166847962715002  0.0834659719052433
  0.7578664439738643  0.4082545677553444  0.4088002230261368
  0.7487963223409544  0.4177605218375637  0.7485863101815643
  0.7498779762238160  0.7499283415200642  0.0834409976522823
  0.7494059671704377  0.7490595640190739  0.4172606998295638
  0.7497864965579097  0.7511481412649206  0.7513374986099346
  0.2501392312722542  0.2500354715493325  0.0835657710429692
  0.2502497222436031  0.2501942516427181  0.4169028107417787
  0.2496399393409693  0.2497942274921187  0.7502057725078812
  0.2497163340448335  0.5832329989188498  0.0829398142487126
  0.2500024494578589  0.5833347425787251  0.4166652574212748
  0.2502497222436031  0.5830971892582213  0.7498057483572815
  0.2499702710528738  0.9166378073455159  0.0833621926544841
  0.2497163340448335  0.9170601857512872  0.4167670010811501
  0.2501392312722542  0.9164342289570311  0.7499645284506677
  0.5834012331310755  0.2500802874356212  0.0835549344525386
  0.5844271878375612  0.2514136898184358  0.4178703446590468
  0.5828253902203591  0.2493572918186580  0.7506427081813356
  0.5833514622714976  0.5832842152290356  0.0834659719052433
  0.5749212337553420  0.5911997769738631  0.4088002230261368
  0.5844271878375612  0.5821296553409532  0.7485863101815643
  0.5833429611200970  0.9170418245547862  0.0829581754452137
  0.5833514622714976  0.9165340280947567  0.4167157847709643
  0.5834012331310755  0.9164450655474615  0.7499197125643788
  0.9166501684846441  0.2499552878997885  0.0830934274559427
  0.9178148082649218  0.2486625013900656  0.4168801704420921
  0.9160431023045771  0.2505170900174255  0.7494829099825748
  0.9165950085200654  0.5832113092238146  0.0834409976522823
  0.9157262310190752  0.5827393001704364  0.4172606998295638
  0.9178148082649218  0.5831198295579084  0.7513374986099346
  0.9165791617383677  0.9165196121844320  0.0834803878155681
  0.9165950085200654  0.9165590023477177  0.4167886907761854
  0.9166501684846441  0.9169065725440571  0.7500447121002117
  0.2501590724375075  0.0834924054375062  0.2501148599646425
  0.2499680973018296  0.0833014303018283  0.5834573107788726
  0.2499019761050895  0.0832353091050883  0.9167646908949117
  0.2503288373006314  0.4168448756013140  0.2503378952532819
  0.2499039193232631  0.4166340452799830  0.5833659547200170
  0.2499680973018296  0.4165426892211277  0.9166985696981720
  0.2497259004870868  0.7500759150474101  0.2499240849525901
  0.2503288373006314  0.7496621047467185  0.5831551243986797
  0.2501590724375075  0.7498851400353576  0.9165075945624938
  0.5835115416013179  0.0836621703006302  0.2503378952532819
  0.5833007112799807  0.0832372523232618  0.5833659547200170
  0.5832093552211252  0.0833014303018283  0.9166985696981720
  0.5839858341884271  0.4173191681884295  0.2510467762994586
  0.5833007112799807  0.4166340452799830  0.9167627476767382
  0.5834070281742959  0.7509947628410030  0.2490052371589971
  0.5839858341884271  0.7489532237005414  0.5826808318115705
  0.5835115416013179  0.7496621047467185  0.9163378296993697
  0.9167425820474113  0.0830592334870855  0.2499240849525901
  0.9163287717467197  0.0836621703006302  0.5831551243986797
  0.9165518070353588  0.0834924054375062  0.9165075945624938
  0.9176614298410042  0.4167403621742983  0.2490052371589971
  0.9156198907005426  0.4173191681884295  0.5826808318115705
  0.9163287717467197  0.4168448756013140  0.9163378296993697
  0.9162415329089264  0.7495748659089252  0.2504251340910749
  0.9176614298410042  0.7509947628410030  0.5832596378257017
  0.9167425820474113  0.7500759150474101  0.9169407665129146
  0.0835732385440549  0.2499552878997885  0.2500164985153571
  0.0831117315474590  0.2500802874356212  0.5832654328689221
  0.0831008949570284  0.2500354715493325  0.9165274357277470
  0.0832256683477152  0.5832113092238146  0.2500716584799360
  0.0832006940947543  0.5832842152290356  0.5833152037285000
  0.0837268517512850  0.5832329989188498  0.9169503329551679
  0.0831862781844295  0.9165196121844320  0.2500875052616334
  0.0837084905547839  0.9170418245547862  0.5833237048799006
  0.0833044733455136  0.9166378073455159  0.9166963959471273
  0.4171837570174268  0.2505170900174255  0.2506235646954241
  0.4160239588186591  0.2493572918186580  0.5838412757796385
  0.4164608944921201  0.2497942274921187  0.9170267276590318
  0.4153291683900669  0.5831198295579084  0.2488518587350795
  0.4180803568184371  0.5821296553409532  0.5822394781624364
  0.4168609186427193  0.5830971892582213  0.9164169447563980
  0.4166219548997897  0.9169065725440571  0.2500164985153571
  0.4167469544356224  0.9164450655474615  0.5832654328689221
  0.4167021385493337  0.9164342289570311  0.9165274357277470
  0.7497864965579097  0.2486625013900656  0.2488518587350795
  0.7487963223409544  0.2514136898184358  0.5822394781624364
  0.7497638562582225  0.2501942516427181  0.9164169447563980
  0.7494059671704377  0.5827393001704364  0.2509404359809262
  0.7578664439738643  0.5911997769738631  0.5917454322446556
  0.7500014095787264  0.5833347425787251  0.9166642175421423
  0.7498779762238160  0.9165590023477177  0.2500716584799360
  0.7499508822290368  0.9165340280947567  0.5833152037285000
  0.7498996659188512  0.9170601857512872  0.9169503329551679
  0.9999267238530093  0.9999957897936282  0.0000042102063720
  0.0000265441533788  0.9998315275319045  0.3333349557063138
  0.9998273356105720  0.0002836150387463  0.6667193246301739
  0.9998273356105720  0.3332806753698264  0.9997163849612537
  0.0002343960180695  0.3331471633965091  0.3332477434801195
  0.9992120977272791  0.3338928148796891  0.6661071851203108
  0.0000265441533788  0.6666650442936863  0.0001684724680955
  0.9994224820823568  0.6661572812899461  0.3338427187100538
  0.0002343960180695  0.6667522565198805  0.6668528366034910
  0.3333395156508214  0.9999429835500210  0.0000570164499788
  0.3334035327500605  0.0002719797892236  0.3333814559175732
  0.3333918023586983  0.9997759158227397  0.6667224509792716
  0.3333918023586983  0.3332775490207284  0.0002240841772605
  0.3343595405658387  0.3337230233315318  0.3342941581938451
  0.3328669334983241  0.3330560444954636  0.6669439555045363
  0.3334035327500605  0.6666185440824266  0.9997280202107764
  0.3329412552056965  0.6668563468681338  0.3331436531318659
  0.3343595405658387  0.6657058418061551  0.6662769766684683
  0.6666780214171641  0.0001843142968920  0.9998156857031082
  0.6666259733874490  0.9999954352840532  0.3335120552650064
  0.6666237099307286  0.9999143820114538  0.6665715454688664
  0.6666237099307286  0.3334284545311336  0.0000856179885463
  0.6683558536708114  0.3340095678346796  0.3339894380910204
  0.6638740846278940  0.3343418389627687  0.6656581610372314
  0.6666259733874490  0.6664879447349937  0.0000045647159471
  0.6655323548754217  0.6658248206785669  0.3341751793214331
  0.6683558536708114  0.6660105619089796  0.6659904321653207
  0.1666096505500224  0.1666728496508237  0.0000570164499788
  0.1669386467892247  0.1667368667500629  0.3333814559175732
  0.1664425828227408  0.1667251363587008  0.6667224509792716
  0.1668509812968932  0.5000113544171629  0.9998156857031082
  0.1666621022840541  0.4999593063874416  0.3335120552650064
  0.1665810490114550  0.4999570429307272  0.6665715454688664
  0.1666624567936293  0.8332600568530081  0.0000042102063720
  0.1664981945319057  0.8333598771533774  0.3333349557063138
  0.1669502820387475  0.8331606686105708  0.6667193246301739
  0.4999442160207295  0.1667251363587008  0.0002240841772605
  0.5003896903315330  0.1676928745658411  0.3342941581938451
  0.4997227114954648  0.1662002674983266  0.6669439555045363
  0.5000951215311348  0.4999570429307272  0.0000856179885463
  0.5006762348346805  0.5016891866708102  0.3339894380910204
  0.5010085059627699  0.4972074176278928  0.6656581610372314
  0.4999473423698274  0.8331606686105708  0.9997163849612537
  0.4998138303965103  0.8335677290180685  0.3332477434801195
  0.5005594818796905  0.8325454307272779  0.6661071851203108
  0.8332852100824242  0.1667368667500629  0.9997280202107764
  0.8335230128681312  0.1662745892056990  0.3331436531318659
  0.8323725078061527  0.1676928745658411  0.6662769766684683
  0.8331546107349913  0.4999593063874416  0.0000045647159471
  0.8324914866785645  0.4988656878754206  0.3341751793214331
  0.8326772279089772  0.5016891866708102  0.6659904321653207
  0.8333317102936839  0.8333598771533774  0.0001684724680955
  0.8328239472899438  0.8327558150823556  0.3338427187100538
  0.8334189225198781  0.8335677290180685  0.6668528366034910
  0.1666624567936293  0.9999957897936282  0.1667399431469922
  0.1668509812968932  0.0001843142968920  0.4999886455828373
  0.1666096505500224  0.9999429835500210  0.8333271503491764
  0.1669502820387475  0.3332806753698264  0.1668393313894294
  0.1665810490114550  0.3334284545311336  0.5000429570692726
  0.1664425828227408  0.3332775490207284  0.8332748636412992
  0.1664981945319057  0.6666650442936863  0.1666401228466223
  0.1666621022840541  0.6664879447349937  0.5000406936125585
  0.1669386467892247  0.6666185440824266  0.8332631332499373
  0.4999473423698274  0.0002836150387463  0.1668393313894294
  0.5000951215311348  0.9999143820114538  0.5000429570692726
  0.4999442160207295  0.9997759158227397  0.8332748636412992
  0.5005594818796905  0.3338928148796891  0.1674545692727222
  0.5010085059627699  0.3343418389627687  0.5027925823721072
  0.4997227114954648  0.3330560444954636  0.8337997325016734
  0.4998138303965103  0.6667522565198805  0.1664322709819316
  0.5006762348346805  0.6660105619089796  0.4983108133291898
  0.5003896903315330  0.6657058418061551  0.8323071254341590
  0.8333317102936839  0.9998315275319045  0.1666401228466223
  0.8331546107349913  0.9999954352840532  0.5000406936125585
  0.8332852100824242  0.0002719797892236  0.8332631332499373
  0.8334189225198781  0.3331471633965091  0.1664322709819316
  0.8326772279089772  0.3340095678346796  0.4983108133291898
  0.8323725078061527  0.3337230233315318  0.8323071254341590
  0.8328239472899438  0.6661572812899461  0.1672441849176445
  0.8324914866785645  0.6658248206785669  0.5011343121245796
  0.8335230128681312  0.6668563468681338  0.8337254107943011
  0.0000293904540390  0.1666464066044626  0.1666372765459623
  0.0005612120730774  0.1660571723390604  0.4997946742637155
  0.9996324432515270  0.1669330162367710  0.8330669837632292
  0.0005579595765099  0.4997899046359986  0.1661087074234915
  0.9993428331719444  0.5000069534823215  0.4999930465176788
  0.0005612120730774  0.5002053257362847  0.8339428276609397
  0.9997578306962218  0.8330911636962206  0.1669088363037795
  0.0005579595765099  0.8338912925765085  0.5002100953640015
  0.0000293904540390  0.8333627234540377  0.8333535933955374
  0.3335996822367686  0.1669330162367710  0.1670342237484740
  0.3332434929541681  0.1665768269541705  0.5001853717450653
  0.3331888213912332  0.1665221553912356  0.8334778446087643
  0.3327238383390581  0.5002053257362847  0.1661054549269240
  0.3337026053850432  0.4999748935655385  0.5000251064344615
  0.3332434929541681  0.4998146282549346  0.8334231730458296
  0.3333130726044601  0.8333627234540377  0.1666372765459623
  0.3327238383390581  0.8338945450730759  0.4997946742637155
  0.3335996822367686  0.8329657762515258  0.8330669837632292
  0.6668719927362859  0.1660571723390604  0.1661054549269240
  0.6666415605655396  0.1670359393850456  0.5000251064344615
  0.6664812952549359  0.1665768269541705  0.8334231730458296
  0.6666736204823226  0.5000069534823215  0.1673238338280569
  0.6666415605655396  0.4999748935655385  0.8329640606149544
  0.6664565716359998  0.8338912925765085  0.1661087074234915
  0.6666736204823226  0.8326761661719432  0.4999930465176788
  0.6668719927362859  0.8338945450730759  0.8339428276609397
  0.5780269758145595  0.4113603098145620  0.5886396901854380
Cartesian
  0.0000000000000000  0.0000000000000000  0.0000000000000000
  0.0000000000000000  0.0000000000000000  0.0000000000000000
  0.0000000000000000  0.0000000000000000  0.0000000000000000
  0.0000000000000000  0.0000000000000000  0.0000000000000000
  0.0000000000000000  0.0000000000000000  0.0000000000000000
  0.0000000000000000  0.0000000000000000  0.0000000000000000
  0.0000000000000000  0.0000000000000000  0.0000000000000000
  0.0000000000000000  0.0000000000000000  0.0000000000000000
  0.0000000000000000  0.0000000000000000  0.0000000000000000
  0.0000000000000000  0.0000000000000000  0.0000000000000000
  0.0000000000000000  0.0000000000000000  0.0000000000000000
  0.0000000000000000  0.0000000000000000  0.0000000000000000
  0.0000000000000000  0.0000000000000000  0.0000000000000000
  0.0000000000000000  0.0000000000000000  0.0000000000000000
  0.0000000000000000  0.0000000000000000  0.0000000000000000
  0.0000000000000000  0.0000000000000000  0.0000000000000000
  0.0000000000000000  0.0000000000000000  0.0000000000000000
  0.0000000000000000  0.0000000000000000  0.0000000000000000
  0.0000000000000000  0.0000000000000000  0.0000000000000000
  0.0000000000000000  0.0000000000000000  0.0000000000000000
  0.0000000000000000  0.0000000000000000  0.0000000000000000
  0.0000000000000000  0.0000000000000000  0.0000000000000000
  0.0000000000000000  0.0000000000000000  0.0000000000000000
  0.0000000000000000  0.0000000000000000  0.0000000000000000
  0.0000000000000000  0.0000000000000000  0.0000000000000000
  0.0000000000000000  0.0000000000000000  0.0000000000000000
  0.0000000000000000  0.0000000000000000  0.0000000000000000
  0.0000000000000000  0.0000000000000000  0.0000000000000000
  0.0000000000000000  0.0000000000000000  0.0000000000000000
  0.0000000000000000  0.0000000000000000  0.0000000000000000
  0.0000000000000000  0.0000000000000000  0.0000000000000000
  0.0000000000000000  0.0000000000000000  0.0000000000000000
  0.0000000000000000  0.0000000000000000  0.0000000000000000
  0.0000000000000000  0.0000000000000000  0.0000000000000000
  0.0000000000000000  0.0000000000000000  0.0000000000000000
  0.0000000000000000  0.0000000000000000  0.0000000000000000
  0.0000000000000000  0.0000000000000000  0.0000000000000000
  0.0000000000000000  0.0000000000000000  0.0000000000000000
  0.0000000000000000  0.0000000000000000  0.0000000000000000
  0.0000000000000000  0.0000000000000000  0.0000000000000000
  0.0000000000000000  0.0000000000000000  0.0000000000000000
  0.0000000000000000  0.0000000000000000  0.0000000000000000
  0.0000000000000000  0.0000000000000000  0.0000000000000000
  0.0000000000000000  0.0000000000000000  0.0000000000000000
  0.0000000000000000  0.0000000000000000  0.0000000000000000
  0.0000000000000000  0.0000000000000000  0.0000000000000000
  0.0000000000000000  0.0000000000000000  0.0000000000000000
  0.0000000000000000  0.0000000000000000  0.0000000000000000
  0.0000000000000000  0.0000000000000000  0.0000000000000000
  0.0000000000000000  0.0000000000000000  0.0000000000000000
  0.0000000000000000  0.0000000000000000  0.0000000000000000
  0.0000000000000000  0.0000000000000000  0.0000000000000000
  0.0000000000000000  0.0000000000000000  0.0000000000000000
  0.0000000000000000  0.0000000000000000  0.0000000000000000
  0.0000000000000000  0.0000000000000000  0.0000000000000000
  0.0000000000000000  0.0000000000000000  0.0000000000000000
  0.0000000000000000  0.0000000000000000  0.0000000000000000
  0.0000000000000000  0.0000000000000000  0.0000000000000000
  0.0000000000000000  0.0000000000000000  0.0000000000000000
  0.0000000000000000  0.0000000000000000  0.0000000000000000
  0.0000000000000000  0.0000000000000000  0.0000000000000000
  0.0000000000000000  0.0000000000000000  0.0000000000000000
  0.0000000000000000  0.0000000000000000  0.0000000000000000
  0.0000000000000000  0.0000000000000000  0.0000000000000000
  0.0000000000000000  0.0000000000000000  0.0000000000000000
  0.0000000000000000  0.0000000000000000  0.0000000000000000
  0.0000000000000000  0.0000000000000000  0.0000000000000000
  0.0000000000000000  0.0000000000000000  0.0000000000000000
  0.0000000000000000  0.0000000000000000  0.0000000000000000
  0.0000000000000000  0.0000000000000000  0.0000000000000000
  0.0000000000000000  0.0000000000000000  0.0000000000000000
  0.0000000000000000  0.0000000000000000  0.0000000000000000
  0.0000000000000000  0.0000000000000000  0.0000000000000000
  0.0000000000000000  0.0000000000000000  0.0000000000000000
  0.0000000000000000  0.0000000000000000  0.0000000000000000
  0.0000000000000000  0.0000000000000000  0.0000000000000000
  0.0000000000000000  0.0000000000000000  0.0000000000000000
  0.0000000000000000  0.0000000000000000  0.0000000000000000
  0.0000000000000000  0.0000000000000000  0.0000000000000000
  0.0000000000000000  0.0000000000000000  0.0000000000000000
  0.0000000000000000  0.0000000000000000  0.0000000000000000
  0.0000000000000000  0.0000000000000000  0.0000000000000000
  0.0000000000000000  0.0000000000000000  0.0000000000000000
  0.0000000000000000  0.0000000000000000  0.0000000000000000
  0.0000000000000000  0.0000000000000000  0.0000000000000000
  0.0000000000000000  0.0000000000000000  0.0000000000000000
  0.0000000000000000  0.0000000000000000  0.0000000000000000
  0.0000000000000000  0.0000000000000000  0.0000000000000000
  0.0000000000000000  0.0000000000000000  0.0000000000000000
  0.0000000000000000  0.0000000000000000  0.0000000000000000
  0.0000000000000000  0.0000000000000000  0.0000000000000000
  0.0000000000000000  0.0000000000000000  0.0000000000000000
  0.0000000000000000  0.0000000000000000  0.0000000000000000
  0.0000000000000000  0.0000000000000000  0.0000000000000000
  0.0000000000000000  0.0000000000000000  0.0000000000000000
  0.0000000000000000  0.0000000000000000  0.0000000000000000
  0.0000000000000000  0.0000000000000000  0.0000000000000000
  0.0000000000000000  0.0000000000000000  0.0000000000000000
  0.0000000000000000  0.0000000000000000  0.0000000000000000
  0.0000000000000000  0.0000000000000000  0.0000000000000000
  0.0000000000000000  0.0000000000000000  0.0000000000000000
  0.0000000000000000  0.0000000000000000  0.0000000000000000
  0.0000000000000000  0.0000000000000000  0.0000000000000000
  0.0000000000000000  0.0000000000000000  0.0000000000000000
  0.0000000000000000  0.0000000000000000  0.0000000000000000
  0.0000000000000000  0.0000000000000000  0.0000000000000000
  0.0000000000000000  0.0000000000000000  0.0000000000000000
  0.0000000000000000  0.0000000000000000  0.0000000000000000
  0.0000000000000000  0.0000000000000000  0.0000000000000000
  0.0000000000000000  0.0000000000000000  0.0000000000000000
  0.0000000000000000  0.0000000000000000  0.0000000000000000
  0.0000000000000000  0.0000000000000000  0.0000000000000000
  0.0000000000000000  0.0000000000000000  0.0000000000000000
  0.0000000000000000  0.0000000000000000  0.0000000000000000
  0.0000000000000000  0.0000000000000000  0.0000000000000000
  0.0000000000000000  0.0000000000000000  0.0000000000000000
  0.0000000000000000  0.0000000000000000  0.0000000000000000
  0.0000000000000000  0.0000000000000000  0.0000000000000000
  0.0000000000000000  0.0000000000000000  0.0000000000000000
  0.0000000000000000  0.0000000000000000  0.0000000000000000
  0.0000000000000000  0.0000000000000000  0.0000000000000000
  0.0000000000000000  0.0000000000000000  0.0000000000000000
  0.0000000000000000  0.0000000000000000  0.0000000000000000
  0.0000000000000000  0.0000000000000000  0.0000000000000000
  0.0000000000000000  0.0000000000000000  0.0000000000000000
  0.0000000000000000  0.0000000000000000  0.0000000000000000
  0.0000000000000000  0.0000000000000000  0.0000000000000000
  0.0000000000000000  0.0000000000000000  0.0000000000000000
  0.0000000000000000  0.0000000000000000  0.0000000000000000
  0.0000000000000000  0.0000000000000000  0.0000000000000000
  0.0000000000000000  0.0000000000000000  0.0000000000000000
  0.0000000000000000  0.0000000000000000  0.0000000000000000
  0.0000000000000000  0.0000000000000000  0.0000000000000000
  0.0000000000000000  0.0000000000000000  0.0000000000000000
  0.0000000000000000  0.0000000000000000  0.0000000000000000
  0.0000000000000000  0.0000000000000000  0.0000000000000000
  0.0000000000000000  0.0000000000000000  0.0000000000000000
  0.0000000000000000  0.0000000000000000  0.0000000000000000
  0.0000000000000000  0.0000000000000000  0.0000000000000000
  0.0000000000000000  0.0000000000000000  0.0000000000000000
  0.0000000000000000  0.0000000000000000  0.0000000000000000
  0.0000000000000000  0.0000000000000000  0.0000000000000000
  0.0000000000000000  0.0000000000000000  0.0000000000000000
  0.0000000000000000  0.0000000000000000  0.0000000000000000
  0.0000000000000000  0.0000000000000000  0.0000000000000000
  0.0000000000000000  0.0000000000000000  0.0000000000000000
  0.0000000000000000  0.0000000000000000  0.0000000000000000
  0.0000000000000000  0.0000000000000000  0.0000000000000000
  0.0000000000000000  0.0000000000000000  0.0000000000000000
  0.0000000000000000  0.0000000000000000  0.0000000000000000
  0.0000000000000000  0.0000000000000000  0.0000000000000000
  0.0000000000000000  0.0000000000000000  0.0000000000000000
  0.0000000000000000  0.0000000000000000  0.0000000000000000
  0.0000000000000000  0.0000000000000000  0.0000000000000000
  0.0000000000000000  0.0000000000000000  0.0000000000000000
  0.0000000000000000  0.0000000000000000  0.0000000000000000
  0.0000000000000000  0.0000000000000000  0.0000000000000000
  0.0000000000000000  0.0000000000000000  0.0000000000000000
  0.0000000000000000  0.0000000000000000  0.0000000000000000
  0.0000000000000000  0.0000000000000000  0.0000000000000000
  0.0000000000000000  0.0000000000000000  0.0000000000000000
  0.0000000000000000  0.0000000000000000  0.0000000000000000
  0.0000000000000000  0.0000000000000000  0.0000000000000000
  0.0000000000000000  0.0000000000000000  0.0000000000000000
  0.0000000000000000  0.0000000000000000  0.0000000000000000
  0.0000000000000000  0.0000000000000000  0.0000000000000000
  0.0000000000000000  0.0000000000000000  0.0000000000000000
  0.0000000000000000  0.0000000000000000  0.0000000000000000
  0.0000000000000000  0.0000000000000000  0.0000000000000000
  0.0000000000000000  0.0000000000000000  0.0000000000000000
  0.0000000000000000  0.0000000000000000  0.0000000000000000
  0.0000000000000000  0.0000000000000000  0.0000000000000000
  0.0000000000000000  0.0000000000000000  0.0000000000000000
  0.0000000000000000  0.0000000000000000  0.0000000000000000
  0.0000000000000000  0.0000000000000000  0.0000000000000000
  0.0000000000000000  0.0000000000000000  0.0000000000000000
  0.0000000000000000  0.0000000000000000  0.0000000000000000
  0.0000000000000000  0.0000000000000000  0.0000000000000000
  0.0000000000000000  0.0000000000000000  0.0000000000000000
  0.0000000000000000  0.0000000000000000  0.0000000000000000
  0.0000000000000000  0.0000000000000000  0.0000000000000000
  0.0000000000000000  0.0000000000000000  0.0000000000000000
  0.0000000000000000  0.0000000000000000  0.0000000000000000
  0.0000000000000000  0.0000000000000000  0.0000000000000000
  0.0000000000000000  0.0000000000000000  0.0000000000000000
  0.0000000000000000  0.0000000000000000  0.0000000000000000
  0.0000000000000000  0.0000000000000000  0.0000000000000000
  0.0000000000000000  0.0000000000000000  0.0000000000000000
  0.0000000000000000  0.0000000000000000  0.0000000000000000
  0.0000000000000000  0.0000000000000000  0.0000000000000000
  0.0000000000000000  0.0000000000000000  0.0000000000000000
  0.0000000000000000  0.0000000000000000  0.0000000000000000
  0.0000000000000000  0.0000000000000000  0.0000000000000000
  0.0000000000000000  0.0000000000000000  0.0000000000000000
  0.0000000000000000  0.0000000000000000  0.0000000000000000
  0.0000000000000000  0.0000000000000000  0.0000000000000000
  0.0000000000000000  0.0000000000000000  0.0000000000000000
  0.0000000000000000  0.0000000000000000  0.0000000000000000
  0.0000000000000000  0.0000000000000000  0.0000000000000000
  0.0000000000000000  0.0000000000000000  0.0000000000000000
  0.0000000000000000  0.0000000000000000  0.0000000000000000
  0.0000000000000000  0.0000000000000000  0.0000000000000000
  0.0000000000000000  0.0000000000000000  0.0000000000000000
  0.0000000000000000  0.0000000000000000  0.0000000000000000
  0.0000000000000000  0.0000000000000000  0.0000000000000000
  0.0000000000000000  0.0000000000000000  0.0000000000000000
  0.0000000000000000  0.0000000000000000  0.0000000000000000
  0.0000000000000000  0.0000000000000000  0.0000000000000000
  0.0000000000000000  0.0000000000000000  0.0000000000000000
  0.0000000000000000  0.0000000000000000  0.0000000000000000
  0.0000000000000000  0.0000000000000000  0.0000000000000000
  0.0000000000000000  0.0000000000000000  0.0000000000000000
  0.0000000000000000  0.0000000000000000  0.0000000000000000
  0.0000000000000000  0.0000000000000000  0.0000000000000000
  0.0000000000000000  0.0000000000000000  0.0000000000000000
