
     Program PWSCF v.7.4.1 starts on  3Aug2026 at  2:24:13 

     This program is part of the open-source Quantum ESPRESSO suite
     for quantum simulation of materials; please cite
         "P. Giannozzi et al., J. Phys.:Condens. Matter 21 395502 (2009);
         "P. Giannozzi et al., J. Phys.:Condens. Matter 29 465901 (2017);
         "P. Giannozzi et al., J. Chem. Phys. 152 154105 (2020);
          URL http://www.quantum-espresso.org", 
     in publications or presentations arising from this work. More details at
     http://www.quantum-espresso.org/quote

     Parallel version (MPI), running on    32 processors

     MPI processes distributed on     1 nodes
     113513 MiB available memory on the printing compute node when the environment starts
 
     Reading input from diamond_pd_scf.in

     Current dimensions of program PWSCF are:
     Max number of different atomic species (ntypx) = 10
     Max number of k-points (npk) =  40000
     Max angular momentum in pseudopotentials (lmaxx) =  4
     file C.pbe-n-kjpaw_psl.1.0.0.UPF: wavefunction(s)  2S 2P renormalized
     Found identity + ( -0.0000 -0.0000  0.3333) symmetry
     This is a supercell, fractional translations are disabled
 
     R & G space division:  proc/nbgrp/npool/nimage =      32
     Subspace diagonalization in iterative solution of the eigenvalue problem:
     one sub-group per band group will be used
     scalapack distributed-memory algorithm (size of sub-group:  5*  5 procs)

 
     Parallelization info
     --------------------
     sticks:   dense  smooth     PW     G-vecs:    dense   smooth      PW
     Min         183     183     46                10583    10583    1322
     Max         184     184     47                10588    10588    1326
     Sum        5877    5877   1473               338755   338755   42379
 
     Using Slab Decomposition
 


     bravais-lattice index     =            0
     lattice parameter (alat)  =      20.2515  a.u.
     unit-cell volume          =    8305.5769 (a.u.)^3
     number of atoms/cell      =          216
     number of atomic types    =            1
     number of electrons       =       864.00 (up: 432.00, down: 432.00)
     number of Kohn-Sham states=          861
     kinetic-energy cutoff     =      45.0000  Ry
     charge density cutoff     =     180.0000  Ry
     scf convergence threshold =      1.0E-08
     mixing beta               =       0.7000
     number of iterations used =            8  plain     mixing
     Exchange-correlation= SLA  PW   PBX  PBC
                           (   1   4   3   4   0   0   0)

     celldm(1)=  20.251472  celldm(2)=   0.000000  celldm(3)=   0.000000
     celldm(4)=   0.000000  celldm(5)=   0.000000  celldm(6)=   0.000000

     crystal axes: (cart. coord. in units of alat)
               a(1) = (  -0.707107   0.000000   0.707107 )  
               a(2) = (   0.408248   0.816497   0.408248 )  
               a(3) = (  -0.577350   0.577350  -0.577350 )  

     reciprocal axes: (cart. coord. in units 2 pi/alat)
               b(1) = ( -0.707107  0.000000  0.707107 )  
               b(2) = (  0.408248  0.816497  0.408248 )  
               b(3) = ( -0.577350  0.577350 -0.577350 )  


     PseudoPot. # 1 for C  read from file:
     ../../../pseudos/C.pbe-n-kjpaw_psl.1.0.0.UPF
     MD5 check sum: 5f16ad9a65e90284d1d834d4ab3b0f7d
     Pseudo is Projector augmented-wave + core cor, Zval =  4.0
     Generated using &quot;atomic&quot; code by A. Dal Corso  v.6.3
     Shape of augmentation charge: PSQ
     Using radial grid of 1073 points,  4 beta functions with: 
                l(1) =   0
                l(2) =   0
                l(3) =   1
                l(4) =   1
     Q(r) pseudized with 0 coefficients 


     atomic species   valence    mass     pseudopotential
     C                 4.00    12.01070     C ( 1.00)

     Starting magnetic structure 
     atomic species   magnetization
     C               0.000

     No symmetry found


                                    s                        frac. trans.

      isym =  1     identity                                     

 cryst.   s( 1) = (     1          0          0      )
                  (     0          1          0      )
                  (     0          0          1      )

 cart.    s( 1) = (  1.0000000  0.0000000  0.0000000 )
                  (  0.0000000  1.0000000  0.0000000 )
                  (  0.0000000  0.0000000  1.0000000 )


   Cartesian axes

     site n.     atom                  positions (alat units)
         1        C      tau(   1) = (  -0.0000566   0.0000901   0.0000348  )
         2        C      tau(   2) = (  -0.1925067   0.1925401  -0.1924153  )
         3        C      tau(   3) = (  -0.3849568   0.3849902  -0.3848654  )
         4        C      tau(   4) = (   0.1360262   0.2722556   0.1361175  )
         5        C      tau(   5) = (  -0.0564239   0.4647056  -0.0563326  )
         6        C      tau(   6) = (  -0.2488740   0.6571558  -0.2487827  )
         7        C      tau(   7) = (   0.2721089   0.5444211   0.2722003  )
         8        C      tau(   8) = (   0.0796589   0.7368712   0.0797502  )
         9        C      tau(   9) = (  -0.1127913   0.9293213  -0.1126999  )
        10        C      tau(  10) = (  -0.2357589   0.0000900   0.2357370  )
        11        C      tau(  11) = (  -0.4282089   0.1925401   0.0432869  )
        12        C      tau(  12) = (  -0.6206591   0.3849902  -0.1491632  )
        13        C      tau(  13) = (  -0.0996761   0.2722556   0.3718197  )
        14        C      tau(  14) = (  -0.2921262   0.4647057   0.1793697  )
        15        C      tau(  15) = (  -0.4845762   0.6571558  -0.0130804  )
        16        C      tau(  16) = (   0.0364067   0.5444211   0.5079025  )
        17        C      tau(  17) = (  -0.1560434   0.7368712   0.3154524  )
        18        C      tau(  18) = (  -0.3484935   0.9293213   0.1230024  )
        19        C      tau(  19) = (  -0.4714611   0.0000900   0.4714393  )
        20        C      tau(  20) = (  -0.6639112   0.1925401   0.2789892  )
        21        C      tau(  21) = (  -0.8563613   0.3849902   0.0865391  )
        22        C      tau(  22) = (  -0.3353784   0.2722556   0.6075221  )
        23        C      tau(  23) = (  -0.5278284   0.4647056   0.4150720  )
        24        C      tau(  24) = (  -0.7202786   0.6571557   0.2226219  )
        25        C      tau(  25) = (  -0.1992956   0.5444211   0.7436048  )
        26        C      tau(  26) = (  -0.3917457   0.7368712   0.5511547  )
        27        C      tau(  27) = (  -0.5841958   0.9293213   0.3587046  )
        28        C      tau(  28) = (  -0.0498663   0.1361728   0.1859273  )
        29        C      tau(  29) = (  -0.2423164   0.3286229  -0.0065228  )
        30        C      tau(  30) = (  -0.4347665   0.5210730  -0.1989729  )
        31        C      tau(  31) = (   0.0862164   0.4083383   0.3220100  )
        32        C      tau(  32) = (  -0.1062337   0.6007884   0.1295599  )
        33        C      tau(  33) = (  -0.2986838   0.7932385  -0.0628902  )
        34        C      tau(  34) = (   0.2222992   0.6805039   0.4580928  )
        35        C      tau(  35) = (   0.0298491   0.8729540   0.2656427  )
        36        C      tau(  36) = (  -0.1626010   1.0654040   0.0731926  )
        37        C      tau(  37) = (  -0.2855686   0.1361728   0.4216295  )
        38        C      tau(  38) = (  -0.4780187   0.3286229   0.2291795  )
        39        C      tau(  39) = (  -0.6704688   0.5210730   0.0367294  )
        40        C      tau(  40) = (  -0.1494859   0.4083384   0.5577123  )
        41        C      tau(  41) = (  -0.3419359   0.6007884   0.3652622  )
        42        C      tau(  42) = (  -0.5343860   0.7932385   0.1728121  )
        43        C      tau(  43) = (  -0.0134031   0.6805039   0.6937951  )
        44        C      tau(  44) = (  -0.2058532   0.8729539   0.5013450  )
        45        C      tau(  45) = (  -0.3983033   1.0654041   0.3088949  )
        46        C      tau(  46) = (  -0.5212709   0.1361728   0.6573318  )
        47        C      tau(  47) = (  -0.7137210   0.3286229   0.4648817  )
        48        C      tau(  48) = (  -0.9061711   0.5210730   0.2724316  )
        49        C      tau(  49) = (  -0.3851881   0.4083383   0.7934146  )
        50        C      tau(  50) = (  -0.5776382   0.6007884   0.6009645  )
        51        C      tau(  51) = (  -0.7700883   0.7932385   0.4085144  )
        52        C      tau(  52) = (  -0.2491054   0.6805039   0.9294973  )
        53        C      tau(  53) = (  -0.4415555   0.8729540   0.7370473  )
        54        C      tau(  54) = (  -0.6340055   1.0654040   0.5445971  )
        55        C      tau(  55) = (  -0.2141328   0.0963151   0.0216608  )
        56        C      tau(  56) = (  -0.4065828   0.2887652  -0.1707893  )
        57        C      tau(  57) = (  -0.5990330   0.4812153  -0.3632393  )
        58        C      tau(  58) = (  -0.0780500   0.3684806   0.1577436  )
        59        C      tau(  59) = (  -0.2705001   0.5609307  -0.0347065  )
        60        C      tau(  60) = (  -0.4629502   0.7533808  -0.2271566  )
        61        C      tau(  61) = (   0.0580328   0.6406462   0.2938264  )
        62        C      tau(  62) = (  -0.1344174   0.8330962   0.1013763  )
        63        C      tau(  63) = (  -0.3268674   1.0255463  -0.0910738  )
        64        C      tau(  64) = (  -0.4498350   0.0963151   0.2573631  )
        65        C      tau(  65) = (  -0.6422851   0.2887652   0.0649130  )
        66        C      tau(  66) = (  -0.8347352   0.4812153  -0.1275371  )
        67        C      tau(  67) = (  -0.3137523   0.3684806   0.3934459  )
        68        C      tau(  68) = (  -0.5062023   0.5609307   0.2009958  )
        69        C      tau(  69) = (  -0.6986525   0.7533808   0.0085457  )
        70        C      tau(  70) = (  -0.1776695   0.6406461   0.5295286  )
        71        C      tau(  71) = (  -0.3701196   0.8330962   0.3370785  )
        72        C      tau(  72) = (  -0.5625697   1.0255463   0.1446285  )
        73        C      tau(  73) = (  -0.6855373   0.0963151   0.4930654  )
        74        C      tau(  74) = (  -0.8779874   0.2887652   0.3006153  )
        75        C      tau(  75) = (  -1.0704375   0.4812153   0.1081652  )
        76        C      tau(  76) = (  -0.5494545   0.3684806   0.6291481  )
        77        C      tau(  77) = (  -0.7419046   0.5609307   0.4366980  )
        78        C      tau(  78) = (  -0.9343548   0.7533808   0.2442480  )
        79        C      tau(  79) = (  -0.4133718   0.6406461   0.7652309  )
        80        C      tau(  80) = (  -0.6058219   0.8330963   0.5727808  )
        81        C      tau(  81) = (  -0.7982720   1.0255463   0.3803307  )
        82        C      tau(  82) = (  -0.0282403   0.2323978  -0.0281489  )
        83        C      tau(  83) = (  -0.2206904   0.4248479  -0.2205990  )
        84        C      tau(  84) = (  -0.4131405   0.6172981  -0.4130491  )
        85        C      tau(  85) = (   0.1078425   0.5045634   0.1079339  )
        86        C      tau(  86) = (  -0.0846076   0.6970135  -0.0845162  )
        87        C      tau(  87) = (  -0.2770577   0.8894635  -0.2769663  )
        88        C      tau(  88) = (   0.2439252   0.7767289   0.2440166  )
        89        C      tau(  89) = (   0.0514752   0.9691790   0.0515665  )
        90        C      tau(  90) = (  -0.1409749   1.1616291  -0.1408836  )
        91        C      tau(  91) = (  -0.2639425   0.2323979   0.2075534  )
        92        C      tau(  92) = (  -0.4563926   0.4248479   0.0151033  )
        93        C      tau(  93) = (  -0.6488427   0.6172980  -0.1773469  )
        94        C      tau(  94) = (  -0.1278598   0.5045634   0.3436361  )
        95        C      tau(  95) = (  -0.3203098   0.6970135   0.1511860  )
        96        C      tau(  96) = (  -0.5127599   0.8894636  -0.0412641  )
        97        C      tau(  97) = (   0.0082230   0.7767289   0.4797189  )
        98        C      tau(  98) = (  -0.1842271   0.9691790   0.2872688  )
        99        C      tau(  99) = (  -0.3766772   1.1616291   0.0948187  )
       100        C      tau( 100) = (  -0.4996448   0.2323979   0.4432556  )
       101        C      tau( 101) = (  -0.6920949   0.4248479   0.2508055  )
       102        C      tau( 102) = (  -0.8845450   0.6172980   0.0583554  )
       103        C      tau( 103) = (  -0.3635620   0.5045634   0.5793384  )
       104        C      tau( 104) = (  -0.5560121   0.6970135   0.3868883  )
       105        C      tau( 105) = (  -0.7484623   0.8894636   0.1944382  )
       106        C      tau( 106) = (  -0.2274793   0.7767289   0.7154212  )
       107        C      tau( 107) = (  -0.4199294   0.9691790   0.5229711  )
       108        C      tau( 108) = (  -0.6123794   1.1616291   0.3305210  )
       109        C      tau( 109) = (  -0.0730744   0.1162446   0.0448687  )
       110        C      tau( 110) = (  -0.2655245   0.3086947  -0.1475814  )
       111        C      tau( 111) = (  -0.4579746   0.5011448  -0.3400314  )
       112        C      tau( 112) = (   0.0630084   0.3884101   0.1809515  )
       113        C      tau( 113) = (  -0.1294418   0.5808602  -0.0114986  )
       114        C      tau( 114) = (  -0.3218918   0.7733103  -0.2039487  )
       115        C      tau( 115) = (   0.1990911   0.6605757   0.3170343  )
       116        C      tau( 116) = (   0.0066411   0.8530258   0.1245842  )
       117        C      tau( 117) = (  -0.1858091   1.0454758  -0.0678659  )
       118        C      tau( 118) = (  -0.3087767   0.1162446   0.2805710  )
       119        C      tau( 119) = (  -0.5012268   0.3086947   0.0881209  )
       120        C      tau( 120) = (  -0.6936769   0.5011448  -0.1043292  )
       121        C      tau( 121) = (  -0.1726940   0.3884102   0.4166537  )
       122        C      tau( 122) = (  -0.3651440   0.5808602   0.2242037  )
       123        C      tau( 123) = (  -0.5575941   0.7733103   0.0317536  )
       124        C      tau( 124) = (  -0.0366111   0.6605757   0.5527365  )
       125        C      tau( 125) = (  -0.2290612   0.8530257   0.3602864  )
       126        C      tau( 126) = (  -0.4215113   1.0454759   0.1678363  )
       127        C      tau( 127) = (  -0.5444789   0.1162446   0.5162733  )
       128        C      tau( 128) = (  -0.7369291   0.3086947   0.3238232  )
       129        C      tau( 129) = (  -0.9293791   0.5011448   0.1313731  )
       130        C      tau( 130) = (  -0.4083962   0.3884102   0.6523561  )
       131        C      tau( 131) = (  -0.6008463   0.5808602   0.4599059  )
       132        C      tau( 132) = (  -0.7932964   0.7733103   0.2674559  )
       133        C      tau( 133) = (  -0.2723134   0.6605757   0.7884388  )
       134        C      tau( 134) = (  -0.4647635   0.8530258   0.5959888  )
       135        C      tau( 135) = (  -0.6572136   1.0454758   0.4035386  )
       136        C      tau( 136) = (  -0.1228842   0.2523274   0.2307612  )
       137        C      tau( 137) = (  -0.3153342   0.4447775   0.0383112  )
       138        C      tau( 138) = (  -0.5077843   0.6372276  -0.1541390  )
       139        C      tau( 139) = (   0.0131986   0.5244929   0.3668440  )
       140        C      tau( 140) = (  -0.1792515   0.7169430   0.1743939  )
       141        C      tau( 141) = (  -0.3717015   0.9093931  -0.0180562  )
       142        C      tau( 142) = (   0.1492814   0.7966584   0.5029268  )
       143        C      tau( 143) = (  -0.0431687   0.9891085   0.3104767  )
       144        C      tau( 144) = (  -0.2356188   1.1815586   0.1180266  )
       145        C      tau( 145) = (  -0.3585864   0.2523274   0.4664635  )
       146        C      tau( 146) = (  -0.5510365   0.4447775   0.2740134  )
       147        C      tau( 147) = (  -0.7434867   0.6372275   0.0815633  )
       148        C      tau( 148) = (  -0.2225037   0.5244929   0.6025463  )
       149        C      tau( 149) = (  -0.4149537   0.7169430   0.4100962  )
       150        C      tau( 150) = (  -0.6074038   0.9093931   0.2176461  )
       151        C      tau( 151) = (  -0.0864209   0.7966584   0.7386291  )
       152        C      tau( 152) = (  -0.2788710   0.9891085   0.5461790  )
       153        C      tau( 153) = (  -0.4713211   1.1815586   0.3537289  )
       154        C      tau( 154) = (  -0.5942887   0.2523274   0.7021658  )
       155        C      tau( 155) = (  -0.7867388   0.4447774   0.5097157  )
       156        C      tau( 156) = (  -0.9791889   0.6372276   0.3172656  )
       157        C      tau( 157) = (  -0.4582059   0.5244929   0.8382485  )
       158        C      tau( 158) = (  -0.6506560   0.7169430   0.6457985  )
       159        C      tau( 159) = (  -0.8431061   0.9093931   0.4533484  )
       160        C      tau( 160) = (  -0.3221232   0.7966584   0.9743313  )
       161        C      tau( 161) = (  -0.5145732   0.9891085   0.7818812  )
       162        C      tau( 162) = (  -0.7070233   1.1815586   0.5894311  )
       163        C      tau( 163) = (  -0.2871506   0.2124697   0.0664948  )
       164        C      tau( 164) = (  -0.4796007   0.4049198  -0.1259553  )
       165        C      tau( 165) = (  -0.6720508   0.5973698  -0.3184054  )
       166        C      tau( 166) = (  -0.1510679   0.4846352   0.2025776  )
       167        C      tau( 167) = (  -0.3435179   0.6770853   0.0101275  )
       168        C      tau( 168) = (  -0.5359680   0.8695353  -0.1823226  )
       169        C      tau( 169) = (  -0.0149850   0.7568007   0.3386604  )
       170        C      tau( 170) = (  -0.2074352   0.9492508   0.1462102  )
       171        C      tau( 171) = (  -0.3998852   1.1417009  -0.0462398  )
       172        C      tau( 172) = (  -0.5228528   0.2124697   0.3021971  )
       173        C      tau( 173) = (  -0.7153030   0.4049198   0.1097470  )
       174        C      tau( 174) = (  -0.9077530   0.5973698  -0.0827031  )
       175        C      tau( 175) = (  -0.3867701   0.4846352   0.4382799  )
       176        C      tau( 176) = (  -0.5792202   0.6770853   0.2458298  )
       177        C      tau( 177) = (  -0.7716703   0.8695354   0.0533797  )
       178        C      tau( 178) = (  -0.2506873   0.7568007   0.5743626  )
       179        C      tau( 179) = (  -0.4431374   0.9492508   0.3819125  )
       180        C      tau( 180) = (  -0.6355875   1.1417009   0.1894625  )
       181        C      tau( 181) = (  -0.7585552   0.2124696   0.5378993  )
       182        C      tau( 182) = (  -0.9510052   0.4049197   0.3454493  )
       183        C      tau( 183) = (  -1.1434553   0.5973699   0.1529992  )
       184        C      tau( 184) = (  -0.6224723   0.4846352   0.6739821  )
       185        C      tau( 185) = (  -0.8149225   0.6770853   0.4815320  )
       186        C      tau( 186) = (  -1.0073725   0.8695354   0.2890819  )
       187        C      tau( 187) = (  -0.4863896   0.7568007   0.8100649  )
       188        C      tau( 188) = (  -0.6788397   0.9492508   0.6176148  )
       189        C      tau( 189) = (  -0.8712898   1.1417009   0.4251647  )
       190        C      tau( 190) = (  -0.1012581   0.3485524   0.0166851  )
       191        C      tau( 191) = (  -0.2937082   0.5410025  -0.1757650  )
       192        C      tau( 192) = (  -0.4861582   0.7334526  -0.3682151  )
       193        C      tau( 193) = (   0.0348247   0.6207180   0.1527679  )
       194        C      tau( 194) = (  -0.1576254   0.8131680  -0.0396823  )
       195        C      tau( 195) = (  -0.3500755   1.0056181  -0.2321324  )
       196        C      tau( 196) = (   0.1709075   0.8928835   0.2888506  )
       197        C      tau( 197) = (  -0.0215426   1.0853336   0.0964005  )
       198        C      tau( 198) = (  -0.2139928   1.2777837  -0.0960496  )
       199        C      tau( 199) = (  -0.3369603   0.3485525   0.2523874  )
       200        C      tau( 200) = (  -0.5294104   0.5410025   0.0599373  )
       201        C      tau( 201) = (  -0.7218605   0.7334526  -0.1325129  )
       202        C      tau( 202) = (  -0.2008776   0.6207179   0.3884701  )
       203        C      tau( 203) = (  -0.3933276   0.8131680   0.1960200  )
       204        C      tau( 204) = (  -0.5857778   1.0056182   0.0035699  )
       205        C      tau( 205) = (  -0.0647948   0.8928835   0.5245529  )
       206        C      tau( 206) = (  -0.2572449   1.0853336   0.3321028  )
       207        C      tau( 207) = (  -0.4496950   1.2777837   0.1396527  )
       208        C      tau( 208) = (  -0.5726626   0.3485524   0.4880896  )
       209        C      tau( 209) = (  -0.7651127   0.5410025   0.2956395  )
       210        C      tau( 210) = (  -0.9575628   0.7334526   0.1031894  )
       211        C      tau( 211) = (  -0.4365798   0.6207179   0.6241724  )
       212        C      tau( 212) = (  -0.6290299   0.8131681   0.4317223  )
       213        C      tau( 213) = (  -0.8214801   1.0056181   0.2392722  )
       214        C      tau( 214) = (  -0.3004971   0.8928835   0.7602551  )
       215        C      tau( 215) = (  -0.4929472   1.0853336   0.5678051  )
       216        C      tau( 216) = (  -0.6853972   1.2777837   0.3753549  )

   Crystallographic axes

     site n.     atom                  positions (cryst. coord.)
         1        C      tau(   1) = (  0.0000646  0.0000646  0.0000646  )
         2        C      tau(   2) = (  0.0000646  0.0000646  0.3333979  )
         3        C      tau(   3) = (  0.0000646  0.0000646  0.6667312  )
         4        C      tau(   4) = (  0.0000646  0.3333979  0.0000646  )
         5        C      tau(   5) = (  0.0000646  0.3333979  0.3333979  )
         6        C      tau(   6) = (  0.0000646  0.3333979  0.6667313  )
         7        C      tau(   7) = (  0.0000646  0.6667313  0.0000646  )
         8        C      tau(   8) = (  0.0000646  0.6667313  0.3333979  )
         9        C      tau(   9) = (  0.0000646  0.6667312  0.6667313  )
        10        C      tau(  10) = (  0.3333979  0.0000646  0.0000646  )
        11        C      tau(  11) = (  0.3333979  0.0000646  0.3333979  )
        12        C      tau(  12) = (  0.3333979  0.0000646  0.6667313  )
        13        C      tau(  13) = (  0.3333979  0.3333979  0.0000646  )
        14        C      tau(  14) = (  0.3333980  0.3333979  0.3333979  )
        15        C      tau(  15) = (  0.3333979  0.3333980  0.6667312  )
        16        C      tau(  16) = (  0.3333979  0.6667313  0.0000646  )
        17        C      tau(  17) = (  0.3333979  0.6667312  0.3333979  )
        18        C      tau(  18) = (  0.3333979  0.6667313  0.6667313  )
        19        C      tau(  19) = (  0.6667313  0.0000646  0.0000646  )
        20        C      tau(  20) = (  0.6667313  0.0000646  0.3333979  )
        21        C      tau(  21) = (  0.6667313  0.0000646  0.6667313  )
        22        C      tau(  22) = (  0.6667313  0.3333979  0.0000646  )
        23        C      tau(  23) = (  0.6667312  0.3333979  0.3333979  )
        24        C      tau(  24) = (  0.6667313  0.3333979  0.6667313  )
        25        C      tau(  25) = (  0.6667313  0.6667313  0.0000646  )
        26        C      tau(  26) = (  0.6667313  0.6667313  0.3333979  )
        27        C      tau(  27) = (  0.6667313  0.6667313  0.6667313  )
        28        C      tau(  28) = (  0.1667312  0.1667313  0.0000646  )
        29        C      tau(  29) = (  0.1667312  0.1667313  0.3333979  )
        30        C      tau(  30) = (  0.1667313  0.1667313  0.6667313  )
        31        C      tau(  31) = (  0.1667312  0.5000646  0.0000646  )
        32        C      tau(  32) = (  0.1667313  0.5000646  0.3333979  )
        33        C      tau(  33) = (  0.1667313  0.5000646  0.6667313  )
        34        C      tau(  34) = (  0.1667313  0.8333979  0.0000646  )
        35        C      tau(  35) = (  0.1667312  0.8333980  0.3333979  )
        36        C      tau(  36) = (  0.1667313  0.8333979  0.6667313  )
        37        C      tau(  37) = (  0.5000646  0.1667313  0.0000646  )
        38        C      tau(  38) = (  0.5000646  0.1667313  0.3333979  )
        39        C      tau(  39) = (  0.5000646  0.1667312  0.6667313  )
        40        C      tau(  40) = (  0.5000646  0.5000646  0.0000647  )
        41        C      tau(  41) = (  0.5000646  0.5000646  0.3333979  )
        42        C      tau(  42) = (  0.5000646  0.5000646  0.6667312  )
        43        C      tau(  43) = (  0.5000646  0.8333979  0.0000646  )
        44        C      tau(  44) = (  0.5000646  0.8333979  0.3333979  )
        45        C      tau(  45) = (  0.5000646  0.8333979  0.6667313  )
        46        C      tau(  46) = (  0.8333979  0.1667313  0.0000646  )
        47        C      tau(  47) = (  0.8333980  0.1667312  0.3333979  )
        48        C      tau(  48) = (  0.8333979  0.1667313  0.6667313  )
        49        C      tau(  49) = (  0.8333980  0.5000646  0.0000646  )
        50        C      tau(  50) = (  0.8333979  0.5000646  0.3333979  )
        51        C      tau(  51) = (  0.8333980  0.5000646  0.6667313  )
        52        C      tau(  52) = (  0.8333979  0.8333979  0.0000646  )
        53        C      tau(  53) = (  0.8333980  0.8333980  0.3333979  )
        54        C      tau(  54) = (  0.8333979  0.8333979  0.6667312  )
        55        C      tau(  55) = (  0.1667312  0.0000646  0.1667313  )
        56        C      tau(  56) = (  0.1667312  0.0000646  0.5000646  )
        57        C      tau(  57) = (  0.1667313  0.0000646  0.8333980  )
        58        C      tau(  58) = (  0.1667313  0.3333979  0.1667313  )
        59        C      tau(  59) = (  0.1667313  0.3333979  0.5000646  )
        60        C      tau(  60) = (  0.1667312  0.3333979  0.8333979  )
        61        C      tau(  61) = (  0.1667313  0.6667313  0.1667313  )
        62        C      tau(  62) = (  0.1667313  0.6667313  0.5000646  )
        63        C      tau(  63) = (  0.1667313  0.6667313  0.8333979  )
        64        C      tau(  64) = (  0.5000646  0.0000646  0.1667313  )
        65        C      tau(  65) = (  0.5000646  0.0000646  0.5000646  )
        66        C      tau(  66) = (  0.5000646  0.0000646  0.8333980  )
        67        C      tau(  67) = (  0.5000646  0.3333979  0.1667313  )
        68        C      tau(  68) = (  0.5000646  0.3333979  0.5000646  )
        69        C      tau(  69) = (  0.5000646  0.3333979  0.8333979  )
        70        C      tau(  70) = (  0.5000646  0.6667312  0.1667313  )
        71        C      tau(  71) = (  0.5000646  0.6667313  0.5000646  )
        72        C      tau(  72) = (  0.5000646  0.6667313  0.8333979  )
        73        C      tau(  73) = (  0.8333980  0.0000646  0.1667313  )
        74        C      tau(  74) = (  0.8333980  0.0000646  0.5000646  )
        75        C      tau(  75) = (  0.8333979  0.0000646  0.8333979  )
        76        C      tau(  76) = (  0.8333979  0.3333980  0.1667312  )
        77        C      tau(  77) = (  0.8333980  0.3333979  0.5000646  )
        78        C      tau(  78) = (  0.8333980  0.3333979  0.8333980  )
        79        C      tau(  79) = (  0.8333980  0.6667313  0.1667313  )
        80        C      tau(  80) = (  0.8333980  0.6667313  0.5000646  )
        81        C      tau(  81) = (  0.8333979  0.6667312  0.8333980  )
        82        C      tau(  82) = (  0.0000646  0.1667313  0.1667313  )
        83        C      tau(  83) = (  0.0000646  0.1667312  0.5000646  )
        84        C      tau(  84) = (  0.0000646  0.1667313  0.8333980  )
        85        C      tau(  85) = (  0.0000646  0.5000646  0.1667312  )
        86        C      tau(  86) = (  0.0000646  0.5000646  0.5000646  )
        87        C      tau(  87) = (  0.0000646  0.5000646  0.8333979  )
        88        C      tau(  88) = (  0.0000646  0.8333979  0.1667313  )
        89        C      tau(  89) = (  0.0000646  0.8333980  0.5000646  )
        90        C      tau(  90) = (  0.0000646  0.8333979  0.8333980  )
        91        C      tau(  91) = (  0.3333979  0.1667313  0.1667313  )
        92        C      tau(  92) = (  0.3333979  0.1667313  0.5000646  )
        93        C      tau(  93) = (  0.3333979  0.1667312  0.8333979  )
        94        C      tau(  94) = (  0.3333980  0.5000646  0.1667313  )
        95        C      tau(  95) = (  0.3333979  0.5000646  0.5000646  )
        96        C      tau(  96) = (  0.3333979  0.5000646  0.8333979  )
        97        C      tau(  97) = (  0.3333979  0.8333979  0.1667312  )
        98        C      tau(  98) = (  0.3333979  0.8333979  0.5000646  )
        99        C      tau(  99) = (  0.3333979  0.8333980  0.8333980  )
       100        C      tau( 100) = (  0.6667313  0.1667313  0.1667313  )
       101        C      tau( 101) = (  0.6667313  0.1667313  0.5000646  )
       102        C      tau( 102) = (  0.6667313  0.1667313  0.8333979  )
       103        C      tau( 103) = (  0.6667313  0.5000646  0.1667312  )
       104        C      tau( 104) = (  0.6667313  0.5000646  0.5000646  )
       105        C      tau( 105) = (  0.6667313  0.5000646  0.8333980  )
       106        C      tau( 106) = (  0.6667313  0.8333979  0.1667312  )
       107        C      tau( 107) = (  0.6667313  0.8333979  0.5000646  )
       108        C      tau( 108) = (  0.6667313  0.8333979  0.8333979  )
       109        C      tau( 109) = (  0.0833984  0.0833984  0.0833984  )
       110        C      tau( 110) = (  0.0833984  0.0833984  0.4167317  )
       111        C      tau( 111) = (  0.0833984  0.0833984  0.7500651  )
       112        C      tau( 112) = (  0.0833984  0.4167317  0.0833984  )
       113        C      tau( 113) = (  0.0833984  0.4167317  0.4167318  )
       114        C      tau( 114) = (  0.0833984  0.4167317  0.7500651  )
       115        C      tau( 115) = (  0.0833984  0.7500651  0.0833984  )
       116        C      tau( 116) = (  0.0833984  0.7500651  0.4167317  )
       117        C      tau( 117) = (  0.0833984  0.7500651  0.7500651  )
       118        C      tau( 118) = (  0.4167317  0.0833984  0.0833984  )
       119        C      tau( 119) = (  0.4167318  0.0833984  0.4167317  )
       120        C      tau( 120) = (  0.4167318  0.0833984  0.7500651  )
       121        C      tau( 121) = (  0.4167318  0.4167317  0.0833985  )
       122        C      tau( 122) = (  0.4167317  0.4167317  0.4167317  )
       123        C      tau( 123) = (  0.4167317  0.4167318  0.7500650  )
       124        C      tau( 124) = (  0.4167317  0.7500651  0.0833984  )
       125        C      tau( 125) = (  0.4167317  0.7500651  0.4167317  )
       126        C      tau( 126) = (  0.4167317  0.7500651  0.7500651  )
       127        C      tau( 127) = (  0.7500651  0.0833984  0.0833984  )
       128        C      tau( 128) = (  0.7500651  0.0833984  0.4167318  )
       129        C      tau( 129) = (  0.7500651  0.0833984  0.7500651  )
       130        C      tau( 130) = (  0.7500651  0.4167318  0.0833984  )
       131        C      tau( 131) = (  0.7500651  0.4167317  0.4167317  )
       132        C      tau( 132) = (  0.7500651  0.4167317  0.7500651  )
       133        C      tau( 133) = (  0.7500651  0.7500651  0.0833984  )
       134        C      tau( 134) = (  0.7500651  0.7500651  0.4167317  )
       135        C      tau( 135) = (  0.7500651  0.7500651  0.7500651  )
       136        C      tau( 136) = (  0.2500651  0.2500651  0.0833984  )
       137        C      tau( 137) = (  0.2500651  0.2500651  0.4167317  )
       138        C      tau( 138) = (  0.2500650  0.2500651  0.7500651  )
       139        C      tau( 139) = (  0.2500651  0.5833984  0.0833984  )
       140        C      tau( 140) = (  0.2500651  0.5833984  0.4167318  )
       141        C      tau( 141) = (  0.2500650  0.5833984  0.7500650  )
       142        C      tau( 142) = (  0.2500651  0.9167317  0.0833984  )
       143        C      tau( 143) = (  0.2500650  0.9167318  0.4167317  )
       144        C      tau( 144) = (  0.2500651  0.9167318  0.7500651  )
       145        C      tau( 145) = (  0.5833984  0.2500651  0.0833984  )
       146        C      tau( 146) = (  0.5833984  0.2500651  0.4167317  )
       147        C      tau( 147) = (  0.5833984  0.2500650  0.7500651  )
       148        C      tau( 148) = (  0.5833984  0.5833984  0.0833984  )
       149        C      tau( 149) = (  0.5833984  0.5833984  0.4167317  )
       150        C      tau( 150) = (  0.5833984  0.5833984  0.7500651  )
       151        C      tau( 151) = (  0.5833984  0.9167317  0.0833984  )
       152        C      tau( 152) = (  0.5833984  0.9167318  0.4167317  )
       153        C      tau( 153) = (  0.5833984  0.9167318  0.7500651  )
       154        C      tau( 154) = (  0.9167318  0.2500651  0.0833984  )
       155        C      tau( 155) = (  0.9167318  0.2500650  0.4167317  )
       156        C      tau( 156) = (  0.9167318  0.2500651  0.7500651  )
       157        C      tau( 157) = (  0.9167317  0.5833984  0.0833984  )
       158        C      tau( 158) = (  0.9167317  0.5833984  0.4167317  )
       159        C      tau( 159) = (  0.9167318  0.5833984  0.7500651  )
       160        C      tau( 160) = (  0.9167318  0.9167317  0.0833984  )
       161        C      tau( 161) = (  0.9167318  0.9167318  0.4167317  )
       162        C      tau( 162) = (  0.9167317  0.9167318  0.7500651  )
       163        C      tau( 163) = (  0.2500651  0.0833984  0.2500651  )
       164        C      tau( 164) = (  0.2500651  0.0833984  0.5833984  )
       165        C      tau( 165) = (  0.2500651  0.0833984  0.9167318  )
       166        C      tau( 166) = (  0.2500651  0.4167317  0.2500651  )
       167        C      tau( 167) = (  0.2500651  0.4167318  0.5833984  )
       168        C      tau( 168) = (  0.2500650  0.4167317  0.9167317  )
       169        C      tau( 169) = (  0.2500651  0.7500651  0.2500651  )
       170        C      tau( 170) = (  0.2500651  0.7500650  0.5833984  )
       171        C      tau( 171) = (  0.2500651  0.7500651  0.9167318  )
       172        C      tau( 172) = (  0.5833984  0.0833984  0.2500651  )
       173        C      tau( 173) = (  0.5833984  0.0833984  0.5833984  )
       174        C      tau( 174) = (  0.5833984  0.0833984  0.9167317  )
       175        C      tau( 175) = (  0.5833984  0.4167317  0.2500650  )
       176        C      tau( 176) = (  0.5833984  0.4167317  0.5833984  )
       177        C      tau( 177) = (  0.5833985  0.4167317  0.9167318  )
       178        C      tau( 178) = (  0.5833984  0.7500651  0.2500650  )
       179        C      tau( 179) = (  0.5833984  0.7500651  0.5833984  )
       180        C      tau( 180) = (  0.5833984  0.7500651  0.9167318  )
       181        C      tau( 181) = (  0.9167318  0.0833984  0.2500651  )
       182        C      tau( 182) = (  0.9167317  0.0833984  0.5833984  )
       183        C      tau( 183) = (  0.9167318  0.0833985  0.9167318  )
       184        C      tau( 184) = (  0.9167317  0.4167317  0.2500651  )
       185        C      tau( 185) = (  0.9167318  0.4167318  0.5833984  )
       186        C      tau( 186) = (  0.9167317  0.4167317  0.9167318  )
       187        C      tau( 187) = (  0.9167318  0.7500651  0.2500651  )
       188        C      tau( 188) = (  0.9167317  0.7500651  0.5833984  )
       189        C      tau( 189) = (  0.9167317  0.7500651  0.9167318  )
       190        C      tau( 190) = (  0.0833984  0.2500651  0.2500651  )
       191        C      tau( 191) = (  0.0833984  0.2500651  0.5833984  )
       192        C      tau( 192) = (  0.0833984  0.2500651  0.9167317  )
       193        C      tau( 193) = (  0.0833984  0.5833984  0.2500651  )
       194        C      tau( 194) = (  0.0833984  0.5833984  0.5833984  )
       195        C      tau( 195) = (  0.0833984  0.5833984  0.9167317  )
       196        C      tau( 196) = (  0.0833984  0.9167318  0.2500651  )
       197        C      tau( 197) = (  0.0833984  0.9167318  0.5833984  )
       198        C      tau( 198) = (  0.0833984  0.9167318  0.9167318  )
       199        C      tau( 199) = (  0.4167318  0.2500651  0.2500651  )
       200        C      tau( 200) = (  0.4167318  0.2500651  0.5833984  )
       201        C      tau( 201) = (  0.4167317  0.2500650  0.9167318  )
       202        C      tau( 202) = (  0.4167317  0.5833984  0.2500651  )
       203        C      tau( 203) = (  0.4167317  0.5833984  0.5833984  )
       204        C      tau( 204) = (  0.4167317  0.5833984  0.9167318  )
       205        C      tau( 205) = (  0.4167317  0.9167318  0.2500651  )
       206        C      tau( 206) = (  0.4167318  0.9167317  0.5833984  )
       207        C      tau( 207) = (  0.4167317  0.9167317  0.9167318  )
       208        C      tau( 208) = (  0.7500651  0.2500651  0.2500651  )
       209        C      tau( 209) = (  0.7500651  0.2500650  0.5833984  )
       210        C      tau( 210) = (  0.7500651  0.2500651  0.9167317  )
       211        C      tau( 211) = (  0.7500651  0.5833984  0.2500650  )
       212        C      tau( 212) = (  0.7500651  0.5833984  0.5833984  )
       213        C      tau( 213) = (  0.7500651  0.5833984  0.9167318  )
       214        C      tau( 214) = (  0.7500651  0.9167317  0.2500651  )
       215        C      tau( 215) = (  0.7500651  0.9167318  0.5833984  )
       216        C      tau( 216) = (  0.7500651  0.9167318  0.9167318  )

     number of k points=     1
                       cart. coord. in units 2pi/alat
        k(    1) = (   0.0000000   0.0000000   0.0000000), wk =   1.0000000

                       cryst. coord.
        k(    1) = (   0.0000000   0.0000000   0.0000000), wk =   1.0000000

     Dense  grid:   338755 G-vectors     FFT dimensions: (  90,  90,  90)

     Dynamical RAM for                 wfc:      17.38 MB

     Dynamical RAM for     wfc (w. buffer):      52.14 MB

     Dynamical RAM for           str. fact:       0.16 MB

     Dynamical RAM for           local pot:       0.00 MB

     Dynamical RAM for          nlocal pot:      34.88 MB

     Dynamical RAM for                qrad:       0.31 MB

     Dynamical RAM for          rho,v,vnew:       2.08 MB

     Dynamical RAM for               rhoin:       0.69 MB

     Dynamical RAM for            rho*nmix:       5.17 MB

     Dynamical RAM for           G-vectors:       0.69 MB

     Dynamical RAM for          h,s,v(r/c):       5.42 MB

     Dynamical RAM for          <psi|beta>:      22.70 MB

     Dynamical RAM for                 psi:      34.76 MB

     Dynamical RAM for                hpsi:      34.76 MB

     Dynamical RAM for                spsi:      34.76 MB

     Dynamical RAM for      wfcinit/wfcrot:      51.74 MB

     Dynamical RAM for           addusdens:      42.01 MB

     Dynamical RAM for          addusforce:     111.83 MB

     Dynamical RAM for         addusstress:       8.32 MB

     Estimated static dynamical RAM per process >      92.39 MB

     Estimated max dynamical RAM per process >     229.97 MB

     Estimated total dynamical RAM >       7.19 GB

     Check: negative core charge=   -0.000075
     Generating pointlists ...
     new r_m :   0.0595 (alat units)  1.2058 (a.u.) for type    1

     Initial potential from superposition of free atoms

     starting charge     863.9910, renormalised to     864.0000
     Starting wfcs are random
     Checking if some PAW data can be deallocated... 

     total cpu time spent up to now is        6.4 secs

     per-process dynamical memory:   141.3 Mb

     Self-consistent Calculation

     iteration #  1     ecut=    45.00 Ry     beta= 0.70
     Davidson diagonalization with overlap

---- Real-time Memory Report at c_bands before calling an iterative solver
           380 MiB given to the printing process from OS
           137 MiB allocation reported by mallinfo(arena+hblkhd)
        108421 MiB available memory on the node where the printing process lives
------------------
     ethr =  1.00E-02,  avg # of iterations =  9.0

     total cpu time spent up to now is       79.5 secs

     total energy              =   -3980.59456945 Ry
     estimated scf accuracy    <      12.58529885 Ry

     total magnetization       =    -0.00 Bohr mag/cell
     absolute magnetization    =     0.29 Bohr mag/cell

     iteration #  2     ecut=    45.00 Ry     beta= 0.70
     Davidson diagonalization with overlap

---- Real-time Memory Report at c_bands before calling an iterative solver
           635 MiB given to the printing process from OS
           160 MiB allocation reported by mallinfo(arena+hblkhd)
        107582 MiB available memory on the node where the printing process lives
------------------
     ethr =  1.46E-03,  avg # of iterations =  1.5

     total cpu time spent up to now is       96.4 secs

     total energy              =   -3981.48174146 Ry
     estimated scf accuracy    <       0.26375593 Ry

     total magnetization       =     0.00 Bohr mag/cell
     absolute magnetization    =     0.13 Bohr mag/cell

     iteration #  3     ecut=    45.00 Ry     beta= 0.70
     Davidson diagonalization with overlap

---- Real-time Memory Report at c_bands before calling an iterative solver
           656 MiB given to the printing process from OS
           165 MiB allocation reported by mallinfo(arena+hblkhd)
        107399 MiB available memory on the node where the printing process lives
------------------
     ethr =  3.05E-05,  avg # of iterations =  4.0

     total cpu time spent up to now is      123.5 secs

     total energy              =   -3981.52405208 Ry
     estimated scf accuracy    <       0.00882782 Ry

     total magnetization       =    -0.00 Bohr mag/cell
     absolute magnetization    =     0.05 Bohr mag/cell

     iteration #  4     ecut=    45.00 Ry     beta= 0.70
     Davidson diagonalization with overlap

---- Real-time Memory Report at c_bands before calling an iterative solver
           667 MiB given to the printing process from OS
           166 MiB allocation reported by mallinfo(arena+hblkhd)
        107440 MiB available memory on the node where the printing process lives
------------------
     ethr =  1.02E-06,  avg # of iterations =  5.5

     total cpu time spent up to now is      150.2 secs

     total energy              =   -3981.52364328 Ry
     estimated scf accuracy    <       0.00869494 Ry

     total magnetization       =     0.00 Bohr mag/cell
     absolute magnetization    =     0.02 Bohr mag/cell

     iteration #  5     ecut=    45.00 Ry     beta= 0.70
     Davidson diagonalization with overlap

---- Real-time Memory Report at c_bands before calling an iterative solver
           677 MiB given to the printing process from OS
           167 MiB allocation reported by mallinfo(arena+hblkhd)
        107386 MiB available memory on the node where the printing process lives
------------------
     ethr =  1.01E-06,  avg # of iterations =  2.0

     total cpu time spent up to now is      168.7 secs

     total energy              =   -3981.52542435 Ry
     estimated scf accuracy    <       0.00085900 Ry

     total magnetization       =    -0.00 Bohr mag/cell
     absolute magnetization    =     0.01 Bohr mag/cell

     iteration #  6     ecut=    45.00 Ry     beta= 0.70
     Davidson diagonalization with overlap

---- Real-time Memory Report at c_bands before calling an iterative solver
           686 MiB given to the printing process from OS
           168 MiB allocation reported by mallinfo(arena+hblkhd)
        107331 MiB available memory on the node where the printing process lives
------------------
     ethr =  9.94E-08,  avg # of iterations =  2.0

     total cpu time spent up to now is      187.0 secs

     total energy              =   -3981.52560319 Ry
     estimated scf accuracy    <       0.00008009 Ry

     total magnetization       =     0.00 Bohr mag/cell
     absolute magnetization    =     0.01 Bohr mag/cell

     iteration #  7     ecut=    45.00 Ry     beta= 0.70
     Davidson diagonalization with overlap

---- Real-time Memory Report at c_bands before calling an iterative solver
           696 MiB given to the printing process from OS
           169 MiB allocation reported by mallinfo(arena+hblkhd)
        107290 MiB available memory on the node where the printing process lives
------------------
     ethr =  9.27E-09,  avg # of iterations =  2.0

     total cpu time spent up to now is      205.6 secs

     total energy              =   -3981.52562206 Ry
     estimated scf accuracy    <       0.00002593 Ry

     total magnetization       =     0.00 Bohr mag/cell
     absolute magnetization    =     0.01 Bohr mag/cell

     iteration #  8     ecut=    45.00 Ry     beta= 0.70
     Davidson diagonalization with overlap

---- Real-time Memory Report at c_bands before calling an iterative solver
           703 MiB given to the printing process from OS
           170 MiB allocation reported by mallinfo(arena+hblkhd)
        107293 MiB available memory on the node where the printing process lives
------------------
     ethr =  3.00E-09,  avg # of iterations =  2.0

     total cpu time spent up to now is      223.9 secs

     total energy              =   -3981.52562707 Ry
     estimated scf accuracy    <       0.00000134 Ry

     total magnetization       =     0.00 Bohr mag/cell
     absolute magnetization    =     0.00 Bohr mag/cell

     iteration #  9     ecut=    45.00 Ry     beta= 0.70
     Davidson diagonalization with overlap

---- Real-time Memory Report at c_bands before calling an iterative solver
           707 MiB given to the printing process from OS
           171 MiB allocation reported by mallinfo(arena+hblkhd)
        107261 MiB available memory on the node where the printing process lives
------------------
     ethr =  1.55E-10,  avg # of iterations =  2.0

     total cpu time spent up to now is      242.4 secs

     total energy              =   -3981.52562742 Ry
     estimated scf accuracy    <       0.00000013 Ry

     total magnetization       =    -0.00 Bohr mag/cell
     absolute magnetization    =     0.00 Bohr mag/cell

     iteration # 10     ecut=    45.00 Ry     beta= 0.70
     Davidson diagonalization with overlap

---- Real-time Memory Report at c_bands before calling an iterative solver
           712 MiB given to the printing process from OS
           172 MiB allocation reported by mallinfo(arena+hblkhd)
        107218 MiB available memory on the node where the printing process lives
------------------
     ethr =  1.46E-11,  avg # of iterations =  2.0

     total cpu time spent up to now is      262.8 secs

     total energy              =   -3981.52562745 Ry
     estimated scf accuracy    <       0.00000002 Ry

     total magnetization       =    -0.00 Bohr mag/cell
     absolute magnetization    =     0.00 Bohr mag/cell

     iteration # 11     ecut=    45.00 Ry     beta= 0.70
     Davidson diagonalization with overlap

---- Real-time Memory Report at c_bands before calling an iterative solver
           719 MiB given to the printing process from OS
           173 MiB allocation reported by mallinfo(arena+hblkhd)
        107186 MiB available memory on the node where the printing process lives
------------------
     ethr =  2.48E-12,  avg # of iterations =  2.0
 
     Magnetic moment per site  (integrated on atomic sphere of radius R)
     atom   1 (R=0.060)  charge=  2.0154  magn= -0.0000
     atom   2 (R=0.060)  charge=  2.0154  magn= -0.0000
     atom   3 (R=0.060)  charge=  2.0154  magn=  0.0000
     atom   4 (R=0.060)  charge=  2.0154  magn=  0.0000
     atom   5 (R=0.060)  charge=  2.0154  magn=  0.0000
     atom   6 (R=0.060)  charge=  2.0154  magn= -0.0000
     atom   7 (R=0.060)  charge=  2.0154  magn= -0.0000
     atom   8 (R=0.060)  charge=  2.0154  magn= -0.0000
     atom   9 (R=0.060)  charge=  2.0154  magn=  0.0000
     atom  10 (R=0.060)  charge=  2.0154  magn= -0.0000
     atom  11 (R=0.060)  charge=  2.0154  magn=  0.0000
     atom  12 (R=0.060)  charge=  2.0154  magn=  0.0000
     atom  13 (R=0.060)  charge=  2.0154  magn= -0.0000
     atom  14 (R=0.060)  charge=  2.0154  magn=  0.0000
     atom  15 (R=0.060)  charge=  2.0154  magn=  0.0000
     atom  16 (R=0.060)  charge=  2.0154  magn= -0.0000
     atom  17 (R=0.060)  charge=  2.0154  magn= -0.0000
     atom  18 (R=0.060)  charge=  2.0154  magn=  0.0000
     atom  19 (R=0.060)  charge=  2.0154  magn= -0.0000
     atom  20 (R=0.060)  charge=  2.0154  magn=  0.0000
     atom  21 (R=0.060)  charge=  2.0154  magn= -0.0000
     atom  22 (R=0.060)  charge=  2.0154  magn=  0.0000
     atom  23 (R=0.060)  charge=  2.0154  magn= -0.0000
     atom  24 (R=0.060)  charge=  2.0154  magn= -0.0000
     atom  25 (R=0.060)  charge=  2.0154  magn=  0.0000
     atom  26 (R=0.060)  charge=  2.0154  magn= -0.0000
     atom  27 (R=0.060)  charge=  2.0154  magn=  0.0000
     atom  28 (R=0.060)  charge=  2.0154  magn= -0.0000
     atom  29 (R=0.060)  charge=  2.0154  magn=  0.0000
     atom  30 (R=0.060)  charge=  2.0154  magn=  0.0000
     atom  31 (R=0.060)  charge=  2.0154  magn= -0.0000
     atom  32 (R=0.060)  charge=  2.0154  magn=  0.0000
     atom  33 (R=0.060)  charge=  2.0154  magn=  0.0000
     atom  34 (R=0.060)  charge=  2.0154  magn=  0.0000
     atom  35 (R=0.060)  charge=  2.0154  magn= -0.0000
     atom  36 (R=0.060)  charge=  2.0154  magn= -0.0000
     atom  37 (R=0.060)  charge=  2.0154  magn=  0.0000
     atom  38 (R=0.060)  charge=  2.0154  magn= -0.0000
     atom  39 (R=0.060)  charge=  2.0154  magn= -0.0000
     atom  40 (R=0.060)  charge=  2.0154  magn= -0.0000
     atom  41 (R=0.060)  charge=  2.0154  magn= -0.0000
     atom  42 (R=0.060)  charge=  2.0154  magn= -0.0000
     atom  43 (R=0.060)  charge=  2.0154  magn= -0.0000
     atom  44 (R=0.060)  charge=  2.0154  magn=  0.0000
     atom  45 (R=0.060)  charge=  2.0154  magn=  0.0000
     atom  46 (R=0.060)  charge=  2.0154  magn= -0.0000
     atom  47 (R=0.060)  charge=  2.0154  magn= -0.0000
     atom  48 (R=0.060)  charge=  2.0154  magn= -0.0000
     atom  49 (R=0.060)  charge=  2.0154  magn=  0.0000
     atom  50 (R=0.060)  charge=  2.0154  magn= -0.0000
     atom  51 (R=0.060)  charge=  2.0154  magn=  0.0000
     atom  52 (R=0.060)  charge=  2.0154  magn= -0.0000
     atom  53 (R=0.060)  charge=  2.0154  magn=  0.0000
     atom  54 (R=0.060)  charge=  2.0154  magn=  0.0000
     atom  55 (R=0.060)  charge=  2.0154  magn=  0.0000
     atom  56 (R=0.060)  charge=  2.0154  magn= -0.0000
     atom  57 (R=0.060)  charge=  2.0154  magn=  0.0000
     atom  58 (R=0.060)  charge=  2.0154  magn=  0.0000
     atom  59 (R=0.060)  charge=  2.0154  magn=  0.0000
     atom  60 (R=0.060)  charge=  2.0154  magn= -0.0000
     atom  61 (R=0.060)  charge=  2.0154  magn= -0.0000
     atom  62 (R=0.060)  charge=  2.0154  magn=  0.0000
     atom  63 (R=0.060)  charge=  2.0154  magn=  0.0000
     atom  64 (R=0.060)  charge=  2.0154  magn= -0.0000
     atom  65 (R=0.060)  charge=  2.0154  magn=  0.0000
     atom  66 (R=0.060)  charge=  2.0154  magn=  0.0000
     atom  67 (R=0.060)  charge=  2.0154  magn=  0.0000
     atom  68 (R=0.060)  charge=  2.0154  magn= -0.0000
     atom  69 (R=0.060)  charge=  2.0154  magn=  0.0000
     atom  70 (R=0.060)  charge=  2.0154  magn= -0.0000
     atom  71 (R=0.060)  charge=  2.0154  magn= -0.0000
     atom  72 (R=0.060)  charge=  2.0154  magn= -0.0000
     atom  73 (R=0.060)  charge=  2.0154  magn=  0.0000
     atom  74 (R=0.060)  charge=  2.0154  magn=  0.0000
     atom  75 (R=0.060)  charge=  2.0154  magn= -0.0000
     atom  76 (R=0.060)  charge=  2.0154  magn=  0.0000
     atom  77 (R=0.060)  charge=  2.0154  magn= -0.0000
     atom  78 (R=0.060)  charge=  2.0154  magn=  0.0000
     atom  79 (R=0.060)  charge=  2.0154  magn= -0.0000
     atom  80 (R=0.060)  charge=  2.0154  magn=  0.0000
     atom  81 (R=0.060)  charge=  2.0154  magn=  0.0000
     atom  82 (R=0.060)  charge=  2.0154  magn=  0.0000
     atom  83 (R=0.060)  charge=  2.0154  magn=  0.0000
     atom  84 (R=0.060)  charge=  2.0154  magn= -0.0000
     atom  85 (R=0.060)  charge=  2.0154  magn= -0.0000
     atom  86 (R=0.060)  charge=  2.0154  magn=  0.0000
     atom  87 (R=0.060)  charge=  2.0154  magn= -0.0000
     atom  88 (R=0.060)  charge=  2.0154  magn=  0.0000
     atom  89 (R=0.060)  charge=  2.0154  magn=  0.0000
     atom  90 (R=0.060)  charge=  2.0154  magn=  0.0000
     atom  91 (R=0.060)  charge=  2.0154  magn=  0.0000
     atom  92 (R=0.060)  charge=  2.0154  magn=  0.0000
     atom  93 (R=0.060)  charge=  2.0154  magn= -0.0000
     atom  94 (R=0.060)  charge=  2.0154  magn=  0.0000
     atom  95 (R=0.060)  charge=  2.0154  magn=  0.0000
     atom  96 (R=0.060)  charge=  2.0154  magn= -0.0000
     atom  97 (R=0.060)  charge=  2.0154  magn=  0.0000
     atom  98 (R=0.060)  charge=  2.0154  magn= -0.0000
     atom  99 (R=0.060)  charge=  2.0154  magn=  0.0000
     atom 100 (R=0.060)  charge=  2.0154  magn= -0.0000
     atom 101 (R=0.060)  charge=  2.0154  magn= -0.0000
     atom 102 (R=0.060)  charge=  2.0154  magn=  0.0000
     atom 103 (R=0.060)  charge=  2.0154  magn=  0.0000
     atom 104 (R=0.060)  charge=  2.0154  magn= -0.0000
     atom 105 (R=0.060)  charge=  2.0154  magn=  0.0000
     atom 106 (R=0.060)  charge=  2.0154  magn=  0.0000
     atom 107 (R=0.060)  charge=  2.0154  magn=  0.0000
     atom 108 (R=0.060)  charge=  2.0154  magn= -0.0000
     atom 109 (R=0.060)  charge=  2.0170  magn=  0.0000
     atom 110 (R=0.060)  charge=  2.0170  magn=  0.0000
     atom 111 (R=0.060)  charge=  2.0170  magn= -0.0000
     atom 112 (R=0.060)  charge=  2.0170  magn=  0.0000
     atom 113 (R=0.060)  charge=  2.0170  magn= -0.0000
     atom 114 (R=0.060)  charge=  2.0170  magn=  0.0000
     atom 115 (R=0.060)  charge=  2.0170  magn= -0.0000
     atom 116 (R=0.060)  charge=  2.0170  magn= -0.0000
     atom 117 (R=0.060)  charge=  2.0170  magn= -0.0000
     atom 118 (R=0.060)  charge=  2.0170  magn=  0.0000
     atom 119 (R=0.060)  charge=  2.0170  magn= -0.0000
     atom 120 (R=0.060)  charge=  2.0170  magn=  0.0000
     atom 121 (R=0.060)  charge=  2.0170  magn= -0.0000
     atom 122 (R=0.060)  charge=  2.0170  magn=  0.0000
     atom 123 (R=0.060)  charge=  2.0170  magn= -0.0000
     atom 124 (R=0.060)  charge=  2.0170  magn=  0.0000
     atom 125 (R=0.060)  charge=  2.0170  magn=  0.0000
     atom 126 (R=0.060)  charge=  2.0170  magn= -0.0000
     atom 127 (R=0.060)  charge=  2.0170  magn=  0.0000
     atom 128 (R=0.060)  charge=  2.0170  magn=  0.0000
     atom 129 (R=0.060)  charge=  2.0170  magn=  0.0000
     atom 130 (R=0.060)  charge=  2.0170  magn= -0.0000
     atom 131 (R=0.060)  charge=  2.0170  magn=  0.0000
     atom 132 (R=0.060)  charge=  2.0170  magn=  0.0000
     atom 133 (R=0.060)  charge=  2.0170  magn=  0.0000
     atom 134 (R=0.060)  charge=  2.0170  magn= -0.0000
     atom 135 (R=0.060)  charge=  2.0170  magn= -0.0000
     atom 136 (R=0.060)  charge=  2.0170  magn=  0.0000
     atom 137 (R=0.060)  charge=  2.0170  magn= -0.0000
     atom 138 (R=0.060)  charge=  2.0170  magn=  0.0000
     atom 139 (R=0.060)  charge=  2.0170  magn=  0.0000
     atom 140 (R=0.060)  charge=  2.0170  magn= -0.0000
     atom 141 (R=0.060)  charge=  2.0170  magn= -0.0000
     atom 142 (R=0.060)  charge=  2.0170  magn= -0.0000
     atom 143 (R=0.060)  charge=  2.0170  magn=  0.0000
     atom 144 (R=0.060)  charge=  2.0170  magn=  0.0000
     atom 145 (R=0.060)  charge=  2.0170  magn= -0.0000
     atom 146 (R=0.060)  charge=  2.0170  magn=  0.0000
     atom 147 (R=0.060)  charge=  2.0170  magn=  0.0000
     atom 148 (R=0.060)  charge=  2.0170  magn=  0.0000
     atom 149 (R=0.060)  charge=  2.0170  magn=  0.0000
     atom 150 (R=0.060)  charge=  2.0170  magn=  0.0000
     atom 151 (R=0.060)  charge=  2.0170  magn=  0.0000
     atom 152 (R=0.060)  charge=  2.0170  magn= -0.0000
     atom 153 (R=0.060)  charge=  2.0170  magn=  0.0000
     atom 154 (R=0.060)  charge=  2.0170  magn= -0.0000
     atom 155 (R=0.060)  charge=  2.0170  magn=  0.0000
     atom 156 (R=0.060)  charge=  2.0170  magn=  0.0000
     atom 157 (R=0.060)  charge=  2.0170  magn=  0.0000
     atom 158 (R=0.060)  charge=  2.0170  magn=  0.0000
     atom 159 (R=0.060)  charge=  2.0170  magn=  0.0000
     atom 160 (R=0.060)  charge=  2.0170  magn= -0.0000
     atom 161 (R=0.060)  charge=  2.0170  magn= -0.0000
     atom 162 (R=0.060)  charge=  2.0170  magn= -0.0000
     atom 163 (R=0.060)  charge=  2.0170  magn= -0.0000
     atom 164 (R=0.060)  charge=  2.0170  magn= -0.0000
     atom 165 (R=0.060)  charge=  2.0170  magn=  0.0000
     atom 166 (R=0.060)  charge=  2.0170  magn= -0.0000
     atom 167 (R=0.060)  charge=  2.0170  magn= -0.0000
     atom 168 (R=0.060)  charge=  2.0170  magn=  0.0000
     atom 169 (R=0.060)  charge=  2.0170  magn=  0.0000
     atom 170 (R=0.060)  charge=  2.0170  magn= -0.0000
     atom 171 (R=0.060)  charge=  2.0170  magn= -0.0000
     atom 172 (R=0.060)  charge=  2.0170  magn=  0.0000
     atom 173 (R=0.060)  charge=  2.0170  magn=  0.0000
     atom 174 (R=0.060)  charge=  2.0170  magn= -0.0000
     atom 175 (R=0.060)  charge=  2.0170  magn=  0.0000
     atom 176 (R=0.060)  charge=  2.0170  magn=  0.0000
     atom 177 (R=0.060)  charge=  2.0170  magn= -0.0000
     atom 178 (R=0.060)  charge=  2.0170  magn=  0.0000
     atom 179 (R=0.060)  charge=  2.0170  magn= -0.0000
     atom 180 (R=0.060)  charge=  2.0170  magn= -0.0000
     atom 181 (R=0.060)  charge=  2.0170  magn=  0.0000
     atom 182 (R=0.060)  charge=  2.0170  magn= -0.0000
     atom 183 (R=0.060)  charge=  2.0170  magn=  0.0000
     atom 184 (R=0.060)  charge=  2.0170  magn= -0.0000
     atom 185 (R=0.060)  charge=  2.0170  magn=  0.0000
     atom 186 (R=0.060)  charge=  2.0170  magn= -0.0000
     atom 187 (R=0.060)  charge=  2.0170  magn=  0.0000
     atom 188 (R=0.060)  charge=  2.0170  magn= -0.0000
     atom 189 (R=0.060)  charge=  2.0170  magn=  0.0000
     atom 190 (R=0.060)  charge=  2.0170  magn= -0.0000
     atom 191 (R=0.060)  charge=  2.0170  magn= -0.0000
     atom 192 (R=0.060)  charge=  2.0170  magn=  0.0000
     atom 193 (R=0.060)  charge=  2.0170  magn=  0.0000
     atom 194 (R=0.060)  charge=  2.0170  magn= -0.0000
     atom 195 (R=0.060)  charge=  2.0170  magn=  0.0000
     atom 196 (R=0.060)  charge=  2.0170  magn= -0.0000
     atom 197 (R=0.060)  charge=  2.0170  magn=  0.0000
     atom 198 (R=0.060)  charge=  2.0170  magn=  0.0000
     atom 199 (R=0.060)  charge=  2.0170  magn= -0.0000
     atom 200 (R=0.060)  charge=  2.0170  magn= -0.0000
     atom 201 (R=0.060)  charge=  2.0170  magn=  0.0000
     atom 202 (R=0.060)  charge=  2.0170  magn=  0.0000
     atom 203 (R=0.060)  charge=  2.0170  magn= -0.0000
     atom 204 (R=0.060)  charge=  2.0170  magn=  0.0000
     atom 205 (R=0.060)  charge=  2.0170  magn= -0.0000
     atom 206 (R=0.060)  charge=  2.0170  magn= -0.0000
     atom 207 (R=0.060)  charge=  2.0170  magn= -0.0000
     atom 208 (R=0.060)  charge=  2.0170  magn=  0.0000
     atom 209 (R=0.060)  charge=  2.0170  magn=  0.0000
     atom 210 (R=0.060)  charge=  2.0170  magn= -0.0000
     atom 211 (R=0.060)  charge=  2.0170  magn=  0.0000
     atom 212 (R=0.060)  charge=  2.0170  magn= -0.0000
     atom 213 (R=0.060)  charge=  2.0170  magn= -0.0000
     atom 214 (R=0.060)  charge=  2.0170  magn= -0.0000
     atom 215 (R=0.060)  charge=  2.0170  magn= -0.0000
     atom 216 (R=0.060)  charge=  2.0170  magn=  0.0000

     total cpu time spent up to now is      281.2 secs

     End of self-consistent calculation

 ------ SPIN UP ------------


          k = 0.0000 0.0000 0.0000 ( 42379 PWs)   bands (ev):

    -8.1446  -7.1261  -7.1261  -7.1261  -7.1261  -7.1261  -7.1261  -6.1220
    -6.1220  -6.1220  -6.1220  -6.1220  -6.1220  -6.1220  -6.1220  -6.1220
    -6.1220  -6.1220  -6.1220  -5.1394  -5.1394  -5.1394  -5.1394  -5.1394
    -5.1394  -5.1394  -5.1394  -4.1377  -4.1377  -4.1377  -4.1377  -4.1377
    -4.1377  -3.2057  -3.2057  -3.2057  -3.2057  -3.2057  -3.2057  -3.2057
    -3.2057  -3.2057  -3.2057  -3.2057  -3.2057  -3.2057  -3.2057  -3.2057
    -3.2057  -3.2057  -3.2057  -3.2057  -3.2057  -3.2057  -3.2057  -3.2057
    -3.2057  -2.4141  -2.4141  -2.4141  -2.4141  -2.4141  -2.4141  -2.4141
    -2.4141  -2.4141  -2.4141  -2.4141  -2.4141  -2.4141  -2.4141  -2.4141
    -2.4141  -2.4141  -2.4141  -2.4141  -2.4141  -2.4141  -2.4141  -2.4141
    -2.4141  -0.7510  -0.7510  -0.7510  -0.7510  -0.7510  -0.7510  -0.7510
    -0.7510  -0.7510  -0.7510  -0.7510  -0.7510   0.5381   0.5381   0.5381
     0.5392   0.5392   0.5392   1.0774   1.0774   1.0774   1.0775   1.0775
     1.0775   1.0775   1.0775   1.0775   1.0775   1.0775   1.0775   1.0786
     1.0786   1.0786   1.0786   1.0786   1.0786   1.0786   1.0786   1.0786
     1.0786   1.0786   1.0786   1.2984   1.2984   1.2984   1.2984   1.2984
     1.2984   1.2984   1.2984   1.2984   1.2984   1.2984   1.2984   1.2984
     1.2984   1.2984   1.2984   1.2984   1.2984   1.2985   1.2985   1.2985
     1.2985   1.2985   1.2985   2.3620   2.3620   2.3620   2.3620   2.3620
     2.3620   2.3620   2.3620   2.3620   2.3620   2.3620   2.3620   3.9318
     3.9318   3.9318   3.9318   3.9318   3.9318   3.9318   3.9319   3.9365
     3.9365   3.9365   3.9365   3.9365   3.9365   3.9365   3.9365   3.9365
     3.9365   3.9365   3.9365   4.6000   4.6000   4.6000   4.6000   4.6000
     4.6000   4.6000   4.6000   4.6000   4.6000   4.6000   4.6000   4.6000
     4.6000   4.6000   4.6000   4.6000   4.6000   4.6000   4.6000   4.6000
     4.6000   4.6000   4.6000   5.4961   5.4961   5.4961   5.4961   5.4961
     5.4961   5.4961   5.4961   5.4961   5.4961   5.4961   5.4961   5.4962
     5.4962   5.4962   5.4962   5.4962   5.4962   5.4962   5.4962   5.4962
     5.4962   5.4962   5.4962   5.9902   5.9902   5.9902   5.9902   5.9902
     5.9902   5.9902   5.9902   5.9902   5.9902   5.9902   5.9902   5.9902
     5.9902   5.9902   5.9902   5.9902   5.9902   5.9902   5.9902   5.9902
     5.9902   5.9902   5.9902   6.1066   6.1066   6.1066   6.1066   6.1066
     6.1066   6.9985   6.9985   6.9985   6.9986   6.9986   6.9986   7.5918
     7.5918   7.5918   7.5918   7.5918   7.5918   7.5919   7.5919   7.5919
     7.5919   7.5919   7.5919   7.9835   7.9835   7.9835   7.9835   7.9835
     7.9835   7.9835   7.9835   7.9835   7.9835   7.9835   7.9835   8.3009
     8.3009   8.3009   8.3009   8.3009   8.3009   8.3009   8.3009   8.3009
     8.3009   8.3009   8.3009   8.3009   8.3009   8.3009   8.3009   8.3009
     8.3009   8.3010   8.3010   8.3010   8.3010   8.3010   8.3010   8.4849
     8.4849   8.4849   8.4849   8.4849   8.4849   8.4849   8.4849   8.4849
     8.4849   8.4849   8.4849   8.4880   8.4880   8.4880   8.4880   8.4880
     8.4880   8.4880   8.4880   8.4880   8.4880   8.4880   8.4880   8.4880
     8.4880   8.4880   8.4880   8.4880   8.4880   8.4880   8.4880   8.4880
     8.4880   8.4880   8.4880   8.6058   8.6058   8.6058   8.6058   8.6058
     8.6058   8.6059   8.6059   8.6059   8.6059   8.6059   8.6059   9.3227
     9.3227   9.3227   9.3227   9.3227   9.3227   9.3227   9.3227   9.3227
     9.3227   9.3227   9.3227   9.3228   9.3228   9.3228   9.3228   9.3228
     9.3228   9.3228   9.3228   9.3228   9.3228   9.3228   9.3228  10.7140
    10.7140  10.7140  10.7140  10.7140  10.7140  10.7140  10.7140  10.7140
    10.7140  10.7140  10.7140  10.9630  10.9630  10.9630  10.9630  10.9630
    10.9630  10.9631  10.9631  10.9631  10.9631  10.9632  10.9632  10.9632
    10.9632  10.9632  10.9632  11.0352  11.0352  11.0352  11.0352  11.0352
    11.0352  11.9029  11.9029  11.9029  11.9029  11.9029  11.9029  11.9031
    11.9031  11.9031  11.9031  11.9031  11.9031  13.2748  13.2748  13.2751
    17.4314  17.4314  17.4314  17.4314  17.4314  17.4314  18.0394  18.0394
    18.0394  18.0405  18.0405  18.0405  18.2041  18.2041  18.2041  18.2041
    18.2041  18.2041  18.8637  18.8639  18.8639  19.6257  19.6257  19.6257
    19.6257  19.6257  19.6257  19.6257  19.6257  19.6257  19.6257  19.6257
    19.6257  20.3706  20.3706  20.3706  20.3706  20.3706  20.3706  20.3706
    20.3706  20.3706  20.3706  20.3706  20.3706  20.3707  20.3707  20.3707
    20.3707  20.3707  20.3707  20.3707  20.3707  20.3707  20.3707  20.3707
    20.3707  20.8924  20.8924  20.8924  20.8924  20.8924  20.8924  20.8925
    20.8925  20.8925  20.8925  20.8925  20.8925  20.9650  20.9650  20.9650
    20.9650  20.9650  20.9650  20.9650  20.9650  20.9650  20.9650  20.9650
    20.9650  20.9651  20.9651  20.9651  20.9651  20.9651  20.9651  20.9651
    20.9651  20.9651  20.9651  20.9651  20.9651  21.0173  21.0173  21.0173
    21.0173  21.0173  21.0173  21.4886  21.4886  21.4886  21.4886  21.4886
    21.4886  21.4886  21.4886  21.4886  21.4886  21.4886  21.4886  21.4894
    21.4894  21.4894  21.4894  21.4894  21.4894  21.4894  21.4894  21.4894
    21.4894  21.4894  21.4894  21.5438  21.5438  21.5438  21.5438  21.5438
    21.5438  21.5439  21.5439  21.5439  21.5439  21.5441  21.5441  21.5441
    21.5441  21.5441  21.5441  21.8028  21.8028  21.8028  21.8028  21.8028
    21.8028  21.8028  21.8028  21.8815  21.8815  21.8815  21.8815  21.8815
    21.8815  21.8815  21.8815  21.8815  21.8815  21.8815  21.8815  22.2803
    22.2803  22.2803  22.2803  22.2803  22.2803  22.2804  22.2804  22.2804
    22.2804  22.2804  22.2804  22.6062  22.6062  22.6062  22.6062  22.6062
    22.6062  22.6064  22.6064  22.6064  22.6064  22.6064  22.6064  23.2702
    23.2702  23.2702  23.2702  23.2702  23.2702  23.2702  23.2702  23.2702
    23.2702  23.2702  23.2702  23.2703  23.2703  23.2703  23.2703  23.2703
    23.2703  23.2703  23.2703  23.2703  23.2703  23.2703  23.2703  23.9773
    23.9773  23.9773  23.9773  23.9773  23.9773  23.9773  23.9773  23.9773
    23.9773  23.9773  23.9773  23.9774  23.9774  23.9774  23.9774  23.9774
    23.9774  23.9775  23.9775  23.9775  23.9775  23.9775  23.9775  24.4529
    24.4529  24.4529  24.4529  24.4529  24.4529  24.4530  24.4530  24.4530
    24.4530  24.4530  24.4530  24.4530  24.4530  24.4530  24.4530  24.4530
    24.4530  24.4530  24.4530  24.4530  24.4530  24.4530  24.4530  24.6515
    24.6515  24.6515  24.6515  24.6515  24.6515  24.6515  24.6515  24.6515
    24.6515  24.6515  24.6515  24.6516  24.6516  24.6516  24.6516  24.6516
    24.6516  24.6516  24.6516  24.6516  24.6516  24.6516  24.6516  25.9147
    25.9147  25.9147  25.9147  25.9147  25.9147  26.1558  26.1558  26.1558
    26.1558  26.1558  26.1558  26.1559  26.1559  26.1559  26.1559  26.1559
    26.1559  26.5018  26.7649  26.7649  26.7649  26.7649  26.7649  26.7650
    26.7650  26.7650  26.7650  26.7650  26.7650  26.7650  26.9172  26.9172
    26.9172  26.9172  26.9172  26.9172  26.9173  26.9173  26.9173  26.9173
    26.9173  26.9173  27.2730  27.2730  27.2730  27.2730  27.2730  27.2730
    27.2731  27.2731  27.2731  27.2731  27.2731  27.2731  27.3884  27.3884
    27.3884  27.3884  27.3884  27.3884  27.3884  27.3884  27.3884  27.3884
    27.3884  27.3884  27.3885  27.3885  27.3885  27.3885  27.3885  27.3885
    27.3885  27.3885  27.3885  27.3885  27.3885  27.3885  27.5229  27.5229
    27.5229  27.5229  27.5229  27.5229  27.5229  27.5229  27.5229  27.5229
    27.5229  27.5229  27.5229  27.5229  27.5229  27.5229  27.5229  27.5229
    27.5230  27.5230  27.5230  27.5230  27.5230  27.5230  27.7311  27.7311
    27.7311  27.7311  27.7311  27.7311  27.7311  27.7311  27.7311  27.7311
    27.7311  27.7311  27.7316  27.7316  27.7316  27.7316  27.7316  27.7316
    27.7316  27.7316  27.7316  27.7316  27.7316  27.7316  28.1997  28.1997
    28.1997  28.1997  28.1997  28.1997  28.1997  28.1997  28.1997  28.1997
    28.1997  28.1997  28.4677  28.4677  28.4679  28.4679  28.4679  28.4679
    28.4679  28.4679  30.0133  30.0134  30.0135

     occupation numbers 
     1.0000   1.0000   1.0000   1.0000   1.0000   1.0000   1.0000   1.0000
     1.0000   1.0000   1.0000   1.0000   1.0000   1.0000   1.0000   1.0000
     1.0000   1.0000   1.0000   1.0000   1.0000   1.0000   1.0000   1.0000
     1.0000   1.0000   1.0000   1.0000   1.0000   1.0000   1.0000   1.0000
     1.0000   1.0000   1.0000   1.0000   1.0000   1.0000   1.0000   1.0000
     1.0000   1.0000   1.0000   1.0000   1.0000   1.0000   1.0000   1.0000
     1.0000   1.0000   1.0000   1.0000   1.0000   1.0000   1.0000   1.0000
     1.0000   1.0000   1.0000   1.0000   1.0000   1.0000   1.0000   1.0000
     1.0000   1.0000   1.0000   1.0000   1.0000   1.0000   1.0000   1.0000
     1.0000   1.0000   1.0000   1.0000   1.0000   1.0000   1.0000   1.0000
     1.0000   1.0000   1.0000   1.0000   1.0000   1.0000   1.0000   1.0000
     1.0000   1.0000   1.0000   1.0000   1.0000   1.0000   1.0000   1.0000
     1.0000   1.0000   1.0000   1.0000   1.0000   1.0000   1.0000   1.0000
     1.0000   1.0000   1.0000   1.0000   1.0000   1.0000   1.0000   1.0000
     1.0000   1.0000   1.0000   1.0000   1.0000   1.0000   1.0000   1.0000
     1.0000   1.0000   1.0000   1.0000   1.0000   1.0000   1.0000   1.0000
     1.0000   1.0000   1.0000   1.0000   1.0000   1.0000   1.0000   1.0000
     1.0000   1.0000   1.0000   1.0000   1.0000   1.0000   1.0000   1.0000
     1.0000   1.0000   1.0000   1.0000   1.0000   1.0000   1.0000   1.0000
     1.0000   1.0000   1.0000   1.0000   1.0000   1.0000   1.0000   1.0000
     1.0000   1.0000   1.0000   1.0000   1.0000   1.0000   1.0000   1.0000
     1.0000   1.0000   1.0000   1.0000   1.0000   1.0000   1.0000   1.0000
     1.0000   1.0000   1.0000   1.0000   1.0000   1.0000   1.0000   1.0000
     1.0000   1.0000   1.0000   1.0000   1.0000   1.0000   1.0000   1.0000
     1.0000   1.0000   1.0000   1.0000   1.0000   1.0000   1.0000   1.0000
     1.0000   1.0000   1.0000   1.0000   1.0000   1.0000   1.0000   1.0000
     1.0000   1.0000   1.0000   1.0000   1.0000   1.0000   1.0000   1.0000
     1.0000   1.0000   1.0000   1.0000   1.0000   1.0000   1.0000   1.0000
     1.0000   1.0000   1.0000   1.0000   1.0000   1.0000   1.0000   1.0000
     1.0000   1.0000   1.0000   1.0000   1.0000   1.0000   1.0000   1.0000
     1.0000   1.0000   1.0000   1.0000   1.0000   1.0000   1.0000   1.0000
     1.0000   1.0000   1.0000   1.0000   1.0000   1.0000   1.0000   1.0000
     1.0000   1.0000   1.0000   1.0000   1.0000   1.0000   1.0000   1.0000
     1.0000   1.0000   1.0000   1.0000   1.0000   1.0000   1.0000   1.0000
     1.0000   1.0000   1.0000   1.0000   1.0000   1.0000   1.0000   1.0000
     1.0000   1.0000   1.0000   1.0000   1.0000   1.0000   1.0000   1.0000
     1.0000   1.0000   1.0000   1.0000   1.0000   1.0000   1.0000   1.0000
     1.0000   1.0000   1.0000   1.0000   1.0000   1.0000   1.0000   1.0000
     1.0000   1.0000   1.0000   1.0000   1.0000   1.0000   1.0000   1.0000
     1.0000   1.0000   1.0000   1.0000   1.0000   1.0000   1.0000   1.0000
     1.0000   1.0000   1.0000   1.0000   1.0000   1.0000   1.0000   1.0000
     1.0000   1.0000   1.0000   1.0000   1.0000   1.0000   1.0000   1.0000
     1.0000   1.0000   1.0000   1.0000   1.0000   1.0000   1.0000   1.0000
     1.0000   1.0000   1.0000   1.0000   1.0000   1.0000   1.0000   1.0000
     1.0000   1.0000   1.0000   1.0000   1.0000   1.0000   1.0000   1.0000
     1.0000   1.0000   1.0000   1.0000   1.0000   1.0000   1.0000   1.0000
     1.0000   1.0000   1.0000   1.0000   1.0000   1.0000   1.0000   1.0000
     1.0000   1.0000   1.0000   1.0000   1.0000   1.0000   1.0000   1.0000
     1.0000   1.0000   1.0000   1.0000   1.0000   1.0000   1.0000   1.0000
     1.0000   1.0000   1.0000   1.0000   1.0000   1.0000   1.0000   1.0000
     1.0000   1.0000   1.0000   1.0000   1.0000   1.0000   1.0000   1.0000
     1.0000   1.0000   1.0000   1.0000   1.0000   1.0000   1.0000   1.0000
     1.0000   1.0000   1.0000   1.0000   1.0000   1.0000   1.0000   1.0000
     1.0000   1.0000   1.0000   1.0000   1.0000   1.0000   1.0000   1.0000
     0.0000   0.0000   0.0000   0.0000   0.0000   0.0000   0.0000   0.0000
     0.0000   0.0000   0.0000   0.0000   0.0000   0.0000   0.0000   0.0000
     0.0000   0.0000   0.0000   0.0000   0.0000   0.0000   0.0000   0.0000
     0.0000   0.0000   0.0000   0.0000   0.0000   0.0000   0.0000   0.0000
     0.0000   0.0000   0.0000   0.0000   0.0000   0.0000   0.0000   0.0000
     0.0000   0.0000   0.0000   0.0000   0.0000   0.0000   0.0000   0.0000
     0.0000   0.0000   0.0000   0.0000   0.0000   0.0000   0.0000   0.0000
     0.0000   0.0000   0.0000   0.0000   0.0000   0.0000   0.0000   0.0000
     0.0000   0.0000   0.0000   0.0000   0.0000   0.0000   0.0000   0.0000
     0.0000   0.0000   0.0000   0.0000   0.0000   0.0000   0.0000   0.0000
     0.0000   0.0000   0.0000   0.0000   0.0000   0.0000   0.0000   0.0000
     0.0000   0.0000   0.0000   0.0000   0.0000   0.0000   0.0000   0.0000
     0.0000   0.0000   0.0000   0.0000   0.0000   0.0000   0.0000   0.0000
     0.0000   0.0000   0.0000   0.0000   0.0000   0.0000   0.0000   0.0000
     0.0000   0.0000   0.0000   0.0000   0.0000   0.0000   0.0000   0.0000
     0.0000   0.0000   0.0000   0.0000   0.0000   0.0000   0.0000   0.0000
     0.0000   0.0000   0.0000   0.0000   0.0000   0.0000   0.0000   0.0000
     0.0000   0.0000   0.0000   0.0000   0.0000   0.0000   0.0000   0.0000
     0.0000   0.0000   0.0000   0.0000   0.0000   0.0000   0.0000   0.0000
     0.0000   0.0000   0.0000   0.0000   0.0000   0.0000   0.0000   0.0000
     0.0000   0.0000   0.0000   0.0000   0.0000   0.0000   0.0000   0.0000
     0.0000   0.0000   0.0000   0.0000   0.0000   0.0000   0.0000   0.0000
     0.0000   0.0000   0.0000   0.0000   0.0000   0.0000   0.0000   0.0000
     0.0000   0.0000   0.0000   0.0000   0.0000   0.0000   0.0000   0.0000
     0.0000   0.0000   0.0000   0.0000   0.0000   0.0000   0.0000   0.0000
     0.0000   0.0000   0.0000   0.0000   0.0000   0.0000   0.0000   0.0000
     0.0000   0.0000   0.0000   0.0000   0.0000   0.0000   0.0000   0.0000
     0.0000   0.0000   0.0000   0.0000   0.0000   0.0000   0.0000   0.0000
     0.0000   0.0000   0.0000   0.0000   0.0000   0.0000   0.0000   0.0000
     0.0000   0.0000   0.0000   0.0000   0.0000   0.0000   0.0000   0.0000
     0.0000   0.0000   0.0000   0.0000   0.0000   0.0000   0.0000   0.0000
     0.0000   0.0000   0.0000   0.0000   0.0000   0.0000   0.0000   0.0000
     0.0000   0.0000   0.0000   0.0000   0.0000   0.0000   0.0000   0.0000
     0.0000   0.0000   0.0000   0.0000   0.0000   0.0000   0.0000   0.0000
     0.0000   0.0000   0.0000   0.0000   0.0000   0.0000   0.0000   0.0000
     0.0000   0.0000   0.0000   0.0000   0.0000   0.0000   0.0000   0.0000
     0.0000   0.0000   0.0000   0.0000   0.0000   0.0000   0.0000   0.0000
     0.0000   0.0000   0.0000   0.0000   0.0000   0.0000   0.0000   0.0000
     0.0000   0.0000   0.0000   0.0000   0.0000   0.0000   0.0000   0.0000
     0.0000   0.0000   0.0000   0.0000   0.0000   0.0000   0.0000   0.0000
     0.0000   0.0000   0.0000   0.0000   0.0000   0.0000   0.0000   0.0000
     0.0000   0.0000   0.0000   0.0000   0.0000   0.0000   0.0000   0.0000
     0.0000   0.0000   0.0000   0.0000   0.0000   0.0000   0.0000   0.0000
     0.0000   0.0000   0.0000   0.0000   0.0000   0.0000   0.0000   0.0000
     0.0000   0.0000   0.0000   0.0000   0.0000   0.0000   0.0000   0.0000
     0.0000   0.0000   0.0000   0.0000   0.0000   0.0000   0.0000   0.0000
     0.0000   0.0000   0.0000   0.0000   0.0000   0.0000   0.0000   0.0000
     0.0000   0.0000   0.0000   0.0000   0.0000   0.0000   0.0000   0.0000
     0.0000   0.0000   0.0000   0.0000   0.0000   0.0000   0.0000   0.0000
     0.0000   0.0000   0.0000   0.0000   0.0000   0.0000   0.0000   0.0000
     0.0000   0.0000   0.0000   0.0000   0.0000   0.0000   0.0000   0.0000
     0.0000   0.0000   0.0000   0.0000   0.0000   0.0000   0.0000   0.0000
     0.0000   0.0000   0.0000   0.0000   0.0000   0.0000   0.0000   0.0000
     0.0000   0.0000   0.0000   0.0000   0.0000

 ------ SPIN DOWN ----------


          k = 0.0000 0.0000 0.0000 ( 42379 PWs)   bands (ev):

    -8.1446  -7.1261  -7.1261  -7.1261  -7.1261  -7.1261  -7.1261  -6.1220
    -6.1220  -6.1220  -6.1220  -6.1220  -6.1220  -6.1220  -6.1220  -6.1220
    -6.1220  -6.1220  -6.1220  -5.1394  -5.1394  -5.1394  -5.1394  -5.1394
    -5.1394  -5.1394  -5.1394  -4.1377  -4.1377  -4.1377  -4.1377  -4.1377
    -4.1377  -3.2057  -3.2057  -3.2057  -3.2057  -3.2057  -3.2057  -3.2057
    -3.2057  -3.2057  -3.2057  -3.2057  -3.2057  -3.2057  -3.2057  -3.2057
    -3.2057  -3.2057  -3.2057  -3.2057  -3.2057  -3.2057  -3.2057  -3.2057
    -3.2057  -2.4141  -2.4141  -2.4141  -2.4141  -2.4141  -2.4141  -2.4141
    -2.4141  -2.4141  -2.4141  -2.4141  -2.4141  -2.4141  -2.4141  -2.4141
    -2.4141  -2.4141  -2.4141  -2.4141  -2.4141  -2.4141  -2.4141  -2.4141
    -2.4141  -0.7510  -0.7510  -0.7510  -0.7510  -0.7510  -0.7510  -0.7510
    -0.7510  -0.7510  -0.7510  -0.7510  -0.7510   0.5381   0.5381   0.5381
     0.5392   0.5392   0.5392   1.0774   1.0774   1.0775   1.0775   1.0775
     1.0775   1.0775   1.0775   1.0775   1.0775   1.0775   1.0775   1.0786
     1.0786   1.0786   1.0786   1.0786   1.0786   1.0786   1.0786   1.0786
     1.0786   1.0786   1.0786   1.2984   1.2984   1.2984   1.2984   1.2984
     1.2984   1.2984   1.2984   1.2984   1.2984   1.2984   1.2984   1.2984
     1.2984   1.2984   1.2984   1.2984   1.2984   1.2985   1.2985   1.2985
     1.2985   1.2985   1.2985   2.3620   2.3620   2.3620   2.3620   2.3620
     2.3620   2.3620   2.3620   2.3620   2.3620   2.3620   2.3620   3.9318
     3.9318   3.9318   3.9318   3.9318   3.9318   3.9318   3.9319   3.9365
     3.9365   3.9365   3.9365   3.9365   3.9365   3.9365   3.9365   3.9365
     3.9365   3.9365   3.9365   4.6000   4.6000   4.6000   4.6000   4.6000
     4.6000   4.6000   4.6000   4.6000   4.6000   4.6000   4.6000   4.6000
     4.6000   4.6000   4.6000   4.6000   4.6000   4.6000   4.6000   4.6000
     4.6000   4.6000   4.6000   5.4961   5.4961   5.4961   5.4961   5.4961
     5.4961   5.4961   5.4961   5.4961   5.4961   5.4961   5.4961   5.4962
     5.4962   5.4962   5.4962   5.4962   5.4962   5.4962   5.4962   5.4962
     5.4962   5.4962   5.4962   5.9902   5.9902   5.9902   5.9902   5.9902
     5.9902   5.9902   5.9902   5.9902   5.9902   5.9902   5.9902   5.9902
     5.9902   5.9902   5.9902   5.9902   5.9902   5.9902   5.9902   5.9902
     5.9902   5.9902   5.9902   6.1066   6.1066   6.1066   6.1066   6.1066
     6.1066   6.9985   6.9985   6.9985   6.9986   6.9986   6.9986   7.5918
     7.5918   7.5918   7.5918   7.5918   7.5918   7.5919   7.5919   7.5919
     7.5919   7.5919   7.5919   7.9835   7.9835   7.9835   7.9835   7.9835
     7.9835   7.9835   7.9835   7.9835   7.9835   7.9835   7.9835   8.3009
     8.3009   8.3009   8.3009   8.3009   8.3009   8.3009   8.3009   8.3009
     8.3009   8.3009   8.3009   8.3009   8.3009   8.3009   8.3009   8.3009
     8.3009   8.3010   8.3010   8.3010   8.3010   8.3010   8.3010   8.4849
     8.4849   8.4849   8.4849   8.4849   8.4849   8.4849   8.4849   8.4849
     8.4849   8.4849   8.4849   8.4880   8.4880   8.4880   8.4880   8.4880
     8.4880   8.4880   8.4880   8.4880   8.4880   8.4880   8.4880   8.4880
     8.4880   8.4880   8.4880   8.4880   8.4880   8.4880   8.4880   8.4880
     8.4880   8.4880   8.4880   8.6058   8.6058   8.6058   8.6058   8.6058
     8.6058   8.6059   8.6059   8.6059   8.6059   8.6059   8.6059   9.3227
     9.3227   9.3227   9.3227   9.3227   9.3227   9.3227   9.3227   9.3227
     9.3227   9.3227   9.3227   9.3228   9.3228   9.3228   9.3228   9.3228
     9.3228   9.3228   9.3228   9.3228   9.3228   9.3228   9.3228  10.7140
    10.7140  10.7140  10.7140  10.7140  10.7140  10.7140  10.7140  10.7140
    10.7140  10.7140  10.7140  10.9630  10.9630  10.9630  10.9630  10.9630
    10.9630  10.9631  10.9631  10.9631  10.9631  10.9632  10.9632  10.9632
    10.9632  10.9632  10.9632  11.0352  11.0352  11.0352  11.0352  11.0352
    11.0352  11.9029  11.9029  11.9029  11.9029  11.9029  11.9029  11.9031
    11.9031  11.9031  11.9031  11.9031  11.9031  13.2748  13.2748  13.2751
    17.4314  17.4314  17.4314  17.4314  17.4314  17.4314  18.0394  18.0394
    18.0394  18.0405  18.0405  18.0405  18.2041  18.2041  18.2041  18.2041
    18.2041  18.2041  18.8637  18.8639  18.8639  19.6257  19.6257  19.6257
    19.6257  19.6257  19.6257  19.6257  19.6257  19.6257  19.6257  19.6257
    19.6257  20.3706  20.3706  20.3706  20.3706  20.3706  20.3706  20.3706
    20.3706  20.3706  20.3706  20.3706  20.3706  20.3707  20.3707  20.3707
    20.3707  20.3707  20.3707  20.3707  20.3707  20.3707  20.3707  20.3707
    20.3707  20.8924  20.8924  20.8924  20.8924  20.8924  20.8924  20.8925
    20.8925  20.8925  20.8925  20.8925  20.8925  20.9650  20.9650  20.9650
    20.9650  20.9650  20.9650  20.9650  20.9650  20.9650  20.9650  20.9650
    20.9650  20.9651  20.9651  20.9651  20.9651  20.9651  20.9651  20.9651
    20.9651  20.9651  20.9651  20.9651  20.9651  21.0173  21.0173  21.0173
    21.0173  21.0173  21.0173  21.4886  21.4886  21.4886  21.4886  21.4886
    21.4886  21.4886  21.4886  21.4886  21.4886  21.4886  21.4886  21.4894
    21.4894  21.4894  21.4894  21.4894  21.4894  21.4894  21.4894  21.4894
    21.4894  21.4894  21.4894  21.5438  21.5438  21.5438  21.5438  21.5438
    21.5438  21.5439  21.5439  21.5439  21.5439  21.5441  21.5441  21.5441
    21.5441  21.5441  21.5441  21.8028  21.8028  21.8028  21.8028  21.8028
    21.8028  21.8028  21.8028  21.8815  21.8815  21.8815  21.8815  21.8815
    21.8815  21.8815  21.8815  21.8815  21.8815  21.8815  21.8815  22.2803
    22.2803  22.2803  22.2803  22.2803  22.2803  22.2804  22.2804  22.2804
    22.2804  22.2804  22.2804  22.6062  22.6062  22.6062  22.6062  22.6062
    22.6062  22.6064  22.6064  22.6064  22.6064  22.6064  22.6064  23.2702
    23.2702  23.2702  23.2702  23.2702  23.2702  23.2702  23.2702  23.2702
    23.2702  23.2702  23.2702  23.2703  23.2703  23.2703  23.2703  23.2703
    23.2703  23.2703  23.2703  23.2703  23.2703  23.2703  23.2703  23.9773
    23.9773  23.9773  23.9773  23.9773  23.9773  23.9773  23.9773  23.9773
    23.9773  23.9773  23.9773  23.9774  23.9774  23.9774  23.9774  23.9774
    23.9774  23.9775  23.9775  23.9775  23.9775  23.9775  23.9775  24.4529
    24.4529  24.4529  24.4529  24.4529  24.4529  24.4530  24.4530  24.4530
    24.4530  24.4530  24.4530  24.4530  24.4530  24.4530  24.4530  24.4530
    24.4530  24.4530  24.4530  24.4530  24.4530  24.4530  24.4530  24.6515
    24.6515  24.6515  24.6515  24.6515  24.6515  24.6515  24.6515  24.6515
    24.6515  24.6515  24.6515  24.6516  24.6516  24.6516  24.6516  24.6516
    24.6516  24.6516  24.6516  24.6516  24.6516  24.6516  24.6516  25.9147
    25.9147  25.9147  25.9147  25.9147  25.9147  26.1558  26.1558  26.1558
    26.1558  26.1558  26.1558  26.1559  26.1559  26.1559  26.1559  26.1559
    26.1559  26.5018  26.7649  26.7649  26.7649  26.7649  26.7649  26.7650
    26.7650  26.7650  26.7650  26.7650  26.7650  26.7650  26.9172  26.9172
    26.9172  26.9172  26.9172  26.9172  26.9173  26.9173  26.9173  26.9173
    26.9173  26.9173  27.2730  27.2730  27.2730  27.2730  27.2730  27.2730
    27.2731  27.2731  27.2731  27.2731  27.2731  27.2731  27.3884  27.3884
    27.3884  27.3884  27.3884  27.3884  27.3884  27.3884  27.3884  27.3884
    27.3884  27.3884  27.3885  27.3885  27.3885  27.3885  27.3885  27.3885
    27.3885  27.3885  27.3885  27.3885  27.3885  27.3885  27.5229  27.5229
    27.5229  27.5229  27.5229  27.5229  27.5229  27.5229  27.5229  27.5229
    27.5229  27.5229  27.5229  27.5229  27.5229  27.5229  27.5229  27.5229
    27.5230  27.5230  27.5230  27.5230  27.5230  27.5230  27.7311  27.7311
    27.7311  27.7311  27.7311  27.7311  27.7311  27.7311  27.7311  27.7311
    27.7311  27.7311  27.7316  27.7316  27.7316  27.7316  27.7316  27.7316
    27.7316  27.7316  27.7316  27.7316  27.7316  27.7316  28.1997  28.1997
    28.1997  28.1997  28.1997  28.1997  28.1997  28.1997  28.1997  28.1997
    28.1997  28.1997  28.4677  28.4677  28.4679  28.4679  28.4679  28.4679
    28.4679  28.4679  30.0133  30.0134  30.0135

     occupation numbers 
     1.0000   1.0000   1.0000   1.0000   1.0000   1.0000   1.0000   1.0000
     1.0000   1.0000   1.0000   1.0000   1.0000   1.0000   1.0000   1.0000
     1.0000   1.0000   1.0000   1.0000   1.0000   1.0000   1.0000   1.0000
     1.0000   1.0000   1.0000   1.0000   1.0000   1.0000   1.0000   1.0000
     1.0000   1.0000   1.0000   1.0000   1.0000   1.0000   1.0000   1.0000
     1.0000   1.0000   1.0000   1.0000   1.0000   1.0000   1.0000   1.0000
     1.0000   1.0000   1.0000   1.0000   1.0000   1.0000   1.0000   1.0000
     1.0000   1.0000   1.0000   1.0000   1.0000   1.0000   1.0000   1.0000
     1.0000   1.0000   1.0000   1.0000   1.0000   1.0000   1.0000   1.0000
     1.0000   1.0000   1.0000   1.0000   1.0000   1.0000   1.0000   1.0000
     1.0000   1.0000   1.0000   1.0000   1.0000   1.0000   1.0000   1.0000
     1.0000   1.0000   1.0000   1.0000   1.0000   1.0000   1.0000   1.0000
     1.0000   1.0000   1.0000   1.0000   1.0000   1.0000   1.0000   1.0000
     1.0000   1.0000   1.0000   1.0000   1.0000   1.0000   1.0000   1.0000
     1.0000   1.0000   1.0000   1.0000   1.0000   1.0000   1.0000   1.0000
     1.0000   1.0000   1.0000   1.0000   1.0000   1.0000   1.0000   1.0000
     1.0000   1.0000   1.0000   1.0000   1.0000   1.0000   1.0000   1.0000
     1.0000   1.0000   1.0000   1.0000   1.0000   1.0000   1.0000   1.0000
     1.0000   1.0000   1.0000   1.0000   1.0000   1.0000   1.0000   1.0000
     1.0000   1.0000   1.0000   1.0000   1.0000   1.0000   1.0000   1.0000
     1.0000   1.0000   1.0000   1.0000   1.0000   1.0000   1.0000   1.0000
     1.0000   1.0000   1.0000   1.0000   1.0000   1.0000   1.0000   1.0000
     1.0000   1.0000   1.0000   1.0000   1.0000   1.0000   1.0000   1.0000
     1.0000   1.0000   1.0000   1.0000   1.0000   1.0000   1.0000   1.0000
     1.0000   1.0000   1.0000   1.0000   1.0000   1.0000   1.0000   1.0000
     1.0000   1.0000   1.0000   1.0000   1.0000   1.0000   1.0000   1.0000
     1.0000   1.0000   1.0000   1.0000   1.0000   1.0000   1.0000   1.0000
     1.0000   1.0000   1.0000   1.0000   1.0000   1.0000   1.0000   1.0000
     1.0000   1.0000   1.0000   1.0000   1.0000   1.0000   1.0000   1.0000
     1.0000   1.0000   1.0000   1.0000   1.0000   1.0000   1.0000   1.0000
     1.0000   1.0000   1.0000   1.0000   1.0000   1.0000   1.0000   1.0000
     1.0000   1.0000   1.0000   1.0000   1.0000   1.0000   1.0000   1.0000
     1.0000   1.0000   1.0000   1.0000   1.0000   1.0000   1.0000   1.0000
     1.0000   1.0000   1.0000   1.0000   1.0000   1.0000   1.0000   1.0000
     1.0000   1.0000   1.0000   1.0000   1.0000   1.0000   1.0000   1.0000
     1.0000   1.0000   1.0000   1.0000   1.0000   1.0000   1.0000   1.0000
     1.0000   1.0000   1.0000   1.0000   1.0000   1.0000   1.0000   1.0000
     1.0000   1.0000   1.0000   1.0000   1.0000   1.0000   1.0000   1.0000
     1.0000   1.0000   1.0000   1.0000   1.0000   1.0000   1.0000   1.0000
     1.0000   1.0000   1.0000   1.0000   1.0000   1.0000   1.0000   1.0000
     1.0000   1.0000   1.0000   1.0000   1.0000   1.0000   1.0000   1.0000
     1.0000   1.0000   1.0000   1.0000   1.0000   1.0000   1.0000   1.0000
     1.0000   1.0000   1.0000   1.0000   1.0000   1.0000   1.0000   1.0000
     1.0000   1.0000   1.0000   1.0000   1.0000   1.0000   1.0000   1.0000
     1.0000   1.0000   1.0000   1.0000   1.0000   1.0000   1.0000   1.0000
     1.0000   1.0000   1.0000   1.0000   1.0000   1.0000   1.0000   1.0000
     1.0000   1.0000   1.0000   1.0000   1.0000   1.0000   1.0000   1.0000
     1.0000   1.0000   1.0000   1.0000   1.0000   1.0000   1.0000   1.0000
     1.0000   1.0000   1.0000   1.0000   1.0000   1.0000   1.0000   1.0000
     1.0000   1.0000   1.0000   1.0000   1.0000   1.0000   1.0000   1.0000
     1.0000   1.0000   1.0000   1.0000   1.0000   1.0000   1.0000   1.0000
     1.0000   1.0000   1.0000   1.0000   1.0000   1.0000   1.0000   1.0000
     1.0000   1.0000   1.0000   1.0000   1.0000   1.0000   1.0000   1.0000
     1.0000   1.0000   1.0000   1.0000   1.0000   1.0000   1.0000   1.0000
     0.0000   0.0000   0.0000   0.0000   0.0000   0.0000   0.0000   0.0000
     0.0000   0.0000   0.0000   0.0000   0.0000   0.0000   0.0000   0.0000
     0.0000   0.0000   0.0000   0.0000   0.0000   0.0000   0.0000   0.0000
     0.0000   0.0000   0.0000   0.0000   0.0000   0.0000   0.0000   0.0000
     0.0000   0.0000   0.0000   0.0000   0.0000   0.0000   0.0000   0.0000
     0.0000   0.0000   0.0000   0.0000   0.0000   0.0000   0.0000   0.0000
     0.0000   0.0000   0.0000   0.0000   0.0000   0.0000   0.0000   0.0000
     0.0000   0.0000   0.0000   0.0000   0.0000   0.0000   0.0000   0.0000
     0.0000   0.0000   0.0000   0.0000   0.0000   0.0000   0.0000   0.0000
     0.0000   0.0000   0.0000   0.0000   0.0000   0.0000   0.0000   0.0000
     0.0000   0.0000   0.0000   0.0000   0.0000   0.0000   0.0000   0.0000
     0.0000   0.0000   0.0000   0.0000   0.0000   0.0000   0.0000   0.0000
     0.0000   0.0000   0.0000   0.0000   0.0000   0.0000   0.0000   0.0000
     0.0000   0.0000   0.0000   0.0000   0.0000   0.0000   0.0000   0.0000
     0.0000   0.0000   0.0000   0.0000   0.0000   0.0000   0.0000   0.0000
     0.0000   0.0000   0.0000   0.0000   0.0000   0.0000   0.0000   0.0000
     0.0000   0.0000   0.0000   0.0000   0.0000   0.0000   0.0000   0.0000
     0.0000   0.0000   0.0000   0.0000   0.0000   0.0000   0.0000   0.0000
     0.0000   0.0000   0.0000   0.0000   0.0000   0.0000   0.0000   0.0000
     0.0000   0.0000   0.0000   0.0000   0.0000   0.0000   0.0000   0.0000
     0.0000   0.0000   0.0000   0.0000   0.0000   0.0000   0.0000   0.0000
     0.0000   0.0000   0.0000   0.0000   0.0000   0.0000   0.0000   0.0000
     0.0000   0.0000   0.0000   0.0000   0.0000   0.0000   0.0000   0.0000
     0.0000   0.0000   0.0000   0.0000   0.0000   0.0000   0.0000   0.0000
     0.0000   0.0000   0.0000   0.0000   0.0000   0.0000   0.0000   0.0000
     0.0000   0.0000   0.0000   0.0000   0.0000   0.0000   0.0000   0.0000
     0.0000   0.0000   0.0000   0.0000   0.0000   0.0000   0.0000   0.0000
     0.0000   0.0000   0.0000   0.0000   0.0000   0.0000   0.0000   0.0000
     0.0000   0.0000   0.0000   0.0000   0.0000   0.0000   0.0000   0.0000
     0.0000   0.0000   0.0000   0.0000   0.0000   0.0000   0.0000   0.0000
     0.0000   0.0000   0.0000   0.0000   0.0000   0.0000   0.0000   0.0000
     0.0000   0.0000   0.0000   0.0000   0.0000   0.0000   0.0000   0.0000
     0.0000   0.0000   0.0000   0.0000   0.0000   0.0000   0.0000   0.0000
     0.0000   0.0000   0.0000   0.0000   0.0000   0.0000   0.0000   0.0000
     0.0000   0.0000   0.0000   0.0000   0.0000   0.0000   0.0000   0.0000
     0.0000   0.0000   0.0000   0.0000   0.0000   0.0000   0.0000   0.0000
     0.0000   0.0000   0.0000   0.0000   0.0000   0.0000   0.0000   0.0000
     0.0000   0.0000   0.0000   0.0000   0.0000   0.0000   0.0000   0.0000
     0.0000   0.0000   0.0000   0.0000   0.0000   0.0000   0.0000   0.0000
     0.0000   0.0000   0.0000   0.0000   0.0000   0.0000   0.0000   0.0000
     0.0000   0.0000   0.0000   0.0000   0.0000   0.0000   0.0000   0.0000
     0.0000   0.0000   0.0000   0.0000   0.0000   0.0000   0.0000   0.0000
     0.0000   0.0000   0.0000   0.0000   0.0000   0.0000   0.0000   0.0000
     0.0000   0.0000   0.0000   0.0000   0.0000   0.0000   0.0000   0.0000
     0.0000   0.0000   0.0000   0.0000   0.0000   0.0000   0.0000   0.0000
     0.0000   0.0000   0.0000   0.0000   0.0000   0.0000   0.0000   0.0000
     0.0000   0.0000   0.0000   0.0000   0.0000   0.0000   0.0000   0.0000
     0.0000   0.0000   0.0000   0.0000   0.0000   0.0000   0.0000   0.0000
     0.0000   0.0000   0.0000   0.0000   0.0000   0.0000   0.0000   0.0000
     0.0000   0.0000   0.0000   0.0000   0.0000   0.0000   0.0000   0.0000
     0.0000   0.0000   0.0000   0.0000   0.0000   0.0000   0.0000   0.0000
     0.0000   0.0000   0.0000   0.0000   0.0000   0.0000   0.0000   0.0000
     0.0000   0.0000   0.0000   0.0000   0.0000   0.0000   0.0000   0.0000
     0.0000   0.0000   0.0000   0.0000   0.0000

     highest occupied, lowest unoccupied level (ev):    13.27505581   17.43142992

!    total energy              =   -3981.52562746 Ry
     total all-electron energy =    -16458.570626 Ry
     estimated scf accuracy    <          1.1E-09 Ry

     The total energy is the sum of the following terms:
     one-electron contribution =     908.96270873 Ry
     hartree contribution      =     210.34667241 Ry
     xc contribution           =   -1011.89915208 Ry
     ewald contribution        =   -2757.84009794 Ry
     one-center paw contrib.   =   -1331.09575858 Ry
      -> PAW hartree energy AE =      62.81117960 Ry
      -> PAW hartree energy PS =     -62.75412530 Ry
      -> PAW xc energy AE      =     -73.79611753 Ry
      -> PAW xc energy PS      =      30.60162876 Ry
      -> total E_H with PAW    =     210.40372671 Ry
      -> total E_XC with PAW   =   -1055.09364084 Ry

     total magnetization       =     0.00 Bohr mag/cell
     absolute magnetization    =     0.00 Bohr mag/cell

     convergence has been achieved in  11 iterations

     Forces acting on atoms (cartesian axes, Ry/au):

     atom    1 type  1   force =     0.00000253   -0.00000370   -0.00000157
     atom    2 type  1   force =     0.00000218   -0.00000337   -0.00000069
     atom    3 type  1   force =     0.00000139   -0.00000275   -0.00000184
     atom    4 type  1   force =     0.00000134   -0.00000265   -0.00000133
     atom    5 type  1   force =     0.00000258   -0.00000307   -0.00000124
     atom    6 type  1   force =     0.00000274   -0.00000392   -0.00000111
     atom    7 type  1   force =     0.00000197   -0.00000325   -0.00000094
     atom    8 type  1   force =     0.00000144   -0.00000398   -0.00000122
     atom    9 type  1   force =     0.00000234   -0.00000263   -0.00000122
     atom   10 type  1   force =     0.00000186   -0.00000261   -0.00000143
     atom   11 type  1   force =     0.00000181   -0.00000327   -0.00000125
     atom   12 type  1   force =     0.00000238   -0.00000369   -0.00000092
     atom   13 type  1   force =     0.00000245   -0.00000317   -0.00000041
     atom   14 type  1   force =     0.00000229   -0.00000352   -0.00000176
     atom   15 type  1   force =     0.00000128   -0.00000339   -0.00000141
     atom   16 type  1   force =     0.00000206   -0.00000432   -0.00000142
     atom   17 type  1   force =     0.00000223   -0.00000274   -0.00000124
     atom   18 type  1   force =     0.00000193   -0.00000283   -0.00000115
     atom   19 type  1   force =     0.00000202   -0.00000268   -0.00000148
     atom   20 type  1   force =     0.00000233   -0.00000335   -0.00000127
     atom   21 type  1   force =     0.00000214   -0.00000347   -0.00000099
     atom   22 type  1   force =     0.00000268   -0.00000385   -0.00000136
     atom   23 type  1   force =     0.00000121   -0.00000293   -0.00000113
     atom   24 type  1   force =     0.00000232   -0.00000281   -0.00000140
     atom   25 type  1   force =     0.00000233   -0.00000323   -0.00000143
     atom   26 type  1   force =     0.00000242   -0.00000325   -0.00000146
     atom   27 type  1   force =     0.00000185   -0.00000378   -0.00000161
     atom   28 type  1   force =     0.00000142   -0.00000295   -0.00000140
     atom   29 type  1   force =     0.00000178   -0.00000326   -0.00000095
     atom   30 type  1   force =     0.00000228   -0.00000347   -0.00000057
     atom   31 type  1   force =     0.00000132   -0.00000325   -0.00000073
     atom   32 type  1   force =     0.00000275   -0.00000312   -0.00000142
     atom   33 type  1   force =     0.00000173   -0.00000328   -0.00000157
     atom   34 type  1   force =     0.00000229   -0.00000357   -0.00000150
     atom   35 type  1   force =     0.00000111   -0.00000361   -0.00000101
     atom   36 type  1   force =     0.00000261   -0.00000303   -0.00000105
     atom   37 type  1   force =     0.00000229   -0.00000328   -0.00000098
     atom   38 type  1   force =     0.00000182   -0.00000358   -0.00000147
     atom   39 type  1   force =     0.00000227   -0.00000274   -0.00000138
     atom   40 type  1   force =     0.00000323   -0.00000404   -0.00000104
     atom   41 type  1   force =     0.00000186   -0.00000226   -0.00000084
     atom   42 type  1   force =     0.00000095   -0.00000352   -0.00000143
     atom   43 type  1   force =     0.00000147   -0.00000317   -0.00000184
     atom   44 type  1   force =     0.00000194   -0.00000327   -0.00000148
     atom   45 type  1   force =     0.00000250   -0.00000341   -0.00000096
     atom   46 type  1   force =     0.00000149   -0.00000315   -0.00000187
     atom   47 type  1   force =     0.00000296   -0.00000295   -0.00000097
     atom   48 type  1   force =     0.00000204   -0.00000353   -0.00000105
     atom   49 type  1   force =     0.00000202   -0.00000285   -0.00000117
     atom   50 type  1   force =     0.00000165   -0.00000342   -0.00000151
     atom   51 type  1   force =     0.00000271   -0.00000392   -0.00000158
     atom   52 type  1   force =     0.00000250   -0.00000321   -0.00000031
     atom   53 type  1   force =     0.00000249   -0.00000365   -0.00000172
     atom   54 type  1   force =     0.00000141   -0.00000279   -0.00000146
     atom   55 type  1   force =     0.00000183   -0.00000321   -0.00000084
     atom   56 type  1   force =     0.00000117   -0.00000314   -0.00000086
     atom   57 type  1   force =     0.00000241   -0.00000385   -0.00000179
     atom   58 type  1   force =     0.00000238   -0.00000313   -0.00000144
     atom   59 type  1   force =     0.00000173   -0.00000318   -0.00000144
     atom   60 type  1   force =     0.00000143   -0.00000282   -0.00000056
     atom   61 type  1   force =     0.00000174   -0.00000340   -0.00000160
     atom   62 type  1   force =     0.00000293   -0.00000323   -0.00000077
     atom   63 type  1   force =     0.00000140   -0.00000313   -0.00000137
     atom   64 type  1   force =     0.00000193   -0.00000330   -0.00000144
     atom   65 type  1   force =     0.00000193   -0.00000336   -0.00000148
     atom   66 type  1   force =     0.00000240   -0.00000286   -0.00000124
     atom   67 type  1   force =     0.00000233   -0.00000396   -0.00000124
     atom   68 type  1   force =     0.00000147   -0.00000287   -0.00000146
     atom   69 type  1   force =     0.00000260   -0.00000304   -0.00000112
     atom   70 type  1   force =     0.00000197   -0.00000277   -0.00000085
     atom   71 type  1   force =     0.00000237   -0.00000340   -0.00000090
     atom   72 type  1   force =     0.00000148   -0.00000378   -0.00000180
     atom   73 type  1   force =     0.00000272   -0.00000285   -0.00000083
     atom   74 type  1   force =     0.00000225   -0.00000289   -0.00000197
     atom   75 type  1   force =     0.00000144   -0.00000378   -0.00000069
     atom   76 type  1   force =     0.00000128   -0.00000312   -0.00000138
     atom   77 type  1   force =     0.00000202   -0.00000320   -0.00000135
     atom   78 type  1   force =     0.00000293   -0.00000352   -0.00000158
     atom   79 type  1   force =     0.00000181   -0.00000320   -0.00000162
     atom   80 type  1   force =     0.00000191   -0.00000384   -0.00000159
     atom   81 type  1   force =     0.00000231   -0.00000283   -0.00000094
     atom   82 type  1   force =     0.00000247   -0.00000317   -0.00000132
     atom   83 type  1   force =     0.00000222   -0.00000233   -0.00000132
     atom   84 type  1   force =     0.00000204   -0.00000423   -0.00000163
     atom   85 type  1   force =     0.00000150   -0.00000334   -0.00000156
     atom   86 type  1   force =     0.00000262   -0.00000362   -0.00000111
     atom   87 type  1   force =     0.00000205   -0.00000272   -0.00000095
     atom   88 type  1   force =     0.00000198   -0.00000377   -0.00000101
     atom   89 type  1   force =     0.00000106   -0.00000298   -0.00000152
     atom   90 type  1   force =     0.00000270   -0.00000280   -0.00000118
     atom   91 type  1   force =     0.00000217   -0.00000370   -0.00000145
     atom   92 type  1   force =     0.00000189   -0.00000324   -0.00000158
     atom   93 type  1   force =     0.00000181   -0.00000268   -0.00000053
     atom   94 type  1   force =     0.00000306   -0.00000362   -0.00000133
     atom   95 type  1   force =     0.00000168   -0.00000324   -0.00000099
     atom   96 type  1   force =     0.00000089   -0.00000318   -0.00000168
     atom   97 type  1   force =     0.00000165   -0.00000263   -0.00000093
     atom   98 type  1   force =     0.00000251   -0.00000311   -0.00000117
     atom   99 type  1   force =     0.00000220   -0.00000381   -0.00000142
     atom  100 type  1   force =     0.00000154   -0.00000356   -0.00000132
     atom  101 type  1   force =     0.00000199   -0.00000315   -0.00000111
     atom  102 type  1   force =     0.00000276   -0.00000271   -0.00000124
     atom  103 type  1   force =     0.00000181   -0.00000249   -0.00000092
     atom  104 type  1   force =     0.00000142   -0.00000353   -0.00000147
     atom  105 type  1   force =     0.00000296   -0.00000369   -0.00000181
     atom  106 type  1   force =     0.00000229   -0.00000320   -0.00000179
     atom  107 type  1   force =     0.00000276   -0.00000349   -0.00000153
     atom  108 type  1   force =     0.00000148   -0.00000348   -0.00000088
     atom  109 type  1   force =    -0.00000168    0.00000338    0.00000134
     atom  110 type  1   force =    -0.00000272    0.00000362    0.00000179
     atom  111 type  1   force =    -0.00000164    0.00000260    0.00000046
     atom  112 type  1   force =    -0.00000247    0.00000369    0.00000122
     atom  113 type  1   force =    -0.00000103    0.00000328    0.00000110
     atom  114 type  1   force =    -0.00000241    0.00000317    0.00000180
     atom  115 type  1   force =    -0.00000210    0.00000286    0.00000129
     atom  116 type  1   force =    -0.00000286    0.00000281    0.00000138
     atom  117 type  1   force =    -0.00000130    0.00000359    0.00000091
     atom  118 type  1   force =    -0.00000245    0.00000345    0.00000107
     atom  119 type  1   force =    -0.00000199    0.00000310    0.00000090
     atom  120 type  1   force =    -0.00000150    0.00000334    0.00000158
     atom  121 type  1   force =    -0.00000088    0.00000266    0.00000124
     atom  122 type  1   force =    -0.00000258    0.00000357    0.00000103
     atom  123 type  1   force =    -0.00000305    0.00000356    0.00000128
     atom  124 type  1   force =    -0.00000239    0.00000331    0.00000159
     atom  125 type  1   force =    -0.00000212    0.00000341    0.00000183
     atom  126 type  1   force =    -0.00000192    0.00000297    0.00000107
     atom  127 type  1   force =    -0.00000222    0.00000329    0.00000116
     atom  128 type  1   force =    -0.00000130    0.00000315    0.00000094
     atom  129 type  1   force =    -0.00000272    0.00000311    0.00000157
     atom  130 type  1   force =    -0.00000249    0.00000327    0.00000102
     atom  131 type  1   force =    -0.00000212    0.00000378    0.00000119
     atom  132 type  1   force =    -0.00000105    0.00000276    0.00000136
     atom  133 type  1   force =    -0.00000147    0.00000354    0.00000110
     atom  134 type  1   force =    -0.00000197    0.00000306    0.00000064
     atom  135 type  1   force =    -0.00000214    0.00000340    0.00000136
     atom  136 type  1   force =    -0.00000192    0.00000340    0.00000135
     atom  137 type  1   force =    -0.00000263    0.00000282    0.00000096
     atom  138 type  1   force =    -0.00000203    0.00000319    0.00000202
     atom  139 type  1   force =    -0.00000204    0.00000236    0.00000137
     atom  140 type  1   force =    -0.00000096    0.00000336    0.00000155
     atom  141 type  1   force =    -0.00000271    0.00000395    0.00000092
     atom  142 type  1   force =    -0.00000266    0.00000361    0.00000125
     atom  143 type  1   force =    -0.00000271    0.00000357    0.00000136
     atom  144 type  1   force =    -0.00000126    0.00000301    0.00000129
     atom  145 type  1   force =    -0.00000204    0.00000280    0.00000102
     atom  146 type  1   force =    -0.00000228    0.00000327    0.00000125
     atom  147 type  1   force =    -0.00000163    0.00000392    0.00000122
     atom  148 type  1   force =    -0.00000146    0.00000375    0.00000141
     atom  149 type  1   force =    -0.00000212    0.00000362    0.00000134
     atom  150 type  1   force =    -0.00000218    0.00000260    0.00000126
     atom  151 type  1   force =    -0.00000240    0.00000377    0.00000128
     atom  152 type  1   force =    -0.00000203    0.00000296    0.00000102
     atom  153 type  1   force =    -0.00000204    0.00000271    0.00000140
     atom  154 type  1   force =    -0.00000239    0.00000313    0.00000058
     atom  155 type  1   force =    -0.00000177    0.00000393    0.00000149
     atom  156 type  1   force =    -0.00000216    0.00000249    0.00000142
     atom  157 type  1   force =    -0.00000282    0.00000343    0.00000147
     atom  158 type  1   force =    -0.00000238    0.00000309    0.00000096
     atom  159 type  1   force =    -0.00000150    0.00000360    0.00000168
     atom  160 type  1   force =    -0.00000100    0.00000302    0.00000187
     atom  161 type  1   force =    -0.00000220    0.00000322    0.00000099
     atom  162 type  1   force =    -0.00000268    0.00000369    0.00000108
     atom  163 type  1   force =    -0.00000256    0.00000350    0.00000152
     atom  164 type  1   force =    -0.00000205    0.00000307    0.00000147
     atom  165 type  1   force =    -0.00000203    0.00000347    0.00000132
     atom  166 type  1   force =    -0.00000119    0.00000300    0.00000132
     atom  167 type  1   force =    -0.00000248    0.00000270    0.00000076
     atom  168 type  1   force =    -0.00000260    0.00000386    0.00000191
     atom  169 type  1   force =    -0.00000231    0.00000346    0.00000076
     atom  170 type  1   force =    -0.00000162    0.00000381    0.00000172
     atom  171 type  1   force =    -0.00000225    0.00000245    0.00000075
     atom  172 type  1   force =    -0.00000220    0.00000291    0.00000146
     atom  173 type  1   force =    -0.00000157    0.00000283    0.00000107
     atom  174 type  1   force =    -0.00000248    0.00000396    0.00000101
     atom  175 type  1   force =    -0.00000250    0.00000337    0.00000130
     atom  176 type  1   force =    -0.00000232    0.00000393    0.00000144
     atom  177 type  1   force =    -0.00000099    0.00000287    0.00000110
     atom  178 type  1   force =    -0.00000196    0.00000354    0.00000125
     atom  179 type  1   force =    -0.00000207    0.00000301    0.00000153
     atom  180 type  1   force =    -0.00000224    0.00000298    0.00000112
     atom  181 type  1   force =    -0.00000086    0.00000299    0.00000154
     atom  182 type  1   force =    -0.00000257    0.00000410    0.00000109
     atom  183 type  1   force =    -0.00000237    0.00000243    0.00000118
     atom  184 type  1   force =    -0.00000250    0.00000358    0.00000145
     atom  185 type  1   force =    -0.00000143    0.00000295    0.00000114
     atom  186 type  1   force =    -0.00000236    0.00000347    0.00000137
     atom  187 type  1   force =    -0.00000235    0.00000264    0.00000110
     atom  188 type  1   force =    -0.00000263    0.00000324    0.00000100
     atom  189 type  1   force =    -0.00000141    0.00000368    0.00000186
     atom  190 type  1   force =    -0.00000158    0.00000366    0.00000173
     atom  191 type  1   force =    -0.00000237    0.00000304    0.00000105
     atom  192 type  1   force =    -0.00000216    0.00000325    0.00000122
     atom  193 type  1   force =    -0.00000232    0.00000328    0.00000114
     atom  194 type  1   force =    -0.00000110    0.00000319    0.00000090
     atom  195 type  1   force =    -0.00000247    0.00000372    0.00000169
     atom  196 type  1   force =    -0.00000222    0.00000317    0.00000155
     atom  197 type  1   force =    -0.00000298    0.00000333    0.00000106
     atom  198 type  1   force =    -0.00000098    0.00000290    0.00000113
     atom  199 type  1   force =    -0.00000223    0.00000273    0.00000112
     atom  200 type  1   force =    -0.00000211    0.00000335    0.00000090
     atom  201 type  1   force =    -0.00000161    0.00000370    0.00000159
     atom  202 type  1   force =    -0.00000187    0.00000367    0.00000138
     atom  203 type  1   force =    -0.00000254    0.00000333    0.00000187
     atom  204 type  1   force =    -0.00000219    0.00000270    0.00000073
     atom  205 type  1   force =    -0.00000210    0.00000317    0.00000130
     atom  206 type  1   force =    -0.00000160    0.00000326    0.00000147
     atom  207 type  1   force =    -0.00000225    0.00000334    0.00000135
     atom  208 type  1   force =    -0.00000256    0.00000272    0.00000134
     atom  209 type  1   force =    -0.00000177    0.00000370    0.00000180
     atom  210 type  1   force =    -0.00000180    0.00000303    0.00000068
     atom  211 type  1   force =    -0.00000222    0.00000344    0.00000092
     atom  212 type  1   force =    -0.00000190    0.00000303    0.00000094
     atom  213 type  1   force =    -0.00000131    0.00000339    0.00000142
     atom  214 type  1   force =    -0.00000107    0.00000334    0.00000086
     atom  215 type  1   force =    -0.00000204    0.00000332    0.00000099
     atom  216 type  1   force =    -0.00000287    0.00000307    0.00000165
     The non-local contrib.  to forces
     atom    1 type  1   force =    -0.00000374    0.00000556    0.00000140
     atom    2 type  1   force =    -0.00000496    0.00000576    0.00000172
     atom    3 type  1   force =    -0.00000326    0.00000676    0.00000340
     atom    4 type  1   force =    -0.00000341    0.00000570    0.00000272
     atom    5 type  1   force =    -0.00000365    0.00000613    0.00000137
     atom    6 type  1   force =    -0.00000381    0.00000570    0.00000273
     atom    7 type  1   force =    -0.00000556    0.00000658    0.00000179
     atom    8 type  1   force =    -0.00000206    0.00000546    0.00000188
     atom    9 type  1   force =    -0.00000230    0.00000565    0.00000194
     atom   10 type  1   force =    -0.00000384    0.00000541    0.00000159
     atom   11 type  1   force =    -0.00000463    0.00000593    0.00000289
     atom   12 type  1   force =    -0.00000299    0.00000652    0.00000230
     atom   13 type  1   force =    -0.00000409    0.00000662    0.00000337
     atom   14 type  1   force =    -0.00000376    0.00000571    0.00000179
     atom   15 type  1   force =    -0.00000287    0.00000509    0.00000144
     atom   16 type  1   force =    -0.00000305    0.00000664    0.00000174
     atom   17 type  1   force =    -0.00000292    0.00000520    0.00000232
     atom   18 type  1   force =    -0.00000467    0.00000565    0.00000238
     atom   19 type  1   force =    -0.00000247    0.00000680    0.00000275
     atom   20 type  1   force =    -0.00000297    0.00000595    0.00000280
     atom   21 type  1   force =    -0.00000435    0.00000561    0.00000236
     atom   22 type  1   force =    -0.00000535    0.00000508    0.00000211
     atom   23 type  1   force =    -0.00000325    0.00000578    0.00000270
     atom   24 type  1   force =    -0.00000380    0.00000648    0.00000173
     atom   25 type  1   force =    -0.00000396    0.00000508    0.00000225
     atom   26 type  1   force =    -0.00000497    0.00000645    0.00000286
     atom   27 type  1   force =    -0.00000354    0.00000553    0.00000232
     atom   28 type  1   force =    -0.00000259    0.00000552    0.00000229
     atom   29 type  1   force =    -0.00000436    0.00000656    0.00000075
     atom   30 type  1   force =    -0.00000358    0.00000580    0.00000282
     atom   31 type  1   force =    -0.00000404    0.00000718    0.00000197
     atom   32 type  1   force =    -0.00000357    0.00000548    0.00000212
     atom   33 type  1   force =    -0.00000469    0.00000505    0.00000177
     atom   34 type  1   force =    -0.00000456    0.00000541    0.00000155
     atom   35 type  1   force =    -0.00000291    0.00000538    0.00000304
     atom   36 type  1   force =    -0.00000291    0.00000648    0.00000327
     atom   37 type  1   force =    -0.00000525    0.00000562    0.00000351
     atom   38 type  1   force =    -0.00000327    0.00000542    0.00000200
     atom   39 type  1   force =    -0.00000339    0.00000643    0.00000172
     atom   40 type  1   force =    -0.00000364    0.00000546    0.00000193
     atom   41 type  1   force =    -0.00000329    0.00000497    0.00000221
     atom   42 type  1   force =    -0.00000342    0.00000625    0.00000252
     atom   43 type  1   force =    -0.00000294    0.00000566    0.00000091
     atom   44 type  1   force =    -0.00000310    0.00000678    0.00000231
     atom   45 type  1   force =    -0.00000452    0.00000577    0.00000219
     atom   46 type  1   force =    -0.00000259    0.00000678    0.00000162
     atom   47 type  1   force =    -0.00000284    0.00000627    0.00000285
     atom   48 type  1   force =    -0.00000475    0.00000511    0.00000217
     atom   49 type  1   force =    -0.00000417    0.00000548    0.00000220
     atom   50 type  1   force =    -0.00000376    0.00000592    0.00000229
     atom   51 type  1   force =    -0.00000359    0.00000573    0.00000182
     atom   52 type  1   force =    -0.00000330    0.00000707    0.00000262
     atom   53 type  1   force =    -0.00000525    0.00000570    0.00000278
     atom   54 type  1   force =    -0.00000326    0.00000476    0.00000201
     atom   55 type  1   force =    -0.00000415    0.00000459    0.00000159
     atom   56 type  1   force =    -0.00000276    0.00000696    0.00000260
     atom   57 type  1   force =    -0.00000322    0.00000553    0.00000238
     atom   58 type  1   force =    -0.00000306    0.00000706    0.00000213
     atom   59 type  1   force =    -0.00000442    0.00000633    0.00000234
     atom   60 type  1   force =    -0.00000302    0.00000459    0.00000201
     atom   61 type  1   force =    -0.00000274    0.00000559    0.00000265
     atom   62 type  1   force =    -0.00000319    0.00000566    0.00000267
     atom   63 type  1   force =    -0.00000576    0.00000599    0.00000238
     atom   64 type  1   force =    -0.00000422    0.00000643    0.00000193
     atom   65 type  1   force =    -0.00000325    0.00000623    0.00000247
     atom   66 type  1   force =    -0.00000413    0.00000668    0.00000236
     atom   67 type  1   force =    -0.00000430    0.00000493    0.00000273
     atom   68 type  1   force =    -0.00000303    0.00000594    0.00000214
     atom   69 type  1   force =    -0.00000337    0.00000570    0.00000302
     atom   70 type  1   force =    -0.00000230    0.00000510    0.00000152
     atom   71 type  1   force =    -0.00000439    0.00000654    0.00000154
     atom   72 type  1   force =    -0.00000328    0.00000539    0.00000290
     atom   73 type  1   force =    -0.00000282    0.00000617    0.00000305
     atom   74 type  1   force =    -0.00000455    0.00000497    0.00000260
     atom   75 type  1   force =    -0.00000283    0.00000650    0.00000208
     atom   76 type  1   force =    -0.00000301    0.00000552    0.00000191
     atom   77 type  1   force =    -0.00000401    0.00000504    0.00000300
     atom   78 type  1   force =    -0.00000382    0.00000673    0.00000125
     atom   79 type  1   force =    -0.00000508    0.00000644    0.00000291
     atom   80 type  1   force =    -0.00000334    0.00000552    0.00000221
     atom   81 type  1   force =    -0.00000312    0.00000516    0.00000178
     atom   82 type  1   force =    -0.00000278    0.00000590    0.00000181
     atom   83 type  1   force =    -0.00000389    0.00000575    0.00000294
     atom   84 type  1   force =    -0.00000394    0.00000588    0.00000309
     atom   85 type  1   force =    -0.00000302    0.00000555    0.00000264
     atom   86 type  1   force =    -0.00000319    0.00000537    0.00000256
     atom   87 type  1   force =    -0.00000381    0.00000497    0.00000154
     atom   88 type  1   force =    -0.00000472    0.00000566    0.00000173
     atom   89 type  1   force =    -0.00000220    0.00000659    0.00000169
     atom   90 type  1   force =    -0.00000406    0.00000650    0.00000235
     atom   91 type  1   force =    -0.00000457    0.00000643    0.00000250
     atom   92 type  1   force =    -0.00000365    0.00000563    0.00000191
     atom   93 type  1   force =    -0.00000271    0.00000522    0.00000265
     atom   94 type  1   force =    -0.00000284    0.00000596    0.00000207
     atom   95 type  1   force =    -0.00000477    0.00000530    0.00000197
     atom   96 type  1   force =    -0.00000314    0.00000589    0.00000240
     atom   97 type  1   force =    -0.00000345    0.00000583    0.00000278
     atom   98 type  1   force =    -0.00000308    0.00000593    0.00000182
     atom   99 type  1   force =    -0.00000417    0.00000578    0.00000188
     atom  100 type  1   force =    -0.00000361    0.00000586    0.00000238
     atom  101 type  1   force =    -0.00000332    0.00000551    0.00000252
     atom  102 type  1   force =    -0.00000450    0.00000683    0.00000163
     atom  103 type  1   force =    -0.00000440    0.00000514    0.00000199
     atom  104 type  1   force =    -0.00000466    0.00000591    0.00000253
     atom  105 type  1   force =    -0.00000340    0.00000608    0.00000287
     atom  106 type  1   force =    -0.00000379    0.00000632    0.00000313
     atom  107 type  1   force =    -0.00000379    0.00000515    0.00000183
     atom  108 type  1   force =    -0.00000326    0.00000562    0.00000281
     atom  109 type  1   force =    -0.00000577    0.00000961    0.00000468
     atom  110 type  1   force =    -0.00000446    0.00000839    0.00000316
     atom  111 type  1   force =    -0.00000625    0.00000961    0.00000269
     atom  112 type  1   force =    -0.00000632    0.00000838    0.00000179
     atom  113 type  1   force =    -0.00000411    0.00000899    0.00000252
     atom  114 type  1   force =    -0.00000578    0.00000982    0.00000526
     atom  115 type  1   force =    -0.00000454    0.00000873    0.00000345
     atom  116 type  1   force =    -0.00000727    0.00001003    0.00000262
     atom  117 type  1   force =    -0.00000462    0.00000773    0.00000320
     atom  118 type  1   force =    -0.00000551    0.00000882    0.00000330
     atom  119 type  1   force =    -0.00000618    0.00000823    0.00000401
     atom  120 type  1   force =    -0.00000567    0.00000930    0.00000389
     atom  121 type  1   force =    -0.00000650    0.00000918    0.00000255
     atom  122 type  1   force =    -0.00000521    0.00000963    0.00000285
     atom  123 type  1   force =    -0.00000596    0.00000896    0.00000453
     atom  124 type  1   force =    -0.00000735    0.00000976    0.00000392
     atom  125 type  1   force =    -0.00000540    0.00000873    0.00000408
     atom  126 type  1   force =    -0.00000363    0.00000759    0.00000313
     atom  127 type  1   force =    -0.00000626    0.00000728    0.00000364
     atom  128 type  1   force =    -0.00000602    0.00000951    0.00000320
     atom  129 type  1   force =    -0.00000497    0.00000940    0.00000316
     atom  130 type  1   force =    -0.00000489    0.00000975    0.00000348
     atom  131 type  1   force =    -0.00000542    0.00000866    0.00000360
     atom  132 type  1   force =    -0.00000647    0.00000811    0.00000456
     atom  133 type  1   force =    -0.00000555    0.00000942    0.00000347
     atom  134 type  1   force =    -0.00000619    0.00000909    0.00000399
     atom  135 type  1   force =    -0.00000615    0.00000932    0.00000310
     atom  136 type  1   force =    -0.00000465    0.00000838    0.00000197
     atom  137 type  1   force =    -0.00000447    0.00000814    0.00000426
     atom  138 type  1   force =    -0.00000621    0.00000906    0.00000276
     atom  139 type  1   force =    -0.00000723    0.00000836    0.00000271
     atom  140 type  1   force =    -0.00000569    0.00000984    0.00000328
     atom  141 type  1   force =    -0.00000327    0.00000881    0.00000414
     atom  142 type  1   force =    -0.00000586    0.00000927    0.00000323
     atom  143 type  1   force =    -0.00000605    0.00000942    0.00000313
     atom  144 type  1   force =    -0.00000462    0.00000934    0.00000300
     atom  145 type  1   force =    -0.00000378    0.00001038    0.00000299
     atom  146 type  1   force =    -0.00000681    0.00000881    0.00000316
     atom  147 type  1   force =    -0.00000625    0.00000734    0.00000368
     atom  148 type  1   force =    -0.00000628    0.00001055    0.00000381
     atom  149 type  1   force =    -0.00000496    0.00000847    0.00000294
     atom  150 type  1   force =    -0.00000547    0.00000808    0.00000404
     atom  151 type  1   force =    -0.00000665    0.00000893    0.00000449
     atom  152 type  1   force =    -0.00000542    0.00000839    0.00000324
     atom  153 type  1   force =    -0.00000578    0.00000924    0.00000328
     atom  154 type  1   force =    -0.00000605    0.00000877    0.00000384
     atom  155 type  1   force =    -0.00000626    0.00000859    0.00000421
     atom  156 type  1   force =    -0.00000604    0.00000878    0.00000285
     atom  157 type  1   force =    -0.00000540    0.00000916    0.00000318
     atom  158 type  1   force =    -0.00000635    0.00000934    0.00000235
     atom  159 type  1   force =    -0.00000541    0.00000929    0.00000442
     atom  160 type  1   force =    -0.00000476    0.00000810    0.00000300
     atom  161 type  1   force =    -0.00000559    0.00000953    0.00000436
     atom  162 type  1   force =    -0.00000569    0.00000841    0.00000302
     atom  163 type  1   force =    -0.00000498    0.00000928    0.00000318
     atom  164 type  1   force =    -0.00000606    0.00000848    0.00000236
     atom  165 type  1   force =    -0.00000484    0.00000959    0.00000289
     atom  166 type  1   force =    -0.00000525    0.00000787    0.00000395
     atom  167 type  1   force =    -0.00000436    0.00001040    0.00000356
     atom  168 type  1   force =    -0.00000558    0.00000791    0.00000318
     atom  169 type  1   force =    -0.00000656    0.00000938    0.00000368
     atom  170 type  1   force =    -0.00000626    0.00000850    0.00000290
     atom  171 type  1   force =    -0.00000430    0.00000857    0.00000298
     atom  172 type  1   force =    -0.00000641    0.00000868    0.00000236
     atom  173 type  1   force =    -0.00000521    0.00000932    0.00000371
     atom  174 type  1   force =    -0.00000618    0.00000841    0.00000389
     atom  175 type  1   force =    -0.00000454    0.00000846    0.00000427
     atom  176 type  1   force =    -0.00000581    0.00000870    0.00000292
     atom  177 type  1   force =    -0.00000611    0.00000950    0.00000308
     atom  178 type  1   force =    -0.00000422    0.00000866    0.00000406
     atom  179 type  1   force =    -0.00000567    0.00000901    0.00000372
     atom  180 type  1   force =    -0.00000700    0.00000969    0.00000372
     atom  181 type  1   force =    -0.00000648    0.00000875    0.00000346
     atom  182 type  1   force =    -0.00000430    0.00000866    0.00000388
     atom  183 type  1   force =    -0.00000570    0.00000903    0.00000416
     atom  184 type  1   force =    -0.00000690    0.00000876    0.00000359
     atom  185 type  1   force =    -0.00000530    0.00000952    0.00000381
     atom  186 type  1   force =    -0.00000574    0.00000916    0.00000318
     atom  187 type  1   force =    -0.00000409    0.00000856    0.00000314
     atom  188 type  1   force =    -0.00000722    0.00000857    0.00000400
     atom  189 type  1   force =    -0.00000482    0.00000938    0.00000275
     atom  190 type  1   force =    -0.00000557    0.00000955    0.00000386
     atom  191 type  1   force =    -0.00000502    0.00000734    0.00000245
     atom  192 type  1   force =    -0.00000641    0.00000927    0.00000286
     atom  193 type  1   force =    -0.00000572    0.00000796    0.00000323
     atom  194 type  1   force =    -0.00000572    0.00000928    0.00000279
     atom  195 type  1   force =    -0.00000437    0.00000931    0.00000406
     atom  196 type  1   force =    -0.00000397    0.00001053    0.00000273
     atom  197 type  1   force =    -0.00000624    0.00000739    0.00000347
     atom  198 type  1   force =    -0.00000556    0.00000872    0.00000438
     atom  199 type  1   force =    -0.00000528    0.00000928    0.00000443
     atom  200 type  1   force =    -0.00000733    0.00000901    0.00000394
     atom  201 type  1   force =    -0.00000531    0.00000822    0.00000228
     atom  202 type  1   force =    -0.00000538    0.00000880    0.00000438
     atom  203 type  1   force =    -0.00000450    0.00000950    0.00000252
     atom  204 type  1   force =    -0.00000648    0.00000860    0.00000317
     atom  205 type  1   force =    -0.00000594    0.00000850    0.00000312
     atom  206 type  1   force =    -0.00000557    0.00000941    0.00000371
     atom  207 type  1   force =    -0.00000592    0.00000911    0.00000427
     atom  208 type  1   force =    -0.00000739    0.00000914    0.00000385
     atom  209 type  1   force =    -0.00000523    0.00000820    0.00000327
     atom  210 type  1   force =    -0.00000489    0.00000846    0.00000323
     atom  211 type  1   force =    -0.00000479    0.00000766    0.00000419
     atom  212 type  1   force =    -0.00000594    0.00000944    0.00000402
     atom  213 type  1   force =    -0.00000637    0.00001022    0.00000388
     atom  214 type  1   force =    -0.00000498    0.00000821    0.00000292
     atom  215 type  1   force =    -0.00000557    0.00000986    0.00000449
     atom  216 type  1   force =    -0.00000684    0.00000901    0.00000233
     The ionic contribution  to forces
     atom    1 type  1   force =    -0.00000675    0.00001871    0.00000622
     atom    2 type  1   force =    -0.00001618    0.00002454    0.00001167
     atom    3 type  1   force =    -0.00002138    0.00002646    0.00000607
     atom    4 type  1   force =    -0.00001933    0.00002567    0.00000995
     atom    5 type  1   force =    -0.00001180    0.00002789    0.00000928
     atom    6 type  1   force =    -0.00001106    0.00001856    0.00001044
     atom    7 type  1   force =    -0.00001669    0.00002321    0.00001466
     atom    8 type  1   force =    -0.00002157    0.00001888    0.00000668
     atom    9 type  1   force =    -0.00001040    0.00002758    0.00000927
     atom   10 type  1   force =    -0.00001727    0.00002504    0.00001224
     atom   11 type  1   force =    -0.00002195    0.00002511    0.00000860
     atom   12 type  1   force =    -0.00001060    0.00002040    0.00001266
     atom   13 type  1   force =    -0.00001201    0.00002570    0.00001922
     atom   14 type  1   force =    -0.00001614    0.00002253    0.00000418
     atom   15 type  1   force =    -0.00002170    0.00002201    0.00000881
     atom   16 type  1   force =    -0.00001578    0.00001594    0.00000978
     atom   17 type  1   force =    -0.00001387    0.00002775    0.00001048
     atom   18 type  1   force =    -0.00001999    0.00002655    0.00001235
     atom   19 type  1   force =    -0.00001706    0.00002611    0.00000703
     atom   20 type  1   force =    -0.00000881    0.00002061    0.00000724
     atom   21 type  1   force =    -0.00001483    0.00001968    0.00000737
     atom   22 type  1   force =    -0.00001043    0.00001802    0.00000561
     atom   23 type  1   force =    -0.00001901    0.00002769    0.00000815
     atom   24 type  1   force =    -0.00000767    0.00002826    0.00000841
     atom   25 type  1   force =    -0.00000660    0.00002253    0.00000681
     atom   26 type  1   force =    -0.00001493    0.00002827    0.00000292
     atom   27 type  1   force =    -0.00001324    0.00001953    0.00000739
     atom   28 type  1   force =    -0.00001621    0.00002587    0.00001287
     atom   29 type  1   force =    -0.00002047    0.00002722    0.00001029
     atom   30 type  1   force =    -0.00001549    0.00001899    0.00001440
     atom   31 type  1   force =    -0.00002050    0.00002574    0.00001627
     atom   32 type  1   force =    -0.00001030    0.00002427    0.00000853
     atom   33 type  1   force =    -0.00001859    0.00002251    0.00000785
     atom   34 type  1   force =    -0.00001421    0.00001754    0.00000930
     atom   35 type  1   force =    -0.00002546    0.00002227    0.00001064
     atom   36 type  1   force =    -0.00001148    0.00002663    0.00001178
     atom   37 type  1   force =    -0.00001466    0.00002426    0.00001117
     atom   38 type  1   force =    -0.00001664    0.00002100    0.00000550
     atom   39 type  1   force =    -0.00000858    0.00002651    0.00000734
     atom   40 type  1   force =    -0.00000251    0.00001636    0.00000996
     atom   41 type  1   force =    -0.00001888    0.00003126    0.00001083
     atom   42 type  1   force =    -0.00002175    0.00002398    0.00000877
     atom   43 type  1   force =    -0.00001675    0.00002180    0.00000801
     atom   44 type  1   force =    -0.00001787    0.00002528    0.00000687
     atom   45 type  1   force =    -0.00001321    0.00002033    0.00001030
     atom   46 type  1   force =    -0.00001708    0.00002096    0.00000178
     atom   47 type  1   force =    -0.00000579    0.00002511    0.00000963
     atom   48 type  1   force =    -0.00001692    0.00002412    0.00001037
     atom   49 type  1   force =    -0.00001359    0.00002315    0.00000875
     atom   50 type  1   force =    -0.00001874    0.00002627    0.00000491
     atom   51 type  1   force =    -0.00000646    0.00002035    0.00000669
     atom   52 type  1   force =    -0.00000683    0.00002495    0.00001417
     atom   53 type  1   force =    -0.00001122    0.00002109    0.00000156
     atom   54 type  1   force =    -0.00001880    0.00002535    0.00000570
     atom   55 type  1   force =    -0.00001895    0.00002468    0.00001162
     atom   56 type  1   force =    -0.00002407    0.00002655    0.00001294
     atom   57 type  1   force =    -0.00000971    0.00001586    0.00000947
     atom   58 type  1   force =    -0.00001388    0.00002782    0.00001088
     atom   59 type  1   force =    -0.00001803    0.00002148    0.00000843
     atom   60 type  1   force =    -0.00001961    0.00002542    0.00001729
     atom   61 type  1   force =    -0.00001904    0.00002057    0.00000826
     atom   62 type  1   force =    -0.00000973    0.00002377    0.00001338
     atom   63 type  1   force =    -0.00002024    0.00002471    0.00000975
     atom   64 type  1   force =    -0.00001922    0.00002380    0.00000959
     atom   65 type  1   force =    -0.00001187    0.00002090    0.00000475
     atom   66 type  1   force =    -0.00001320    0.00002341    0.00000893
     atom   67 type  1   force =    -0.00001275    0.00001718    0.00000914
     atom   68 type  1   force =    -0.00001907    0.00002757    0.00000724
     atom   69 type  1   force =    -0.00000740    0.00002746    0.00001001
     atom   70 type  1   force =    -0.00001337    0.00002683    0.00000910
     atom   71 type  1   force =    -0.00001635    0.00002498    0.00001391
     atom   72 type  1   force =    -0.00001686    0.00001862    0.00000651
     atom   73 type  1   force =    -0.00000398    0.00002557    0.00000936
     atom   74 type  1   force =    -0.00001490    0.00002535    0.00000283
     atom   75 type  1   force =    -0.00001970    0.00002045    0.00000984
     atom   76 type  1   force =    -0.00001993    0.00002309    0.00000457
     atom   77 type  1   force =    -0.00001132    0.00002706    0.00000930
     atom   78 type  1   force =    -0.00000750    0.00001987    0.00000742
     atom   79 type  1   force =    -0.00001635    0.00002599    0.00000482
     atom   80 type  1   force =    -0.00001374    0.00001955    0.00000222
     atom   81 type  1   force =    -0.00000767    0.00002457    0.00001350
     atom   82 type  1   force =    -0.00000934    0.00002529    0.00000668
     atom   83 type  1   force =    -0.00001838    0.00003089    0.00001103
     atom   84 type  1   force =    -0.00001347    0.00001441    0.00000770
     atom   85 type  1   force =    -0.00002151    0.00002591    0.00000876
     atom   86 type  1   force =    -0.00001011    0.00002064    0.00000987
     atom   87 type  1   force =    -0.00001418    0.00002524    0.00001296
     atom   88 type  1   force =    -0.00001525    0.00002029    0.00001067
     atom   89 type  1   force =    -0.00002314    0.00002475    0.00000527
     atom   90 type  1   force =    -0.00000953    0.00002430    0.00001106
     atom   91 type  1   force =    -0.00001797    0.00002405    0.00001056
     atom   92 type  1   force =    -0.00001811    0.00002272    0.00000567
     atom   93 type  1   force =    -0.00001349    0.00002550    0.00001750
     atom   94 type  1   force =    -0.00000651    0.00002109    0.00001060
     atom   95 type  1   force =    -0.00001965    0.00002258    0.00001178
     atom   96 type  1   force =    -0.00002414    0.00002484    0.00000913
     atom   97 type  1   force =    -0.00002095    0.00002547    0.00001021
     atom   98 type  1   force =    -0.00001353    0.00002576    0.00001259
     atom   99 type  1   force =    -0.00001585    0.00001854    0.00001055
     atom  100 type  1   force =    -0.00001811    0.00001844    0.00000757
     atom  101 type  1   force =    -0.00000986    0.00002528    0.00000842
     atom  102 type  1   force =    -0.00001250    0.00002687    0.00000724
     atom  103 type  1   force =    -0.00001648    0.00002751    0.00000590
     atom  104 type  1   force =    -0.00001667    0.00002644    0.00000854
     atom  105 type  1   force =    -0.00000249    0.00002002    0.00000543
     atom  106 type  1   force =    -0.00001111    0.00002736    0.00000569
     atom  107 type  1   force =    -0.00001004    0.00001849    0.00000175
     atom  108 type  1   force =    -0.00001570    0.00002035    0.00001073
     atom  109 type  1   force =     0.00001543   -0.00002147   -0.00000815
     atom  110 type  1   force =     0.00001009   -0.00001918   -0.00000436
     atom  111 type  1   force =     0.00001512   -0.00003150   -0.00001264
     atom  112 type  1   force =     0.00000868   -0.00002105   -0.00000810
     atom  113 type  1   force =     0.00001917   -0.00002312   -0.00000947
     atom  114 type  1   force =     0.00001305   -0.00002210   -0.00000246
     atom  115 type  1   force =     0.00001502   -0.00002754   -0.00000695
     atom  116 type  1   force =     0.00000362   -0.00002531   -0.00000814
     atom  117 type  1   force =     0.00001950   -0.00002031   -0.00000821
     atom  118 type  1   force =     0.00001431   -0.00002317   -0.00000797
     atom  119 type  1   force =     0.00001121   -0.00002578   -0.00001315
     atom  120 type  1   force =     0.00001844   -0.00002118   -0.00000472
     atom  121 type  1   force =     0.00002553   -0.00003021   -0.00000489
     atom  122 type  1   force =     0.00001025   -0.00001714   -0.00001165
     atom  123 type  1   force =     0.00000511   -0.00002195   -0.00000936
     atom  124 type  1   force =     0.00001030   -0.00002379   -0.00000689
     atom  125 type  1   force =     0.00001415   -0.00002097   -0.00000527
     atom  126 type  1   force =     0.00001512   -0.00002627   -0.00000960
     atom  127 type  1   force =     0.00001247   -0.00002337   -0.00001227
     atom  128 type  1   force =     0.00002097   -0.00002099   -0.00001205
     atom  129 type  1   force =     0.00001482   -0.00002556   -0.00000765
     atom  130 type  1   force =     0.00001527   -0.00002234   -0.00001092
     atom  131 type  1   force =     0.00001235   -0.00002088   -0.00001082
     atom  132 type  1   force =     0.00002495   -0.00002694   -0.00001149
     atom  133 type  1   force =     0.00001987   -0.00002196   -0.00001245
     atom  134 type  1   force =     0.00002031   -0.00002687   -0.00001701
     atom  135 type  1   force =     0.00001319   -0.00002185   -0.00000879
     atom  136 type  1   force =     0.00001472   -0.00002351   -0.00000612
     atom  137 type  1   force =     0.00001234   -0.00002347   -0.00001082
     atom  138 type  1   force =     0.00000882   -0.00002159    0.00000122
     atom  139 type  1   force =     0.00001285   -0.00002974   -0.00000682
     atom  140 type  1   force =     0.00001842   -0.00002035   -0.00000667
     atom  141 type  1   force =     0.00000860   -0.00002064   -0.00000886
     atom  142 type  1   force =     0.00001100   -0.00002120   -0.00000621
     atom  143 type  1   force =     0.00000462   -0.00002264   -0.00000730
     atom  144 type  1   force =     0.00001932   -0.00002759   -0.00000784
     atom  145 type  1   force =     0.00001933   -0.00002835   -0.00000967
     atom  146 type  1   force =     0.00000862   -0.00002033   -0.00001092
     atom  147 type  1   force =     0.00002246   -0.00001897   -0.00000956
     atom  148 type  1   force =     0.00002094   -0.00002090   -0.00000700
     atom  149 type  1   force =     0.00001541   -0.00001900   -0.00000800
     atom  150 type  1   force =     0.00001301   -0.00002828   -0.00001493
     atom  151 type  1   force =     0.00001222   -0.00002075   -0.00001118
     atom  152 type  1   force =     0.00001726   -0.00002779   -0.00001488
     atom  153 type  1   force =     0.00001665   -0.00002617   -0.00000770
     atom  154 type  1   force =     0.00000881   -0.00002207   -0.00001529
     atom  155 type  1   force =     0.00001933   -0.00001691   -0.00000804
     atom  156 type  1   force =     0.00002047   -0.00003095   -0.00000935
     atom  157 type  1   force =     0.00001302   -0.00002265   -0.00000947
     atom  158 type  1   force =     0.00001232   -0.00002762   -0.00001196
     atom  159 type  1   force =     0.00001900   -0.00002018   -0.00000685
     atom  160 type  1   force =     0.00002333   -0.00002539   -0.00000560
     atom  161 type  1   force =     0.00001407   -0.00002235   -0.00001354
     atom  162 type  1   force =     0.00001042   -0.00002307   -0.00001012
     atom  163 type  1   force =     0.00001079   -0.00002223   -0.00000663
     atom  164 type  1   force =     0.00001138   -0.00002589   -0.00000590
     atom  165 type  1   force =     0.00001208   -0.00002146   -0.00000461
     atom  166 type  1   force =     0.00001988   -0.00002394   -0.00001095
     atom  167 type  1   force =     0.00001054   -0.00002524   -0.00000867
     atom  168 type  1   force =     0.00000814   -0.00002181    0.00000050
     atom  169 type  1   force =     0.00000602   -0.00002045   -0.00001045
     atom  170 type  1   force =     0.00001761   -0.00002060   -0.00000397
     atom  171 type  1   force =     0.00001411   -0.00002971   -0.00000842
     atom  172 type  1   force =     0.00001194   -0.00002771   -0.00001079
     atom  173 type  1   force =     0.00001841   -0.00002360   -0.00001096
     atom  174 type  1   force =     0.00001780   -0.00002056   -0.00000978
     atom  175 type  1   force =     0.00001052   -0.00001746   -0.00000683
     atom  176 type  1   force =     0.00001070   -0.00002091   -0.00001207
     atom  177 type  1   force =     0.00002862   -0.00002758   -0.00001053
     atom  178 type  1   force =     0.00001464   -0.00001940   -0.00001307
     atom  179 type  1   force =     0.00001944   -0.00002689   -0.00000801
     atom  180 type  1   force =     0.00001334   -0.00002682   -0.00001199
     atom  181 type  1   force =     0.00002374   -0.00002132   -0.00000676
     atom  182 type  1   force =     0.00001334   -0.00001761   -0.00001322
     atom  183 type  1   force =     0.00001283   -0.00003210   -0.00001267
     atom  184 type  1   force =     0.00000848   -0.00002091   -0.00001202
     atom  185 type  1   force =     0.00002054   -0.00002749   -0.00001019
     atom  186 type  1   force =     0.00001702   -0.00002094   -0.00000788
     atom  187 type  1   force =     0.00001533   -0.00002725   -0.00001388
     atom  188 type  1   force =     0.00000849   -0.00002043   -0.00001030
     atom  189 type  1   force =     0.00002144   -0.00002323   -0.00000293
     atom  190 type  1   force =     0.00001650   -0.00001929   -0.00000739
     atom  191 type  1   force =     0.00001581   -0.00002606   -0.00000736
     atom  192 type  1   force =     0.00000907   -0.00002136   -0.00000662
     atom  193 type  1   force =     0.00000888   -0.00002412   -0.00001155
     atom  194 type  1   force =     0.00001812   -0.00002383   -0.00000727
     atom  195 type  1   force =     0.00001289   -0.00002168   -0.00000306
     atom  196 type  1   force =     0.00001197   -0.00002272   -0.00000551
     atom  197 type  1   force =     0.00000465   -0.00002288   -0.00001094
     atom  198 type  1   force =     0.00002175   -0.00002981   -0.00000883
     atom  199 type  1   force =     0.00001438   -0.00002845   -0.00001213
     atom  200 type  1   force =     0.00000978   -0.00002000   -0.00001156
     atom  201 type  1   force =     0.00002004   -0.00002046   -0.00000273
     atom  202 type  1   force =     0.00001523   -0.00001588   -0.00000628
     atom  203 type  1   force =     0.00001140   -0.00002271   -0.00000604
     atom  204 type  1   force =     0.00001240   -0.00003094   -0.00000999
     atom  205 type  1   force =     0.00000937   -0.00002254   -0.00001055
     atom  206 type  1   force =     0.00001866   -0.00002608   -0.00000670
     atom  207 type  1   force =     0.00001373   -0.00002394   -0.00000700
     atom  208 type  1   force =     0.00000876   -0.00002373   -0.00000927
     atom  209 type  1   force =     0.00001954   -0.00002009   -0.00000807
     atom  210 type  1   force =     0.00002207   -0.00002634   -0.00001371
     atom  211 type  1   force =     0.00001449   -0.00002033   -0.00001385
     atom  212 type  1   force =     0.00001763   -0.00002719   -0.00001261
     atom  213 type  1   force =     0.00002306   -0.00002394   -0.00001061
     atom  214 type  1   force =     0.00002275   -0.00002346   -0.00001575
     atom  215 type  1   force =     0.00001589   -0.00002019   -0.00001316
     atom  216 type  1   force =     0.00001091   -0.00002572   -0.00000622
     The local contribution  to forces
     atom    1 type  1   force =    -0.00000037   -0.00001178   -0.00000296
     atom    2 type  1   force =     0.00001364   -0.00001991   -0.00001157
     atom    3 type  1   force =     0.00002097   -0.00002230   -0.00000153
     atom    4 type  1   force =     0.00001919   -0.00002155   -0.00000682
     atom    5 type  1   force =     0.00000746   -0.00002471   -0.00000731
     atom    6 type  1   force =     0.00000587   -0.00001111   -0.00000832
     atom    7 type  1   force =     0.00001548   -0.00001821   -0.00001593
     atom    8 type  1   force =     0.00002120   -0.00001194   -0.00000334
     atom    9 type  1   force =     0.00000412   -0.00002529   -0.00000777
     atom   10 type  1   force =     0.00001652   -0.00002097   -0.00001153
     atom   11 type  1   force =     0.00002250   -0.00002039   -0.00000647
     atom   12 type  1   force =     0.00000389   -0.00001370   -0.00001217
     atom   13 type  1   force =     0.00000741   -0.00002157   -0.00002185
     atom   14 type  1   force =     0.00001337   -0.00001604    0.00000163
     atom   15 type  1   force =     0.00002267   -0.00001642   -0.00000736
     atom   16 type  1   force =     0.00001284   -0.00000708   -0.00000783
     atom   17 type  1   force =     0.00000900   -0.00002642   -0.00000884
     atom   18 type  1   force =     0.00001906   -0.00002325   -0.00001235
     atom   19 type  1   force =     0.00001778   -0.00002227   -0.00000473
     atom   20 type  1   force =     0.00000094   -0.00001287   -0.00000495
     atom   21 type  1   force =     0.00001295   -0.00001287   -0.00000547
     atom   22 type  1   force =     0.00000597   -0.00001082   -0.00000194
     atom   23 type  1   force =     0.00001940   -0.00002428   -0.00000702
     atom   24 type  1   force =     0.00000095   -0.00002523   -0.00000673
     atom   25 type  1   force =    -0.00000050   -0.00001723   -0.00000438
     atom   26 type  1   force =     0.00001281   -0.00002638    0.00000174
     atom   27 type  1   force =     0.00000966   -0.00001336   -0.00000497
     atom   28 type  1   force =     0.00001368   -0.00002261   -0.00001123
     atom   29 type  1   force =     0.00001914   -0.00002389   -0.00000986
     atom   30 type  1   force =     0.00001289   -0.00001064   -0.00001247
     atom   31 type  1   force =     0.00001917   -0.00002338   -0.00001709
     atom   32 type  1   force =     0.00000348   -0.00001928   -0.00000614
     atom   33 type  1   force =     0.00001648   -0.00001683   -0.00000455
     atom   34 type  1   force =     0.00000958   -0.00000920   -0.00000717
     atom   35 type  1   force =     0.00002771   -0.00001750   -0.00000876
     atom   36 type  1   force =     0.00000565   -0.00002346   -0.00001011
     atom   37 type  1   force =     0.00001105   -0.00002056   -0.00000841
     atom   38 type  1   force =     0.00001485   -0.00001281   -0.00000121
     atom   39 type  1   force =     0.00000130   -0.00002281   -0.00000490
     atom   40 type  1   force =    -0.00000708   -0.00000725   -0.00000850
     atom   41 type  1   force =     0.00001887   -0.00003047   -0.00001017
     atom   42 type  1   force =     0.00002300   -0.00001978   -0.00000585
     atom   43 type  1   force =     0.00001401   -0.00001658   -0.00000637
     atom   44 type  1   force =     0.00001618   -0.00002188   -0.00000503
     atom   45 type  1   force =     0.00000923   -0.00001292   -0.00000892
     atom   46 type  1   force =     0.00001619   -0.00001375    0.00000392
     atom   47 type  1   force =    -0.00000258   -0.00002021   -0.00000855
     atom   48 type  1   force =     0.00001589   -0.00001951   -0.00000937
     atom   49 type  1   force =     0.00000973   -0.00001763   -0.00000707
     atom   50 type  1   force =     0.00001727   -0.00002292   -0.00000131
     atom   51 type  1   force =     0.00000107   -0.00001443   -0.00000373
     atom   52 type  1   force =     0.00000020   -0.00002150   -0.00001481
     atom   53 type  1   force =     0.00000592   -0.00001335    0.00000440
     atom   54 type  1   force =     0.00001893   -0.00002257   -0.00000330
     atom   55 type  1   force =     0.00001682   -0.00002101   -0.00001117
     atom   56 type  1   force =     0.00002573   -0.00002264   -0.00001159
     atom   57 type  1   force =     0.00000275   -0.00000694   -0.00000722
     atom   58 type  1   force =     0.00000971   -0.00002404   -0.00001004
     atom   59 type  1   force =     0.00001468   -0.00001403   -0.00000554
     atom   60 type  1   force =     0.00001876   -0.00002125   -0.00001905
     atom   61 type  1   force =     0.00001674   -0.00001237   -0.00000478
     atom   62 type  1   force =     0.00000306   -0.00001971   -0.00001431
     atom   63 type  1   force =     0.00001906   -0.00002168   -0.00000620
     atom   64 type  1   force =     0.00001879   -0.00001958   -0.00000853
     atom   65 type  1   force =     0.00000622   -0.00001370   -0.00000074
     atom   66 type  1   force =     0.00001018   -0.00001799   -0.00000681
     atom   67 type  1   force =     0.00000780   -0.00000804   -0.00000797
     atom   68 type  1   force =     0.00001857   -0.00002474   -0.00000443
     atom   69 type  1   force =     0.00000015   -0.00002571   -0.00000820
     atom   70 type  1   force =     0.00000924   -0.00002396   -0.00000715
     atom   71 type  1   force =     0.00001440   -0.00002117   -0.00001633
     atom   72 type  1   force =     0.00001490   -0.00001077   -0.00000282
     atom   73 type  1   force =    -0.00000631   -0.00002046   -0.00000742
     atom   74 type  1   force =     0.00001271   -0.00002292    0.00000220
     atom   75 type  1   force =     0.00002019   -0.00001409   -0.00000880
     atom   76 type  1   force =     0.00002010   -0.00001677    0.00000000
     atom   77 type  1   force =     0.00000617   -0.00002351   -0.00000800
     atom   78 type  1   force =     0.00000134   -0.00001295   -0.00000611
     atom   79 type  1   force =     0.00001378   -0.00002220   -0.00000112
     atom   80 type  1   force =     0.00000949   -0.00001196    0.00000189
     atom   81 type  1   force =     0.00000102   -0.00002031   -0.00001431
     atom   82 type  1   force =     0.00000332   -0.00002093   -0.00000399
     atom   83 type  1   force =     0.00001776   -0.00002982   -0.00001009
     atom   84 type  1   force =     0.00000915   -0.00000405   -0.00000446
     atom   85 type  1   force =     0.00002211   -0.00002328   -0.00000881
     atom   86 type  1   force =     0.00000436   -0.00001355   -0.00000768
     atom   87 type  1   force =     0.00001018   -0.00002041   -0.00001288
     atom   88 type  1   force =     0.00001174   -0.00001405   -0.00000937
     atom   89 type  1   force =     0.00002486   -0.00001958   -0.00000220
     atom   90 type  1   force =     0.00000329   -0.00001926   -0.00001008
     atom   91 type  1   force =     0.00001603   -0.00001890   -0.00000870
     atom   92 type  1   force =     0.00001687   -0.00001649   -0.00000206
     atom   93 type  1   force =     0.00000890   -0.00002152   -0.00001950
     atom   94 type  1   force =    -0.00000229   -0.00001450   -0.00000935
     atom   95 type  1   force =     0.00001758   -0.00001626   -0.00001090
     atom   96 type  1   force =     0.00002664   -0.00002128   -0.00000723
     atom   97 type  1   force =     0.00002051   -0.00002121   -0.00000740
     atom   98 type  1   force =     0.00000877   -0.00002088   -0.00001260
     atom   99 type  1   force =     0.00001322   -0.00001227   -0.00000843
     atom  100 type  1   force =     0.00001851   -0.00000996   -0.00000558
     atom  101 type  1   force =     0.00000460   -0.00002134   -0.00000707
     atom  102 type  1   force =     0.00001017   -0.00002275   -0.00000502
     atom  103 type  1   force =     0.00001427   -0.00002412   -0.00000269
     atom  104 type  1   force =     0.00001301   -0.00002287   -0.00000759
     atom  105 type  1   force =    -0.00000639   -0.00001325   -0.00000243
     atom  106 type  1   force =     0.00000657   -0.00002593   -0.00000303
     atom  107 type  1   force =     0.00000445   -0.00000998    0.00000407
     atom  108 type  1   force =     0.00001362   -0.00001428   -0.00000973
     atom  109 type  1   force =    -0.00000118   -0.00000241   -0.00000041
     atom  110 type  1   force =     0.00000628   -0.00000579   -0.00000646
     atom  111 type  1   force =    -0.00000162    0.00001315    0.00000507
     atom  112 type  1   force =     0.00000906   -0.00000414   -0.00000156
     atom  113 type  1   force =    -0.00000688    0.00000123    0.00000161
     atom  114 type  1   force =     0.00000059   -0.00000108   -0.00000801
     atom  115 type  1   force =    -0.00000079    0.00000824   -0.00000193
     atom  116 type  1   force =     0.00001530    0.00000287   -0.00000130
     atom  117 type  1   force =    -0.00000843   -0.00000606   -0.00000085
     atom  118 type  1   force =     0.00000001    0.00000034   -0.00000127
     atom  119 type  1   force =     0.00000456    0.00000535    0.00000647
     atom  120 type  1   force =    -0.00000707   -0.00000267   -0.00000594
     atom  121 type  1   force =    -0.00001750    0.00001212   -0.00000683
     atom  122 type  1   force =     0.00000616   -0.00000832    0.00000457
     atom  123 type  1   force =     0.00001478   -0.00000175    0.00000120
     atom  124 type  1   force =     0.00000548    0.00000183   -0.00000232
     atom  125 type  1   force =    -0.00000101   -0.00000361   -0.00000469
     atom  126 type  1   force =     0.00000017    0.00000484    0.00000045
     atom  127 type  1   force =     0.00000502    0.00000085    0.00000548
     atom  128 type  1   force =    -0.00001018   -0.00000370    0.00000348
     atom  129 type  1   force =     0.00000069    0.00000453   -0.00000308
     atom  130 type  1   force =    -0.00000069   -0.00000029    0.00000300
     atom  131 type  1   force =     0.00000340   -0.00000224    0.00000197
     atom  132 type  1   force =    -0.00001492    0.00000501    0.00000347
     atom  133 type  1   force =    -0.00000712   -0.00000173    0.00000466
     atom  134 type  1   force =    -0.00001000    0.00000755    0.00001208
     atom  135 type  1   force =     0.00000293   -0.00000201   -0.00000046
     atom  136 type  1   force =    -0.00000039    0.00000065   -0.00000354
     atom  137 type  1   force =     0.00000169    0.00000117    0.00000318
     atom  138 type  1   force =     0.00000886   -0.00000173   -0.00001394
     atom  139 type  1   force =     0.00000014    0.00000986   -0.00000142
     atom  140 type  1   force =    -0.00000678   -0.00000452   -0.00000303
     atom  141 type  1   force =     0.00000949   -0.00000316    0.00000137
     atom  142 type  1   force =     0.00000395   -0.00000334   -0.00000405
     atom  143 type  1   force =     0.00001403    0.00000132   -0.00000167
     atom  144 type  1   force =    -0.00000820    0.00000734   -0.00000046
     atom  145 type  1   force =    -0.00000707    0.00000898    0.00000130
     atom  146 type  1   force =     0.00000988   -0.00000358    0.00000254
     atom  147 type  1   force =    -0.00001367   -0.00000667    0.00000080
     atom  148 type  1   force =    -0.00000963   -0.00000190   -0.00000303
     atom  149 type  1   force =    -0.00000001   -0.00000626   -0.00000266
     atom  150 type  1   force =     0.00000284    0.00000771    0.00001068
     atom  151 type  1   force =     0.00000382   -0.00000362    0.00000363
     atom  152 type  1   force =    -0.00000561    0.00000864    0.00000852
     atom  153 type  1   force =    -0.00000250    0.00000465   -0.00000187
     atom  154 type  1   force =     0.00000902   -0.00000146    0.00001001
     atom  155 type  1   force =    -0.00000825   -0.00000877   -0.00000129
     atom  156 type  1   force =    -0.00000991    0.00001291    0.00000072
     atom  157 type  1   force =     0.00000245   -0.00000115    0.00000053
     atom  158 type  1   force =     0.00000216    0.00000788    0.00000356
     atom  159 type  1   force =    -0.00000659   -0.00000334   -0.00000175
     atom  160 type  1   force =    -0.00001378    0.00000311   -0.00000400
     atom  161 type  1   force =     0.00000149   -0.00000041    0.00000691
     atom  162 type  1   force =     0.00000584    0.00000059    0.00000144
     atom  163 type  1   force =     0.00000390   -0.00000033   -0.00000366
     atom  164 type  1   force =     0.00000491    0.00000513   -0.00000328
     atom  165 type  1   force =     0.00000312   -0.00000248   -0.00000531
     atom  166 type  1   force =    -0.00000969    0.00000234    0.00000446
     atom  167 type  1   force =     0.00000551    0.00000419   -0.00000040
     atom  168 type  1   force =     0.00000959   -0.00000214   -0.00001385
     atom  169 type  1   force =     0.00001246   -0.00000427    0.00000266
     atom  170 type  1   force =    -0.00000730   -0.00000287   -0.00000754
     atom  171 type  1   force =    -0.00000013    0.00000935    0.00000022
     atom  172 type  1   force =     0.00000431    0.00000871    0.00000315
     atom  173 type  1   force =    -0.00000587    0.00000045    0.00000249
     atom  174 type  1   force =    -0.00000484   -0.00000299    0.00000190
     atom  175 type  1   force =     0.00000622   -0.00000829   -0.00000437
     atom  176 type  1   force =     0.00000590   -0.00000203    0.00000493
     atom  177 type  1   force =    -0.00002243    0.00000704    0.00000309
     atom  178 type  1   force =     0.00000049   -0.00000623    0.00000583
     atom  179 type  1   force =    -0.00000844    0.00000624   -0.00000170
     atom  180 type  1   force =     0.00000203    0.00000565    0.00000476
     atom  181 type  1   force =    -0.00001534   -0.00000287   -0.00000430
     atom  182 type  1   force =     0.00000257   -0.00000808    0.00000795
     atom  183 type  1   force =     0.00000207    0.00001408    0.00000684
     atom  184 type  1   force =     0.00000861   -0.00000228    0.00000536
     atom  185 type  1   force =    -0.00000861    0.00000715    0.00000190
     atom  186 type  1   force =    -0.00000487   -0.00000280   -0.00000101
     atom  187 type  1   force =    -0.00000113    0.00000688    0.00000765
     atom  188 type  1   force =     0.00000913   -0.00000473    0.00000162
     atom  189 type  1   force =    -0.00001086    0.00000045   -0.00001003
     atom  190 type  1   force =    -0.00000333   -0.00000400   -0.00000188
     atom  191 type  1   force =    -0.00000355    0.00000507   -0.00000155
     atom  192 type  1   force =     0.00000879   -0.00000213   -0.00000236
     atom  193 type  1   force =     0.00000697    0.00000328    0.00000340
     atom  194 type  1   force =    -0.00000633    0.00000160   -0.00000272
     atom  195 type  1   force =     0.00000315   -0.00000271   -0.00000830
     atom  196 type  1   force =     0.00000388    0.00000012   -0.00000552
     atom  197 type  1   force =     0.00001402   -0.00000031    0.00000351
     atom  198 type  1   force =    -0.00001131    0.00001070    0.00000120
     atom  199 type  1   force =    -0.00000118    0.00001009    0.00000675
     atom  200 type  1   force =     0.00000722   -0.00000425    0.00000409
     atom  201 type  1   force =    -0.00000815   -0.00000498   -0.00000914
     atom  202 type  1   force =    -0.00000219   -0.00001103   -0.00000421
     atom  203 type  1   force =     0.00000473   -0.00000005   -0.00000446
     atom  204 type  1   force =     0.00000279    0.00001308    0.00000161
     atom  205 type  1   force =     0.00000843   -0.00000213    0.00000254
     atom  206 type  1   force =    -0.00000687    0.00000584   -0.00000305
     atom  207 type  1   force =     0.00000187    0.00000080   -0.00000127
     atom  208 type  1   force =     0.00000885    0.00000197   -0.00000027
     atom  209 type  1   force =    -0.00000660   -0.00000373   -0.00000127
     atom  210 type  1   force =    -0.00000926    0.00000507    0.00000682
     atom  211 type  1   force =     0.00000063   -0.00000494    0.00000715
     atom  212 type  1   force =    -0.00000505    0.00000707    0.00000528
     atom  213 type  1   force =    -0.00001242    0.00000214    0.00000223
     atom  214 type  1   force =    -0.00001411    0.00000185    0.00000919
     atom  215 type  1   force =    -0.00000078   -0.00000484    0.00000645
     atom  216 type  1   force =     0.00000567    0.00000342   -0.00000490
     The core correction contribution to forces
     atom    1 type  1   force =    -0.00000346    0.00000548    0.00000214
     atom    2 type  1   force =    -0.00000340    0.00000546    0.00000211
     atom    3 type  1   force =    -0.00000342    0.00000543    0.00000210
     atom    4 type  1   force =    -0.00000342    0.00000545    0.00000211
     atom    5 type  1   force =    -0.00000345    0.00000544    0.00000212
     atom    6 type  1   force =    -0.00000344    0.00000549    0.00000210
     atom    7 type  1   force =    -0.00000338    0.00000544    0.00000210
     atom    8 type  1   force =    -0.00000345    0.00000549    0.00000212
     atom    9 type  1   force =    -0.00000349    0.00000545    0.00000211
     atom   10 type  1   force =    -0.00000341    0.00000546    0.00000212
     atom   11 type  1   force =    -0.00000340    0.00000546    0.00000209
     atom   12 type  1   force =    -0.00000348    0.00000546    0.00000210
     atom   13 type  1   force =    -0.00000343    0.00000543    0.00000206
     atom   14 type  1   force =    -0.00000343    0.00000548    0.00000214
     atom   15 type  1   force =    -0.00000343    0.00000549    0.00000213
     atom   16 type  1   force =    -0.00000345    0.00000547    0.00000213
     atom   17 type  1   force =    -0.00000347    0.00000546    0.00000210
     atom   18 type  1   force =    -0.00000340    0.00000545    0.00000209
     atom   19 type  1   force =    -0.00000344    0.00000542    0.00000210
     atom   20 type  1   force =    -0.00000348    0.00000547    0.00000210
     atom   21 type  1   force =    -0.00000341    0.00000548    0.00000210
     atom   22 type  1   force =    -0.00000340    0.00000550    0.00000213
     atom   23 type  1   force =    -0.00000342    0.00000546    0.00000209
     atom   24 type  1   force =    -0.00000345    0.00000543    0.00000212
     atom   25 type  1   force =    -0.00000345    0.00000548    0.00000211
     atom   26 type  1   force =    -0.00000340    0.00000543    0.00000211
     atom   27 type  1   force =    -0.00000344    0.00000548    0.00000211
     atom   28 type  1   force =    -0.00000345    0.00000546    0.00000211
     atom   29 type  1   force =    -0.00000340    0.00000544    0.00000213
     atom   30 type  1   force =    -0.00000344    0.00000548    0.00000209
     atom   31 type  1   force =    -0.00000341    0.00000541    0.00000210
     atom   32 type  1   force =    -0.00000347    0.00000547    0.00000211
     atom   33 type  1   force =    -0.00000340    0.00000548    0.00000213
     atom   34 type  1   force =    -0.00000342    0.00000549    0.00000213
     atom   35 type  1   force =    -0.00000342    0.00000548    0.00000209
     atom   36 type  1   force =    -0.00000347    0.00000543    0.00000208
     atom   37 type  1   force =    -0.00000339    0.00000546    0.00000208
     atom   38 type  1   force =    -0.00000344    0.00000549    0.00000212
     atom   39 type  1   force =    -0.00000347    0.00000544    0.00000213
     atom   40 type  1   force =    -0.00000348    0.00000549    0.00000212
     atom   41 type  1   force =    -0.00000343    0.00000546    0.00000210
     atom   42 type  1   force =    -0.00000341    0.00000545    0.00000210
     atom   43 type  1   force =    -0.00000344    0.00000546    0.00000214
     atom   44 type  1   force =    -0.00000344    0.00000544    0.00000210
     atom   45 type  1   force =    -0.00000342    0.00000548    0.00000210
     atom   46 type  1   force =    -0.00000344    0.00000545    0.00000215
     atom   47 type  1   force =    -0.00000349    0.00000545    0.00000208
     atom   48 type  1   force =    -0.00000339    0.00000548    0.00000210
     atom   49 type  1   force =    -0.00000342    0.00000547    0.00000211
     atom   50 type  1   force =    -0.00000342    0.00000545    0.00000211
     atom   51 type  1   force =    -0.00000346    0.00000547    0.00000212
     atom   52 type  1   force =    -0.00000346    0.00000542    0.00000208
     atom   53 type  1   force =    -0.00000341    0.00000548    0.00000212
     atom   54 type  1   force =    -0.00000342    0.00000548    0.00000212
     atom   55 type  1   force =    -0.00000342    0.00000548    0.00000211
     atom   56 type  1   force =    -0.00000342    0.00000542    0.00000209
     atom   57 type  1   force =    -0.00000347    0.00000549    0.00000211
     atom   58 type  1   force =    -0.00000346    0.00000542    0.00000210
     atom   59 type  1   force =    -0.00000341    0.00000547    0.00000212
     atom   60 type  1   force =    -0.00000343    0.00000548    0.00000209
     atom   61 type  1   force =    -0.00000345    0.00000549    0.00000211
     atom   62 type  1   force =    -0.00000347    0.00000546    0.00000209
     atom   63 type  1   force =    -0.00000337    0.00000545    0.00000212
     atom   64 type  1   force =    -0.00000341    0.00000544    0.00000211
     atom   65 type  1   force =    -0.00000346    0.00000546    0.00000212
     atom   66 type  1   force =    -0.00000342    0.00000544    0.00000210
     atom   67 type  1   force =    -0.00000343    0.00000551    0.00000209
     atom   68 type  1   force =    -0.00000343    0.00000544    0.00000212
     atom   69 type  1   force =    -0.00000346    0.00000545    0.00000209
     atom   70 type  1   force =    -0.00000347    0.00000546    0.00000212
     atom   71 type  1   force =    -0.00000340    0.00000544    0.00000210
     atom   72 type  1   force =    -0.00000343    0.00000549    0.00000211
     atom   73 type  1   force =    -0.00000350    0.00000546    0.00000208
     atom   74 type  1   force =    -0.00000341    0.00000546    0.00000212
     atom   75 type  1   force =    -0.00000342    0.00000545    0.00000210
     atom   76 type  1   force =    -0.00000343    0.00000548    0.00000213
     atom   77 type  1   force =    -0.00000343    0.00000547    0.00000209
     atom   78 type  1   force =    -0.00000345    0.00000546    0.00000213
     atom   79 type  1   force =    -0.00000339    0.00000544    0.00000210
     atom   80 type  1   force =    -0.00000344    0.00000549    0.00000213
     atom   81 type  1   force =    -0.00000347    0.00000547    0.00000210
     atom   82 type  1   force =    -0.00000348    0.00000546    0.00000212
     atom   83 type  1   force =    -0.00000341    0.00000543    0.00000209
     atom   84 type  1   force =    -0.00000343    0.00000550    0.00000210
     atom   85 type  1   force =    -0.00000343    0.00000546    0.00000209
     atom   86 type  1   force =    -0.00000347    0.00000548    0.00000211
     atom   87 type  1   force =    -0.00000343    0.00000547    0.00000211
     atom   88 type  1   force =    -0.00000341    0.00000548    0.00000212
     atom   89 type  1   force =    -0.00000343    0.00000545    0.00000213
     atom   90 type  1   force =    -0.00000345    0.00000544    0.00000210
     atom   91 type  1   force =    -0.00000340    0.00000545    0.00000210
     atom   92 type  1   force =    -0.00000342    0.00000547    0.00000213
     atom   93 type  1   force =    -0.00000347    0.00000547    0.00000207
     atom   94 type  1   force =    -0.00000349    0.00000547    0.00000211
     atom   95 type  1   force =    -0.00000340    0.00000548    0.00000211
     atom   96 type  1   force =    -0.00000341    0.00000545    0.00000211
     atom   97 type  1   force =    -0.00000343    0.00000546    0.00000210
     atom   98 type  1   force =    -0.00000346    0.00000545    0.00000211
     atom   99 type  1   force =    -0.00000342    0.00000547    0.00000212
     atom  100 type  1   force =    -0.00000342    0.00000548    0.00000211
     atom  101 type  1   force =    -0.00000346    0.00000546    0.00000210
     atom  102 type  1   force =    -0.00000341    0.00000543    0.00000213
     atom  103 type  1   force =    -0.00000341    0.00000546    0.00000212
     atom  104 type  1   force =    -0.00000340    0.00000545    0.00000210
     atom  105 type  1   force =    -0.00000347    0.00000547    0.00000210
     atom  106 type  1   force =    -0.00000345    0.00000543    0.00000210
     atom  107 type  1   force =    -0.00000344    0.00000550    0.00000214
     atom  108 type  1   force =    -0.00000343    0.00000548    0.00000209
     atom  109 type  1   force =    -0.00002295    0.00003648    0.00001406
     atom  110 type  1   force =    -0.00002295    0.00003649    0.00001407
     atom  111 type  1   force =    -0.00002294    0.00003653    0.00001412
     atom  112 type  1   force =    -0.00002290    0.00003649    0.00001412
     atom  113 type  1   force =    -0.00002301    0.00003651    0.00001412
     atom  114 type  1   force =    -0.00002294    0.00003648    0.00001403
     atom  115 type  1   force =    -0.00002297    0.00003654    0.00001409
     atom  116 type  1   force =    -0.00002286    0.00003649    0.00001411
     atom  117 type  1   force =    -0.00002300    0.00003650    0.00001409
     atom  118 type  1   force =    -0.00002294    0.00003650    0.00001409
     atom  119 type  1   force =    -0.00002292    0.00003653    0.00001410
     atom  120 type  1   force =    -0.00002297    0.00003648    0.00001405
     atom  121 type  1   force =    -0.00002299    0.00003653    0.00001409
     atom  122 type  1   force =    -0.00002293    0.00003646    0.00001411
     atom  123 type  1   force =    -0.00002289    0.00003649    0.00001407
     atom  124 type  1   force =    -0.00002289    0.00003649    0.00001408
     atom  125 type  1   force =    -0.00002295    0.00003649    0.00001406
     atom  126 type  1   force =    -0.00002299    0.00003655    0.00001409
     atom  127 type  1   force =    -0.00002291    0.00003654    0.00001410
     atom  128 type  1   force =    -0.00002298    0.00003647    0.00001411
     atom  129 type  1   force =    -0.00002295    0.00003650    0.00001408
     atom  130 type  1   force =    -0.00002295    0.00003648    0.00001410
     atom  131 type  1   force =    -0.00002294    0.00003649    0.00001409
     atom  132 type  1   force =    -0.00002298    0.00003653    0.00001407
     atom  133 type  1   force =    -0.00002297    0.00003648    0.00001410
     atom  134 type  1   force =    -0.00002297    0.00003652    0.00001412
     atom  135 type  1   force =    -0.00002292    0.00003649    0.00001409
     atom  136 type  1   force =    -0.00002297    0.00003651    0.00001411
     atom  137 type  1   force =    -0.00002296    0.00003653    0.00001409
     atom  138 type  1   force =    -0.00002291    0.00003650    0.00001406
     atom  139 type  1   force =    -0.00002292    0.00003654    0.00001410
     atom  140 type  1   force =    -0.00002297    0.00003647    0.00001408
     atom  141 type  1   force =    -0.00002296    0.00003649    0.00001409
     atom  142 type  1   force =    -0.00002293    0.00003647    0.00001408
     atom  143 type  1   force =    -0.00002289    0.00003650    0.00001409
     atom  144 type  1   force =    -0.00002300    0.00003652    0.00001410
     atom  145 type  1   force =    -0.00002300    0.00003651    0.00001411
     atom  146 type  1   force =    -0.00002289    0.00003649    0.00001410
     atom  147 type  1   force =    -0.00002298    0.00003651    0.00001409
     atom  148 type  1   force =    -0.00002296    0.00003646    0.00001408
     atom  149 type  1   force =    -0.00002295    0.00003649    0.00001409
     atom  150 type  1   force =    -0.00002294    0.00003655    0.00001411
     atom  151 type  1   force =    -0.00002291    0.00003649    0.00001408
     atom  152 type  1   force =    -0.00002297    0.00003654    0.00001412
     atom  153 type  1   force =    -0.00002295    0.00003651    0.00001408
     atom  154 type  1   force =    -0.00002290    0.00003650    0.00001411
     atom  155 type  1   force =    -0.00002296    0.00003648    0.00001407
     atom  156 type  1   force =    -0.00002297    0.00003656    0.00001410
     atom  157 type  1   force =    -0.00002293    0.00003649    0.00001410
     atom  158 type  1   force =    -0.00002292    0.00003652    0.00001412
     atom  159 type  1   force =    -0.00002297    0.00003649    0.00001406
     atom  160 type  1   force =    -0.00002301    0.00003653    0.00001409
     atom  161 type  1   force =    -0.00002294    0.00003649    0.00001409
     atom  162 type  1   force =    -0.00002292    0.00003651    0.00001410
     atom  163 type  1   force =    -0.00002295    0.00003650    0.00001408
     atom  164 type  1   force =    -0.00002292    0.00003653    0.00001410
     atom  165 type  1   force =    -0.00002295    0.00003647    0.00001409
     atom  166 type  1   force =    -0.00002300    0.00003654    0.00001409
     atom  167 type  1   force =    -0.00002295    0.00003649    0.00001409
     atom  168 type  1   force =    -0.00002291    0.00003650    0.00001405
     atom  169 type  1   force =    -0.00002289    0.00003648    0.00001409
     atom  170 type  1   force =    -0.00002296    0.00003650    0.00001408
     atom  171 type  1   force =    -0.00002297    0.00003654    0.00001411
     atom  172 type  1   force =    -0.00002292    0.00003654    0.00001412
     atom  173 type  1   force =    -0.00002298    0.00003649    0.00001409
     atom  174 type  1   force =    -0.00002294    0.00003649    0.00001409
     atom  175 type  1   force =    -0.00002295    0.00003649    0.00001405
     atom  176 type  1   force =    -0.00002292    0.00003649    0.00001411
     atom  177 type  1   force =    -0.00002301    0.00003652    0.00001411
     atom  178 type  1   force =    -0.00002298    0.00003649    0.00001409
     atom  179 type  1   force =    -0.00002297    0.00003652    0.00001408
     atom  180 type  1   force =    -0.00002290    0.00003650    0.00001410
     atom  181 type  1   force =    -0.00002298    0.00003650    0.00001407
     atom  182 type  1   force =    -0.00002296    0.00003647    0.00001411
     atom  183 type  1   force =    -0.00002293    0.00003655    0.00001409
     atom  184 type  1   force =    -0.00002289    0.00003650    0.00001409
     atom  185 type  1   force =    -0.00002298    0.00003651    0.00001409
     atom  186 type  1   force =    -0.00002295    0.00003648    0.00001409
     atom  187 type  1   force =    -0.00002298    0.00003654    0.00001412
     atom  188 type  1   force =    -0.00002288    0.00003650    0.00001409
     atom  189 type  1   force =    -0.00002299    0.00003649    0.00001407
     atom  190 type  1   force =    -0.00002296    0.00003648    0.00001407
     atom  191 type  1   force =    -0.00002297    0.00003655    0.00001412
     atom  192 type  1   force =    -0.00002290    0.00003649    0.00001410
     atom  193 type  1   force =    -0.00002293    0.00003654    0.00001410
     atom  194 type  1   force =    -0.00002297    0.00003650    0.00001410
     atom  195 type  1   force =    -0.00002295    0.00003648    0.00001405
     atom  196 type  1   force =    -0.00002297    0.00003647    0.00001408
     atom  197 type  1   force =    -0.00002289    0.00003653    0.00001410
     atom  198 type  1   force =    -0.00002299    0.00003654    0.00001408
     atom  199 type  1   force =    -0.00002296    0.00003654    0.00001409
     atom  200 type  1   force =    -0.00002288    0.00003649    0.00001409
     atom  201 type  1   force =    -0.00002297    0.00003649    0.00001408
     atom  202 type  1   force =    -0.00002297    0.00003647    0.00001405
     atom  203 type  1   force =    -0.00002295    0.00003649    0.00001409
     atom  204 type  1   force =    -0.00002292    0.00003655    0.00001411
     atom  205 type  1   force =    -0.00002292    0.00003651    0.00001410
     atom  206 type  1   force =    -0.00002297    0.00003651    0.00001407
     atom  207 type  1   force =    -0.00002293    0.00003649    0.00001407
     atom  208 type  1   force =    -0.00002288    0.00003651    0.00001408
     atom  209 type  1   force =    -0.00002297    0.00003650    0.00001409
     atom  210 type  1   force =    -0.00002298    0.00003653    0.00001412
     atom  211 type  1   force =    -0.00002296    0.00003651    0.00001409
     atom  212 type  1   force =    -0.00002295    0.00003651    0.00001409
     atom  213 type  1   force =    -0.00002296    0.00003648    0.00001408
     atom  214 type  1   force =    -0.00002301    0.00003652    0.00001412
     atom  215 type  1   force =    -0.00002295    0.00003646    0.00001409
     atom  216 type  1   force =    -0.00002290    0.00003651    0.00001409
     The Hubbard contrib.    to forces
     atom    1 type  1   force =     0.00000000    0.00000000    0.00000000
     atom    2 type  1   force =     0.00000000    0.00000000    0.00000000
     atom    3 type  1   force =     0.00000000    0.00000000    0.00000000
     atom    4 type  1   force =     0.00000000    0.00000000    0.00000000
     atom    5 type  1   force =     0.00000000    0.00000000    0.00000000
     atom    6 type  1   force =     0.00000000    0.00000000    0.00000000
     atom    7 type  1   force =     0.00000000    0.00000000    0.00000000
     atom    8 type  1   force =     0.00000000    0.00000000    0.00000000
     atom    9 type  1   force =     0.00000000    0.00000000    0.00000000
     atom   10 type  1   force =     0.00000000    0.00000000    0.00000000
     atom   11 type  1   force =     0.00000000    0.00000000    0.00000000
     atom   12 type  1   force =     0.00000000    0.00000000    0.00000000
     atom   13 type  1   force =     0.00000000    0.00000000    0.00000000
     atom   14 type  1   force =     0.00000000    0.00000000    0.00000000
     atom   15 type  1   force =     0.00000000    0.00000000    0.00000000
     atom   16 type  1   force =     0.00000000    0.00000000    0.00000000
     atom   17 type  1   force =     0.00000000    0.00000000    0.00000000
     atom   18 type  1   force =     0.00000000    0.00000000    0.00000000
     atom   19 type  1   force =     0.00000000    0.00000000    0.00000000
     atom   20 type  1   force =     0.00000000    0.00000000    0.00000000
     atom   21 type  1   force =     0.00000000    0.00000000    0.00000000
     atom   22 type  1   force =     0.00000000    0.00000000    0.00000000
     atom   23 type  1   force =     0.00000000    0.00000000    0.00000000
     atom   24 type  1   force =     0.00000000    0.00000000    0.00000000
     atom   25 type  1   force =     0.00000000    0.00000000    0.00000000
     atom   26 type  1   force =     0.00000000    0.00000000    0.00000000
     atom   27 type  1   force =     0.00000000    0.00000000    0.00000000
     atom   28 type  1   force =     0.00000000    0.00000000    0.00000000
     atom   29 type  1   force =     0.00000000    0.00000000    0.00000000
     atom   30 type  1   force =     0.00000000    0.00000000    0.00000000
     atom   31 type  1   force =     0.00000000    0.00000000    0.00000000
     atom   32 type  1   force =     0.00000000    0.00000000    0.00000000
     atom   33 type  1   force =     0.00000000    0.00000000    0.00000000
     atom   34 type  1   force =     0.00000000    0.00000000    0.00000000
     atom   35 type  1   force =     0.00000000    0.00000000    0.00000000
     atom   36 type  1   force =     0.00000000    0.00000000    0.00000000
     atom   37 type  1   force =     0.00000000    0.00000000    0.00000000
     atom   38 type  1   force =     0.00000000    0.00000000    0.00000000
     atom   39 type  1   force =     0.00000000    0.00000000    0.00000000
     atom   40 type  1   force =     0.00000000    0.00000000    0.00000000
     atom   41 type  1   force =     0.00000000    0.00000000    0.00000000
     atom   42 type  1   force =     0.00000000    0.00000000    0.00000000
     atom   43 type  1   force =     0.00000000    0.00000000    0.00000000
     atom   44 type  1   force =     0.00000000    0.00000000    0.00000000
     atom   45 type  1   force =     0.00000000    0.00000000    0.00000000
     atom   46 type  1   force =     0.00000000    0.00000000    0.00000000
     atom   47 type  1   force =     0.00000000    0.00000000    0.00000000
     atom   48 type  1   force =     0.00000000    0.00000000    0.00000000
     atom   49 type  1   force =     0.00000000    0.00000000    0.00000000
     atom   50 type  1   force =     0.00000000    0.00000000    0.00000000
     atom   51 type  1   force =     0.00000000    0.00000000    0.00000000
     atom   52 type  1   force =     0.00000000    0.00000000    0.00000000
     atom   53 type  1   force =     0.00000000    0.00000000    0.00000000
     atom   54 type  1   force =     0.00000000    0.00000000    0.00000000
     atom   55 type  1   force =     0.00000000    0.00000000    0.00000000
     atom   56 type  1   force =     0.00000000    0.00000000    0.00000000
     atom   57 type  1   force =     0.00000000    0.00000000    0.00000000
     atom   58 type  1   force =     0.00000000    0.00000000    0.00000000
     atom   59 type  1   force =     0.00000000    0.00000000    0.00000000
     atom   60 type  1   force =     0.00000000    0.00000000    0.00000000
     atom   61 type  1   force =     0.00000000    0.00000000    0.00000000
     atom   62 type  1   force =     0.00000000    0.00000000    0.00000000
     atom   63 type  1   force =     0.00000000    0.00000000    0.00000000
     atom   64 type  1   force =     0.00000000    0.00000000    0.00000000
     atom   65 type  1   force =     0.00000000    0.00000000    0.00000000
     atom   66 type  1   force =     0.00000000    0.00000000    0.00000000
     atom   67 type  1   force =     0.00000000    0.00000000    0.00000000
     atom   68 type  1   force =     0.00000000    0.00000000    0.00000000
     atom   69 type  1   force =     0.00000000    0.00000000    0.00000000
     atom   70 type  1   force =     0.00000000    0.00000000    0.00000000
     atom   71 type  1   force =     0.00000000    0.00000000    0.00000000
     atom   72 type  1   force =     0.00000000    0.00000000    0.00000000
     atom   73 type  1   force =     0.00000000    0.00000000    0.00000000
     atom   74 type  1   force =     0.00000000    0.00000000    0.00000000
     atom   75 type  1   force =     0.00000000    0.00000000    0.00000000
     atom   76 type  1   force =     0.00000000    0.00000000    0.00000000
     atom   77 type  1   force =     0.00000000    0.00000000    0.00000000
     atom   78 type  1   force =     0.00000000    0.00000000    0.00000000
     atom   79 type  1   force =     0.00000000    0.00000000    0.00000000
     atom   80 type  1   force =     0.00000000    0.00000000    0.00000000
     atom   81 type  1   force =     0.00000000    0.00000000    0.00000000
     atom   82 type  1   force =     0.00000000    0.00000000    0.00000000
     atom   83 type  1   force =     0.00000000    0.00000000    0.00000000
     atom   84 type  1   force =     0.00000000    0.00000000    0.00000000
     atom   85 type  1   force =     0.00000000    0.00000000    0.00000000
     atom   86 type  1   force =     0.00000000    0.00000000    0.00000000
     atom   87 type  1   force =     0.00000000    0.00000000    0.00000000
     atom   88 type  1   force =     0.00000000    0.00000000    0.00000000
     atom   89 type  1   force =     0.00000000    0.00000000    0.00000000
     atom   90 type  1   force =     0.00000000    0.00000000    0.00000000
     atom   91 type  1   force =     0.00000000    0.00000000    0.00000000
     atom   92 type  1   force =     0.00000000    0.00000000    0.00000000
     atom   93 type  1   force =     0.00000000    0.00000000    0.00000000
     atom   94 type  1   force =     0.00000000    0.00000000    0.00000000
     atom   95 type  1   force =     0.00000000    0.00000000    0.00000000
     atom   96 type  1   force =     0.00000000    0.00000000    0.00000000
     atom   97 type  1   force =     0.00000000    0.00000000    0.00000000
     atom   98 type  1   force =     0.00000000    0.00000000    0.00000000
     atom   99 type  1   force =     0.00000000    0.00000000    0.00000000
     atom  100 type  1   force =     0.00000000    0.00000000    0.00000000
     atom  101 type  1   force =     0.00000000    0.00000000    0.00000000
     atom  102 type  1   force =     0.00000000    0.00000000    0.00000000
     atom  103 type  1   force =     0.00000000    0.00000000    0.00000000
     atom  104 type  1   force =     0.00000000    0.00000000    0.00000000
     atom  105 type  1   force =     0.00000000    0.00000000    0.00000000
     atom  106 type  1   force =     0.00000000    0.00000000    0.00000000
     atom  107 type  1   force =     0.00000000    0.00000000    0.00000000
     atom  108 type  1   force =     0.00000000    0.00000000    0.00000000
     atom  109 type  1   force =     0.00000000    0.00000000    0.00000000
     atom  110 type  1   force =     0.00000000    0.00000000    0.00000000
     atom  111 type  1   force =     0.00000000    0.00000000    0.00000000
     atom  112 type  1   force =     0.00000000    0.00000000    0.00000000
     atom  113 type  1   force =     0.00000000    0.00000000    0.00000000
     atom  114 type  1   force =     0.00000000    0.00000000    0.00000000
     atom  115 type  1   force =     0.00000000    0.00000000    0.00000000
     atom  116 type  1   force =     0.00000000    0.00000000    0.00000000
     atom  117 type  1   force =     0.00000000    0.00000000    0.00000000
     atom  118 type  1   force =     0.00000000    0.00000000    0.00000000
     atom  119 type  1   force =     0.00000000    0.00000000    0.00000000
     atom  120 type  1   force =     0.00000000    0.00000000    0.00000000
     atom  121 type  1   force =     0.00000000    0.00000000    0.00000000
     atom  122 type  1   force =     0.00000000    0.00000000    0.00000000
     atom  123 type  1   force =     0.00000000    0.00000000    0.00000000
     atom  124 type  1   force =     0.00000000    0.00000000    0.00000000
     atom  125 type  1   force =     0.00000000    0.00000000    0.00000000
     atom  126 type  1   force =     0.00000000    0.00000000    0.00000000
     atom  127 type  1   force =     0.00000000    0.00000000    0.00000000
     atom  128 type  1   force =     0.00000000    0.00000000    0.00000000
     atom  129 type  1   force =     0.00000000    0.00000000    0.00000000
     atom  130 type  1   force =     0.00000000    0.00000000    0.00000000
     atom  131 type  1   force =     0.00000000    0.00000000    0.00000000
     atom  132 type  1   force =     0.00000000    0.00000000    0.00000000
     atom  133 type  1   force =     0.00000000    0.00000000    0.00000000
     atom  134 type  1   force =     0.00000000    0.00000000    0.00000000
     atom  135 type  1   force =     0.00000000    0.00000000    0.00000000
     atom  136 type  1   force =     0.00000000    0.00000000    0.00000000
     atom  137 type  1   force =     0.00000000    0.00000000    0.00000000
     atom  138 type  1   force =     0.00000000    0.00000000    0.00000000
     atom  139 type  1   force =     0.00000000    0.00000000    0.00000000
     atom  140 type  1   force =     0.00000000    0.00000000    0.00000000
     atom  141 type  1   force =     0.00000000    0.00000000    0.00000000
     atom  142 type  1   force =     0.00000000    0.00000000    0.00000000
     atom  143 type  1   force =     0.00000000    0.00000000    0.00000000
     atom  144 type  1   force =     0.00000000    0.00000000    0.00000000
     atom  145 type  1   force =     0.00000000    0.00000000    0.00000000
     atom  146 type  1   force =     0.00000000    0.00000000    0.00000000
     atom  147 type  1   force =     0.00000000    0.00000000    0.00000000
     atom  148 type  1   force =     0.00000000    0.00000000    0.00000000
     atom  149 type  1   force =     0.00000000    0.00000000    0.00000000
     atom  150 type  1   force =     0.00000000    0.00000000    0.00000000
     atom  151 type  1   force =     0.00000000    0.00000000    0.00000000
     atom  152 type  1   force =     0.00000000    0.00000000    0.00000000
     atom  153 type  1   force =     0.00000000    0.00000000    0.00000000
     atom  154 type  1   force =     0.00000000    0.00000000    0.00000000
     atom  155 type  1   force =     0.00000000    0.00000000    0.00000000
     atom  156 type  1   force =     0.00000000    0.00000000    0.00000000
     atom  157 type  1   force =     0.00000000    0.00000000    0.00000000
     atom  158 type  1   force =     0.00000000    0.00000000    0.00000000
     atom  159 type  1   force =     0.00000000    0.00000000    0.00000000
     atom  160 type  1   force =     0.00000000    0.00000000    0.00000000
     atom  161 type  1   force =     0.00000000    0.00000000    0.00000000
     atom  162 type  1   force =     0.00000000    0.00000000    0.00000000
     atom  163 type  1   force =     0.00000000    0.00000000    0.00000000
     atom  164 type  1   force =     0.00000000    0.00000000    0.00000000
     atom  165 type  1   force =     0.00000000    0.00000000    0.00000000
     atom  166 type  1   force =     0.00000000    0.00000000    0.00000000
     atom  167 type  1   force =     0.00000000    0.00000000    0.00000000
     atom  168 type  1   force =     0.00000000    0.00000000    0.00000000
     atom  169 type  1   force =     0.00000000    0.00000000    0.00000000
     atom  170 type  1   force =     0.00000000    0.00000000    0.00000000
     atom  171 type  1   force =     0.00000000    0.00000000    0.00000000
     atom  172 type  1   force =     0.00000000    0.00000000    0.00000000
     atom  173 type  1   force =     0.00000000    0.00000000    0.00000000
     atom  174 type  1   force =     0.00000000    0.00000000    0.00000000
     atom  175 type  1   force =     0.00000000    0.00000000    0.00000000
     atom  176 type  1   force =     0.00000000    0.00000000    0.00000000
     atom  177 type  1   force =     0.00000000    0.00000000    0.00000000
     atom  178 type  1   force =     0.00000000    0.00000000    0.00000000
     atom  179 type  1   force =     0.00000000    0.00000000    0.00000000
     atom  180 type  1   force =     0.00000000    0.00000000    0.00000000
     atom  181 type  1   force =     0.00000000    0.00000000    0.00000000
     atom  182 type  1   force =     0.00000000    0.00000000    0.00000000
     atom  183 type  1   force =     0.00000000    0.00000000    0.00000000
     atom  184 type  1   force =     0.00000000    0.00000000    0.00000000
     atom  185 type  1   force =     0.00000000    0.00000000    0.00000000
     atom  186 type  1   force =     0.00000000    0.00000000    0.00000000
     atom  187 type  1   force =     0.00000000    0.00000000    0.00000000
     atom  188 type  1   force =     0.00000000    0.00000000    0.00000000
     atom  189 type  1   force =     0.00000000    0.00000000    0.00000000
     atom  190 type  1   force =     0.00000000    0.00000000    0.00000000
     atom  191 type  1   force =     0.00000000    0.00000000    0.00000000
     atom  192 type  1   force =     0.00000000    0.00000000    0.00000000
     atom  193 type  1   force =     0.00000000    0.00000000    0.00000000
     atom  194 type  1   force =     0.00000000    0.00000000    0.00000000
     atom  195 type  1   force =     0.00000000    0.00000000    0.00000000
     atom  196 type  1   force =     0.00000000    0.00000000    0.00000000
     atom  197 type  1   force =     0.00000000    0.00000000    0.00000000
     atom  198 type  1   force =     0.00000000    0.00000000    0.00000000
     atom  199 type  1   force =     0.00000000    0.00000000    0.00000000
     atom  200 type  1   force =     0.00000000    0.00000000    0.00000000
     atom  201 type  1   force =     0.00000000    0.00000000    0.00000000
     atom  202 type  1   force =     0.00000000    0.00000000    0.00000000
     atom  203 type  1   force =     0.00000000    0.00000000    0.00000000
     atom  204 type  1   force =     0.00000000    0.00000000    0.00000000
     atom  205 type  1   force =     0.00000000    0.00000000    0.00000000
     atom  206 type  1   force =     0.00000000    0.00000000    0.00000000
     atom  207 type  1   force =     0.00000000    0.00000000    0.00000000
     atom  208 type  1   force =     0.00000000    0.00000000    0.00000000
     atom  209 type  1   force =     0.00000000    0.00000000    0.00000000
     atom  210 type  1   force =     0.00000000    0.00000000    0.00000000
     atom  211 type  1   force =     0.00000000    0.00000000    0.00000000
     atom  212 type  1   force =     0.00000000    0.00000000    0.00000000
     atom  213 type  1   force =     0.00000000    0.00000000    0.00000000
     atom  214 type  1   force =     0.00000000    0.00000000    0.00000000
     atom  215 type  1   force =     0.00000000    0.00000000    0.00000000
     atom  216 type  1   force =     0.00000000    0.00000000    0.00000000
     The SCF correction term to forces
     atom    1 type  1   force =     0.00000450   -0.00000203   -0.00000078
     atom    2 type  1   force =     0.00000074    0.00000042    0.00000297
     atom    3 type  1   force =    -0.00000387    0.00000055   -0.00000430
     atom    4 type  1   force =    -0.00000404    0.00000172   -0.00000171
     atom    5 type  1   force =     0.00000167    0.00000183    0.00000089
     atom    6 type  1   force =     0.00000283   -0.00000291   -0.00000049
     atom    7 type  1   force =    -0.00000024   -0.00000063    0.00000402
     atom    8 type  1   force =    -0.00000504   -0.00000222   -0.00000097
     atom    9 type  1   force =     0.00000205    0.00000362    0.00000080
     atom   10 type  1   force =    -0.00000250    0.00000210    0.00000173
     atom   11 type  1   force =    -0.00000306    0.00000028   -0.00000078
     atom   12 type  1   force =     0.00000320   -0.00000273    0.00000178
     atom   13 type  1   force =     0.00000222    0.00000029    0.00000438
     atom   14 type  1   force =    -0.00000009   -0.00000155   -0.00000392
     atom   15 type  1   force =    -0.00000573    0.00000009    0.00000115
     atom   16 type  1   force =    -0.00000086   -0.00000564    0.00000035
     atom   17 type  1   force =     0.00000114    0.00000490    0.00000029
     atom   18 type  1   force =    -0.00000143    0.00000241    0.00000197
     atom   19 type  1   force =    -0.00000515    0.00000091   -0.00000105
     atom   20 type  1   force =     0.00000431   -0.00000287   -0.00000088
     atom   21 type  1   force =    -0.00000056   -0.00000172    0.00000023
     atom   22 type  1   force =     0.00000354   -0.00000198   -0.00000170
     atom   23 type  1   force =    -0.00000485    0.00000207    0.00000053
     atom   24 type  1   force =     0.00000394    0.00000188    0.00000066
     atom   25 type  1   force =     0.00000449    0.00000055   -0.00000064
     atom   26 type  1   force =     0.00000055    0.00000262   -0.00000350
     atom   27 type  1   force =     0.00000007   -0.00000132   -0.00000087
     atom   28 type  1   force =    -0.00000235    0.00000245    0.00000014
     atom   29 type  1   force =    -0.00000147    0.00000106    0.00000332
     atom   30 type  1   force =    -0.00000045   -0.00000347    0.00000017
     atom   31 type  1   force =    -0.00000225    0.00000144    0.00000360
     atom   32 type  1   force =     0.00000426    0.00000058   -0.00000046
     atom   33 type  1   force =    -0.00000042    0.00000016   -0.00000119
     atom   34 type  1   force =     0.00000254   -0.00000317    0.00000026
     atom   35 type  1   force =    -0.00000715    0.00000040   -0.00000043
     atom   36 type  1   force =     0.00000247    0.00000153   -0.00000050
     atom   37 type  1   force =     0.00000219    0.00000159   -0.00000175
     atom   38 type  1   force =    -0.00000203   -0.00000304   -0.00000231
     atom   39 type  1   force =     0.00000405    0.00000135   -0.00000009
     atom   40 type  1   force =     0.00000760   -0.00000446    0.00000104
     atom   41 type  1   force =    -0.00000376    0.00000617    0.00000178
     atom   42 type  1   force =    -0.00000582    0.00000022   -0.00000140
     atom   43 type  1   force =    -0.00000176    0.00000013    0.00000104
     atom   44 type  1   force =    -0.00000218    0.00000076   -0.00000015
     atom   45 type  1   force =     0.00000207   -0.00000241    0.00000094
     atom   46 type  1   force =    -0.00000393   -0.00000296   -0.00000376
     atom   47 type  1   force =     0.00000531    0.00000008    0.00000060
     atom   48 type  1   force =    -0.00000113    0.00000092    0.00000126
     atom   49 type  1   force =     0.00000111    0.00000033    0.00000042
     atom   50 type  1   force =    -0.00000205    0.00000151   -0.00000193
     atom   51 type  1   force =     0.00000279   -0.00000141   -0.00000090
     atom   52 type  1   force =     0.00000353    0.00000050    0.00000322
     atom   53 type  1   force =     0.00000410   -0.00000294   -0.00000501
     atom   54 type  1   force =    -0.00000440    0.00000384   -0.00000040
     atom   55 type  1   force =    -0.00000083    0.00000269    0.00000258
     atom   56 type  1   force =    -0.00000665    0.00000020    0.00000067
     atom   57 type  1   force =     0.00000372   -0.00000414   -0.00000095
     atom   58 type  1   force =     0.00000072    0.00000026    0.00000106
     atom   59 type  1   force =     0.00000055   -0.00000278   -0.00000120
     atom   60 type  1   force =    -0.00000362    0.00000258    0.00000467
     atom   61 type  1   force =    -0.00000212   -0.00000304   -0.00000226
     atom   62 type  1   force =     0.00000391    0.00000124    0.00000298
     atom   63 type  1   force =    -0.00000064    0.00000206   -0.00000184
     atom   64 type  1   force =    -0.00000237    0.00000025    0.00000105
     atom   65 type  1   force =     0.00000194   -0.00000260   -0.00000250
     atom   66 type  1   force =     0.00000061   -0.00000075   -0.00000025
     atom   67 type  1   force =     0.00000266   -0.00000390    0.00000035
     atom   68 type  1   force =    -0.00000392    0.00000256   -0.00000095
     atom   69 type  1   force =     0.00000434    0.00000371   -0.00000046
     atom   70 type  1   force =    -0.00000047    0.00000344    0.00000114
     atom   71 type  1   force =    -0.00000025    0.00000045    0.00000545
     atom   72 type  1   force =    -0.00000220   -0.00000287   -0.00000291
     atom   73 type  1   force =     0.00000697    0.00000006   -0.00000033
     atom   74 type  1   force =     0.00000004    0.00000388   -0.00000413
     atom   75 type  1   force =    -0.00000515   -0.00000244    0.00000167
     atom   76 type  1   force =    -0.00000481   -0.00000079   -0.00000241
     atom   77 type  1   force =     0.00000226    0.00000239   -0.00000014
     atom   78 type  1   force =     0.00000402   -0.00000298    0.00000132
     atom   79 type  1   force =     0.00000050    0.00000078   -0.00000275
     atom   80 type  1   force =     0.00000060   -0.00000279   -0.00000245
     atom   81 type  1   force =     0.00000320    0.00000192    0.00000356
     atom   82 type  1   force =     0.00000239    0.00000076   -0.00000036
     atom   83 type  1   force =    -0.00000222    0.00000506    0.00000030
     atom   84 type  1   force =     0.00000137   -0.00000633   -0.00000248
     atom   85 type  1   force =    -0.00000500    0.00000266    0.00000134
     atom   86 type  1   force =     0.00000269   -0.00000192   -0.00000038
     atom   87 type  1   force =     0.00000094    0.00000165    0.00000290
     atom   88 type  1   force =     0.00000127   -0.00000150    0.00000142
     atom   89 type  1   force =    -0.00000738   -0.00000053   -0.00000083
     atom   90 type  1   force =     0.00000411   -0.00000013    0.00000097
     atom   91 type  1   force =    -0.00000027   -0.00000109   -0.00000033
     atom   92 type  1   force =    -0.00000215   -0.00000093   -0.00000164
     atom   93 type  1   force =     0.00000023    0.00000230    0.00000433
     atom   94 type  1   force =     0.00000583   -0.00000200    0.00000082
     atom   95 type  1   force =    -0.00000044   -0.00000070    0.00000164
     atom   96 type  1   force =    -0.00000740    0.00000156   -0.00000051
     atom   97 type  1   force =    -0.00000338    0.00000147   -0.00000105
     atom   98 type  1   force =     0.00000145    0.00000026    0.00000250
     atom   99 type  1   force =     0.00000007   -0.00000169    0.00000005
     atom  100 type  1   force =    -0.00000418   -0.00000374   -0.00000021
     atom  101 type  1   force =     0.00000167    0.00000157    0.00000050
     atom  102 type  1   force =     0.00000065    0.00000056    0.00000037
     atom  103 type  1   force =    -0.00000053    0.00000315   -0.00000066
     atom  104 type  1   force =     0.00000080    0.00000119    0.00000053
     atom  105 type  1   force =     0.00000636   -0.00000237   -0.00000220
     atom  106 type  1   force =     0.00000171    0.00000327   -0.00000209
     atom  107 type  1   force =     0.00000323   -0.00000301   -0.00000375
     atom  108 type  1   force =    -0.00000210   -0.00000100    0.00000081
     atom  109 type  1   force =     0.00000044    0.00000082   -0.00000126
     atom  110 type  1   force =    -0.00000404    0.00000334    0.00000296
     atom  111 type  1   force =     0.00000170   -0.00000555   -0.00000121
     atom  112 type  1   force =    -0.00000335    0.00000365    0.00000256
     atom  113 type  1   force =     0.00000145   -0.00000068   -0.00000009
     atom  114 type  1   force =     0.00000033   -0.00000031    0.00000057
     atom  115 type  1   force =    -0.00000117   -0.00000346    0.00000021
     atom  116 type  1   force =    -0.00000400   -0.00000164    0.00000168
     atom  117 type  1   force =     0.00000289    0.00000537    0.00000026
     atom  118 type  1   force =    -0.00000068    0.00000060    0.00000049
     atom  119 type  1   force =    -0.00000101   -0.00000159   -0.00000294
     atom  120 type  1   force =     0.00000343    0.00000104    0.00000187
     atom  121 type  1   force =     0.00000823   -0.00000532    0.00000390
     atom  122 type  1   force =    -0.00000321    0.00000259   -0.00000127
     atom  123 type  1   force =    -0.00000644    0.00000145   -0.00000157
     atom  124 type  1   force =    -0.00000028   -0.00000134    0.00000038
     atom  125 type  1   force =     0.00000074    0.00000240    0.00000123
     atom  126 type  1   force =    -0.00000294   -0.00000009    0.00000058
     atom  127 type  1   force =    -0.00000290    0.00000163   -0.00000221
     atom  128 type  1   force =     0.00000455    0.00000150   -0.00000021
     atom  129 type  1   force =    -0.00000265   -0.00000212    0.00000264
     atom  130 type  1   force =    -0.00000158   -0.00000069   -0.00000106
     atom  131 type  1   force =    -0.00000187    0.00000139   -0.00000008
     atom  132 type  1   force =     0.00000602   -0.00000031   -0.00000167
     atom  133 type  1   force =     0.00000195    0.00000097   -0.00000111
     atom  134 type  1   force =     0.00000453   -0.00000359   -0.00000496
     atom  135 type  1   force =    -0.00000155    0.00000110    0.00000099
     atom  136 type  1   force =    -0.00000098    0.00000102    0.00000252
     atom  137 type  1   force =    -0.00000158    0.00000010   -0.00000216
     atom  138 type  1   force =    -0.00000295    0.00000060    0.00000549
     atom  139 type  1   force =     0.00000277   -0.00000303    0.00000037
     atom  140 type  1   force =     0.00000371    0.00000156    0.00000146
     atom  141 type  1   force =    -0.00000692    0.00000209   -0.00000223
     atom  142 type  1   force =    -0.00000117    0.00000206    0.00000177
     atom  143 type  1   force =    -0.00000476   -0.00000138    0.00000069
     atom  144 type  1   force =     0.00000290   -0.00000295    0.00000007
     atom  145 type  1   force =     0.00000013   -0.00000507   -0.00000013
     atom  146 type  1   force =    -0.00000344    0.00000153   -0.00000005
     atom  147 type  1   force =     0.00000645    0.00000535   -0.00000021
     atom  148 type  1   force =     0.00000412   -0.00000082    0.00000114
     atom  149 type  1   force =    -0.00000195    0.00000357    0.00000255
     atom  150 type  1   force =    -0.00000197   -0.00000182   -0.00000506
     atom  151 type  1   force =    -0.00000124    0.00000236   -0.00000216
     atom  152 type  1   force =     0.00000235   -0.00000318   -0.00000239
     atom  153 type  1   force =     0.00000019   -0.00000187    0.00000119
     atom  154 type  1   force =    -0.00000362    0.00000104   -0.00000452
     atom  155 type  1   force =     0.00000403    0.00000418    0.00000012
     atom  156 type  1   force =     0.00000394   -0.00000516    0.00000068
     atom  157 type  1   force =    -0.00000231    0.00000123    0.00000072
     atom  158 type  1   force =     0.00000006   -0.00000339    0.00000047
     atom  159 type  1   force =     0.00000211    0.00000099   -0.00000061
     atom  160 type  1   force =     0.00000487    0.00000032    0.00000195
     atom  161 type  1   force =    -0.00000159   -0.00000039   -0.00000325
     atom  162 type  1   force =    -0.00000267    0.00000090    0.00000022
     atom  163 type  1   force =    -0.00000168   -0.00000008    0.00000213
     atom  164 type  1   force =    -0.00000171   -0.00000153    0.00000178
     atom  165 type  1   force =    -0.00000179    0.00000100    0.00000184
     atom  166 type  1   force =     0.00000451   -0.00000016   -0.00000266
     atom  167 type  1   force =    -0.00000357   -0.00000351   -0.00000024
     atom  168 type  1   force =    -0.00000418    0.00000304    0.00000561
     atom  169 type  1   force =    -0.00000369    0.00000196   -0.00000164
     atom  170 type  1   force =     0.00000493    0.00000193    0.00000382
     atom  171 type  1   force =    -0.00000130   -0.00000266   -0.00000055
     atom  172 type  1   force =    -0.00000148   -0.00000368    0.00000019
     atom  173 type  1   force =     0.00000173   -0.00000019   -0.00000068
     atom  174 type  1   force =     0.00000133    0.00000226   -0.00000151
     atom  175 type  1   force =    -0.00000411    0.00000382    0.00000176
     atom  176 type  1   force =    -0.00000255    0.00000131   -0.00000087
     atom  177 type  1   force =     0.00000958   -0.00000297   -0.00000107
     atom  178 type  1   force =    -0.00000224    0.00000367   -0.00000208
     atom  179 type  1   force =     0.00000322   -0.00000224    0.00000103
     atom  180 type  1   force =    -0.00000006   -0.00000240   -0.00000190
     atom  181 type  1   force =     0.00000786    0.00000157    0.00000266
     atom  182 type  1   force =    -0.00000357    0.00000431   -0.00000405
     atom  183 type  1   force =    -0.00000099   -0.00000548   -0.00000366
     atom  184 type  1   force =    -0.00000216    0.00000114   -0.00000200
     atom  185 type  1   force =     0.00000256   -0.00000309   -0.00000089
     atom  186 type  1   force =     0.00000183    0.00000120    0.00000056
     atom  187 type  1   force =    -0.00000183   -0.00000244   -0.00000235
     atom  188 type  1   force =    -0.00000249    0.00000298   -0.00000082
     atom  189 type  1   force =     0.00000348    0.00000023    0.00000558
     atom  190 type  1   force =     0.00000143    0.00000057    0.00000065
     atom  191 type  1   force =     0.00000101   -0.00000021    0.00000098
     atom  192 type  1   force =    -0.00000307    0.00000061    0.00000082
     atom  193 type  1   force =    -0.00000188   -0.00000075   -0.00000047
     atom  194 type  1   force =     0.00000345   -0.00000071    0.00000159
     atom  195 type  1   force =    -0.00000354    0.00000197    0.00000253
     atom  196 type  1   force =    -0.00000348   -0.00000159    0.00000335
     atom  197 type  1   force =    -0.00000489    0.00000225   -0.00000150
     atom  198 type  1   force =     0.00000478   -0.00000360   -0.00000212
     atom  199 type  1   force =     0.00000046   -0.00000508   -0.00000445
     atom  200 type  1   force =    -0.00000124    0.00000176   -0.00000208
     atom  201 type  1   force =     0.00000243    0.00000407    0.00000468
     atom  202 type  1   force =     0.00000108    0.00000495    0.00000103
     atom  203 type  1   force =    -0.00000358   -0.00000025    0.00000333
     atom  204 type  1   force =    -0.00000031   -0.00000495   -0.00000059
     atom  205 type  1   force =    -0.00000340    0.00000247   -0.00000034
     atom  206 type  1   force =     0.00000280   -0.00000277    0.00000101
     atom  207 type  1   force =    -0.00000135    0.00000052   -0.00000115
     atom  208 type  1   force =    -0.00000225   -0.00000152    0.00000053
     atom  209 type  1   force =     0.00000113    0.00000246    0.00000136
     atom  210 type  1   force =     0.00000090   -0.00000105   -0.00000220
     atom  211 type  1   force =    -0.00000195    0.00000417   -0.00000308
     atom  212 type  1   force =     0.00000205   -0.00000316   -0.00000225
     atom  213 type  1   force =     0.00000503   -0.00000187   -0.00000059
     atom  214 type  1   force =     0.00000593   -0.00000014   -0.00000204
     atom  215 type  1   force =    -0.00000098    0.00000167   -0.00000329
     atom  216 type  1   force =    -0.00000206   -0.00000050    0.00000392

     Total force =     0.000060     Total SCF correction =     0.000069
     SCF correction compared to forces is large: reduce conv_thr to get better values


     Computing stress (Cartesian axis) and pressure

          total   stress  (Ry/bohr**3)                   (kbar)     P=        1.92
   0.00001303   0.00000004   0.00000001            1.92        0.01        0.00
   0.00000004   0.00001299  -0.00000002            0.01        1.91       -0.00
   0.00000001  -0.00000002   0.00001304            0.00       -0.00        1.92

     kinetic stress (kbar)  18968.51     -0.02     -0.01
                               -0.02  18968.53      0.01
                               -0.01      0.01  18968.50

     local   stress (kbar)  -3438.96     -0.17     -0.06
                               -0.17  -3438.80      0.10
                               -0.06      0.10  -3439.03

     nonloc. stress (kbar)   4234.38      0.01      0.00
                                0.01   4234.37     -0.00
                                0.00     -0.00   4234.38

     hartree stress (kbar)   1241.86      0.02      0.01
                                0.02   1241.84     -0.02
                                0.01     -0.02   1241.87

     exc-cor stress (kbar)   -439.44      0.00      0.00
                                0.00   -439.45     -0.00
                                0.00     -0.00   -439.44

     corecor stress (kbar)  -4282.53      0.00      0.00
                                0.00  -4282.54     -0.00
                                0.00     -0.00  -4282.53

     ewald   stress (kbar) -16281.89      0.16      0.06
                                0.16 -16282.05     -0.10
                                0.06     -0.10 -16281.83

     hubbard stress (kbar)      0.00      0.00      0.00
                                0.00      0.00      0.00
                                0.00      0.00      0.00

     DFT-D   stress (kbar)      0.00      0.00      0.00
                                0.00      0.00      0.00
                                0.00      0.00      0.00

     XDM     stress (kbar)      0.00      0.00      0.00
                                0.00      0.00      0.00
                                0.00      0.00      0.00

     dft-nl  stress (kbar)      0.00      0.00      0.00
                                0.00      0.00      0.00
                                0.00      0.00      0.00

     TS-vdW  stress (kbar)      0.00      0.00      0.00
                                0.00      0.00      0.00
                                0.00      0.00      0.00

     MDB     stress (kbar)      0.00      0.00      0.00
                                0.00      0.00      0.00
                                0.00      0.00      0.00

     3D-RISM stress (kbar)      0.00      0.00      0.00
                                0.00      0.00      0.00
                                0.00      0.00      0.00


     Writing all to output data dir ../tmp/diamond_pd.save/ :
     XML data file, charge density, pseudopotentials, collected wavefunctions
 
     init_run     :      5.81s CPU      6.30s WALL (       1 calls)
     electrons    :    269.24s CPU    274.99s WALL (       1 calls)
     forces       :      4.01s CPU      4.18s WALL (       1 calls)
     stress       :     14.01s CPU     14.26s WALL (       1 calls)

     Called by init_run:
     wfcinit      :      4.86s CPU      5.12s WALL (       1 calls)
     wfcinit:wfcr :      4.60s CPU      4.76s WALL (       2 calls)
     potinit      :      0.67s CPU      0.84s WALL (       1 calls)
     hinit0       :      0.10s CPU      0.11s WALL (       1 calls)

     Called by electrons:
     c_bands      :    243.02s CPU    247.62s WALL (      11 calls)
     sum_band     :     16.42s CPU     17.06s WALL (      11 calls)
     v_of_rho     :      0.38s CPU      0.39s WALL (      12 calls)
     v_h          :      0.02s CPU      0.02s WALL (      12 calls)
     v_xc         :      0.42s CPU      0.43s WALL (      14 calls)
     newd         :      1.39s CPU      1.69s WALL (      12 calls)
     PAW_pot      :      8.49s CPU      8.72s WALL (      12 calls)
     mix_rho      :      0.25s CPU      0.25s WALL (      11 calls)

     Called by c_bands:
     init_us_2    :      3.46s CPU      3.55s WALL (      50 calls)
     cegterg      :    239.19s CPU    243.45s WALL (      22 calls)

     Called by sum_band:
     sum_band:wei :      0.00s CPU      0.00s WALL (      11 calls)
     sum_band:loo :     15.28s CPU     15.44s WALL (      11 calls)
     sum_band:buf :      0.59s CPU      0.60s WALL (      22 calls)
     sum_band:ini :      1.42s CPU      1.44s WALL (      22 calls)
     sum_band:cal :      8.19s CPU      8.24s WALL (      22 calls)
     sum_band:bec :      0.67s CPU      0.68s WALL (      22 calls)
     addusdens    :      0.89s CPU      1.15s WALL (      11 calls)
                                        0.00s GPU  (      11 calls)
     addusd:skk   :      0.25s CPU      0.50s WALL (      11 calls)
                                        0.00s GPU  (      11 calls)

     Called by *egterg:
     cdiaghg      :     39.32s CPU     39.90s WALL (      90 calls)
     cegterg:over :     30.89s CPU     31.15s WALL (      68 calls)
     cegterg:upda :     21.43s CPU     21.86s WALL (      68 calls)
     cegterg:last :     51.77s CPU     52.22s WALL (      53 calls)
     cdiaghg:chol :      2.66s CPU      2.68s WALL (      90 calls)
     cdiaghg:inve :      1.26s CPU      1.27s WALL (      90 calls)
     cdiaghg:para :     14.87s CPU     15.01s WALL (     180 calls)
     h_psi        :     67.23s CPU     68.85s WALL (      92 calls)
     s_psi        :     21.38s CPU     21.55s WALL (      92 calls)
     g_psi        :      0.64s CPU      0.66s WALL (      68 calls)

     Called by h_psi:
     h_psi:calbec :     23.08s CPU     23.25s WALL (      92 calls)
     vloc_psi     :     21.85s CPU     22.26s WALL (      92 calls)
     add_vuspsi   :     21.06s CPU     21.62s WALL (      92 calls)

     General routines
     calbec       :     43.88s CPU     44.20s WALL (     148 calls)
     fft          :      0.16s CPU      0.17s WALL (     294 calls)
     ffts         :      0.05s CPU      0.05s WALL (      22 calls)
     fftw         :     22.41s CPU     22.81s WALL (  122318 calls)
 
     Parallel routines

     PAW routines
     PAW_pot      :      8.49s CPU      8.72s WALL (      12 calls)
 
     PWSCF        :   4m53.88s CPU   5m11.68s WALL

 
   This run was terminated on:   2:29:24   3Aug2026            

=------------------------------------------------------------------------------=
   JOB DONE.
=------------------------------------------------------------------------------=
