
     Program PWSCF v.7.4.1 starts on 23Aug2026 at  0:40:40 

     This program is part of the open-source Quantum ESPRESSO suite
     for quantum simulation of materials; please cite
         "P. Giannozzi et al., J. Phys.:Condens. Matter 21 395502 (2009);
         "P. Giannozzi et al., J. Phys.:Condens. Matter 29 465901 (2017);
         "P. Giannozzi et al., J. Chem. Phys. 152 154105 (2020);
          URL http://www.quantum-espresso.org", 
     in publications or presentations arising from this work. More details at
     http://www.quantum-espresso.org/quote

     Parallel version (MPI), running on    36 processors

     MPI processes distributed on     1 nodes
     60836 MiB available memory on the printing compute node when the environment starts
 
     Reading input from scf.in

     Current dimensions of program PWSCF are:
     Max number of different atomic species (ntypx) = 10
     Max number of k-points (npk) =  40000
     Max angular momentum in pseudopotentials (lmaxx) =  4
     file C.pbe-n-kjpaw_psl.1.0.0.UPF: wavefunction(s)  2S 2P renormalized
     file N.pbe-n-kjpaw_psl.1.0.0.UPF: wavefunction(s)  2S renormalized
 
     R & G space division:  proc/nbgrp/npool/nimage =      36
     Subspace diagonalization in iterative solution of the eigenvalue problem:
     one sub-group per band group will be used
     scalapack distributed-memory algorithm (size of sub-group:  6*  6 procs)

 
     Parallelization info
     --------------------
     sticks:   dense  smooth     PW     G-vecs:    dense   smooth      PW
     Min         163     163     40                 9409     9409    1174
     Max         164     164     41                 9414     9414    1179
     Sum        5877    5877   1473               338755   338755   42379
 
     Using Slab Decomposition
 


     bravais-lattice index     =            0
     lattice parameter (alat)  =      20.2515  a.u.
     unit-cell volume          =    8305.5769 (a.u.)^3
     number of atoms/cell      =          215
     number of atomic types    =            2
     number of electrons       =       862.00 (up: 432.00, down: 430.00)
     number of Kohn-Sham states=          862
     kinetic-energy cutoff     =      45.0000  Ry
     charge density cutoff     =     180.0000  Ry
     scf convergence threshold =      1.0E-08
     mixing beta               =       0.7000
     number of iterations used =            8  plain     mixing
     Exchange-correlation= SLA  PW   PBX  PBC
                           (   1   4   3   4   0   0   0)

     celldm(1)=  20.251472  celldm(2)=   0.000000  celldm(3)=   0.000000
     celldm(4)=   0.000000  celldm(5)=   0.000000  celldm(6)=   0.000000

     crystal axes: (cart. coord. in units of alat)
               a(1) = (  -0.707107   0.000000   0.707107 )  
               a(2) = (   0.408248   0.816497   0.408248 )  
               a(3) = (  -0.577350   0.577350  -0.577350 )  

     reciprocal axes: (cart. coord. in units 2 pi/alat)
               b(1) = ( -0.707107  0.000000  0.707107 )  
               b(2) = (  0.408248  0.816497  0.408248 )  
               b(3) = ( -0.577350  0.577350 -0.577350 )  


     PseudoPot. # 1 for C  read from file:
     ../../pseudos/C.pbe-n-kjpaw_psl.1.0.0.UPF
     MD5 check sum: 5f16ad9a65e90284d1d834d4ab3b0f7d
     Pseudo is Projector augmented-wave + core cor, Zval =  4.0
     Generated using &quot;atomic&quot; code by A. Dal Corso  v.6.3
     Shape of augmentation charge: PSQ
     Using radial grid of 1073 points,  4 beta functions with: 
                l(1) =   0
                l(2) =   0
                l(3) =   1
                l(4) =   1
     Q(r) pseudized with 0 coefficients 


     PseudoPot. # 2 for N  read from file:
     ../../pseudos/N.pbe-n-kjpaw_psl.1.0.0.UPF
     MD5 check sum: a6186d50559fdcbe4b2d0187dd61a119
     Pseudo is Projector augmented-wave + core cor, Zval =  5.0
     Generated using &quot;atomic&quot; code by A. Dal Corso  v.6.3
     Shape of augmentation charge: PSQ
     Using radial grid of 1085 points,  4 beta functions with: 
                l(1) =   0
                l(2) =   0
                l(3) =   1
                l(4) =   1
     Q(r) pseudized with 0 coefficients 


     atomic species   valence    mass     pseudopotential
     C                 4.00    12.01070     C ( 1.00)
     N                 5.00    14.00670     N ( 1.00)

     Starting magnetic structure 
     atomic species   magnetization
     C               0.000
     N               0.000

     No symmetry found



   Cartesian axes

     site n.     atom                  positions (alat units)
         1        C      tau(   1) = (  -0.0000863   0.0000877   0.0000651  )
         2        C      tau(   2) = (  -0.1925130   0.1926806  -0.1922202  )
         3        C      tau(   3) = (  -0.3850178   0.3848762  -0.3849287  )
         4        C      tau(   4) = (   0.1358033   0.2723435   0.1360961  )
         5        C      tau(   5) = (  -0.0569065   0.4653275  -0.0560009  )
         6        C      tau(   6) = (  -0.2488276   0.6570623  -0.2489749  )
         7        C      tau(   7) = (   0.2721955   0.5443429   0.2722846  )
         8        C      tau(   8) = (   0.0798689   0.7368175   0.0797217  )
         9        C      tau(   9) = (  -0.1130693   0.9287189  -0.1122757  )
        10        C      tau(  10) = (  -0.2357489   0.0002644   0.2356848  )
        11        C      tau(  11) = (  -0.4282854   0.1925448   0.0432110  )
        12        C      tau(  12) = (  -0.6205923   0.3848950  -0.1490631  )
        13        C      tau(  13) = (  -0.0996056   0.2722959   0.3718907  )
        14        C      tau(  14) = (  -0.2940742   0.4659336   0.1810197  )
        15        C      tau(  15) = (  -0.4828751   0.6573061  -0.0135706  )
        16        C      tau(  16) = (   0.0363338   0.5442920   0.5078631  )
        17        C      tau(  17) = (  -0.1555540   0.7367275   0.3137505  )
        18        C      tau(  18) = (  -0.3491142   0.9281043   0.1239184  )
        19        C      tau(  19) = (  -0.4714244   0.0000483   0.4714127  )
        20        C      tau(  20) = (  -0.6639205   0.1924397   0.2788928  )
        21        C      tau(  21) = (  -0.8562600   0.3851204   0.0865946  )
        22        C      tau(  22) = (  -0.3352613   0.2721857   0.6075519  )
        23        C      tau(  23) = (  -0.5280626   0.4644576   0.4153663  )
        24        C      tau(  24) = (  -0.7191532   0.6569442   0.2225807  )
        25        C      tau(  25) = (  -0.1993773   0.5445069   0.7434773  )
        26        C      tau(  26) = (  -0.3916237   0.7364162   0.5501102  )
        27        C      tau(  27) = (  -0.5844476   0.9295070   0.3589114  )
        28        C      tau(  28) = (  -0.0499624   0.1362989   0.1858554  )
        29        C      tau(  29) = (  -0.2426639   0.3294512  -0.0058129  )
        30        C      tau(  30) = (  -0.4348819   0.5208860  -0.1992750  )
        31        C      tau(  31) = (   0.0861050   0.4083146   0.3221147  )
        32        C      tau(  32) = (  -0.1063901   0.6024101   0.1302700  )
        33        C      tau(  33) = (  -0.2992411   0.7918485  -0.0622127  )
        34        C      tau(  34) = (   0.2223868   0.6804236   0.4581743  )
        35        C      tau(  35) = (   0.0300168   0.8730148   0.2657702  )
        36        C      tau(  36) = (  -0.1628602   1.0647502   0.0735473  )
        37        C      tau(  37) = (  -0.2854693   0.1361524   0.4217267  )
        38        C      tau(  38) = (  -0.4781946   0.3282157   0.2292575  )
        39        C      tau(  39) = (  -0.6695100   0.5213160   0.0373080  )
        40        C      tau(  40) = (  -0.1493887   0.4083057   0.5576833  )
        41        C      tau(  41) = (  -0.3428603   0.5992185   0.3630867  )
        42        C      tau(  42) = (  -0.5329620   0.7941497   0.1733623  )
        43        C      tau(  43) = (  -0.0135924   0.6805001   0.6936475  )
        44        C      tau(  44) = (  -0.2060309   0.8727421   0.5005370  )
        45        C      tau(  45) = (  -0.3983481   1.0655605   0.3090437  )
        46        C      tau(  46) = (  -0.5212572   0.1361934   0.6573908  )
        47        C      tau(  47) = (  -0.7137866   0.3286767   0.4649959  )
        48        C      tau(  48) = (  -0.9060293   0.5210923   0.2723361  )
        49        C      tau(  49) = (  -0.3851549   0.4084479   0.7932738  )
        50        C      tau(  50) = (  -0.5777328   0.6008419   0.6009551  )
        51        C      tau(  51) = (  -0.7700183   0.7931330   0.4086010  )
        52        C      tau(  52) = (  -0.2491238   0.6804698   0.9294843  )
        53        C      tau(  53) = (  -0.4414625   0.8728228   0.7368714  )
        54        C      tau(  54) = (  -0.6341110   1.0654107   0.5446987  )
        55        C      tau(  55) = (  -0.2140954   0.0964735   0.0217224  )
        56        C      tau(  56) = (  -0.4066821   0.2887444  -0.1706725  )
        57        C      tau(  57) = (  -0.5990907   0.4810998  -0.3633032  )
        58        C      tau(  58) = (  -0.0789448   0.3691761   0.1579062  )
        59        C      tau(  59) = (  -0.2715766   0.5623292  -0.0349164  )
        60        C      tau(  60) = (  -0.4630836   0.7533686  -0.2273302  )
        61        C      tau(  61) = (   0.0583670   0.6405683   0.2939739  )
        62        C      tau(  62) = (  -0.1347637   0.8317574   0.1022647  )
        63        C      tau(  63) = (  -0.3270652   1.0249074  -0.0906578  )
        64        C      tau(  64) = (  -0.4499218   0.0962495   0.2572742  )
        65        C      tau(  65) = (  -0.6422465   0.2887184   0.0648255  )
        66        C      tau(  66) = (  -0.8345964   0.4812912  -0.1273566  )
        67        C      tau(  67) = (  -0.3137371   0.3681198   0.3937149  )
        68        C      tau(  68) = (  -0.5037455   0.5601812   0.2022016  )
        69        C      tau(  69) = (  -0.6978227   0.7534134   0.0087452  )
        70        C      tau(  70) = (  -0.1782615   0.6405129   0.5285565  )
        71        C      tau(  71) = (  -0.3708281   0.8334900   0.3354962  )
        72        C      tau(  72) = (  -0.5627524   1.0256693   0.1446394  )
        73        C      tau(  73) = (  -0.6855991   0.0963174   0.4930489  )
        74        C      tau(  74) = (  -0.8778755   0.2888938   0.3005532  )
        75        C      tau(  75) = (  -1.0704173   0.4811905   0.1081907  )
        76        C      tau(  76) = (  -0.5495800   0.3685199   0.6292025  )
        77        C      tau(  77) = (  -0.7419108   0.5610056   0.4367770  )
        78        C      tau(  78) = (  -0.9341504   0.7532767   0.2441835  )
        79        C      tau(  79) = (  -0.4132795   0.6406534   0.7650859  )
        80        C      tau(  80) = (  -0.6058792   0.8329599   0.5727401  )
        81        C      tau(  81) = (  -0.7983752   1.0255535   0.3804345  )
        82        C      tau(  82) = (  -0.0284408   0.2326757  -0.0280158  )
        83        C      tau(  83) = (  -0.2206478   0.4244787  -0.2213017  )
        84        C      tau(  84) = (  -0.4131407   0.6172924  -0.4130120  )
        85        C      tau(  85) = (   0.1086133   0.5043708   0.1079594  )
        86        C      tau(  86) = (  -0.0850060   0.6970034  -0.0841154  )
        87        C      tau(  87) = (  -0.2770633   0.8896015  -0.2776187  )
        88        C      tau(  88) = (   0.2438905   0.7767149   0.2440192  )
        89        C      tau(  89) = (   0.0520763   0.9694641   0.0515208  )
        90        C      tau(  90) = (  -0.1410807   1.1613588  -0.1407123  )
        91        C      tau(  91) = (  -0.2639623   0.2322431   0.2076107  )
        92        C      tau(  92) = (  -0.4562631   0.4251029   0.0152550  )
        93        C      tau(  93) = (  -0.6492622   0.6171375  -0.1780022  )
        94        C      tau(  94) = (  -0.1280635   0.5047374   0.3434545  )
        95        C      tau(  95) = (  -0.5124436   0.8891320  -0.0409353  )
        96        C      tau(  96) = (   0.0088855   0.7768309   0.4801455  )
        97        C      tau(  97) = (  -0.1844592   0.9687144   0.2870491  )
        98        C      tau(  98) = (  -0.3768663   1.1622690   0.0948525  )
        99        C      tau(  99) = (  -0.4996782   0.2323148   0.4433092  )
       100        C      tau( 100) = (  -0.6921882   0.4247274   0.2508707  )
       101        C      tau( 101) = (  -0.8841882   0.6173257   0.0584325  )
       102        C      tau( 102) = (  -0.3635996   0.5044564   0.5794593  )
       103        C      tau( 103) = (  -0.5557814   0.6969925   0.3866627  )
       104        C      tau( 104) = (  -0.7491020   0.8899056   0.1946065  )
       105        C      tau( 105) = (  -0.2275504   0.7766528   0.7150703  )
       106        C      tau( 106) = (  -0.4202153   0.9697069   0.5234932  )
       107        C      tau( 107) = (  -0.6123696   1.1615955   0.3305192  )
       108        C      tau( 108) = (  -0.0731390   0.1163967   0.0448964  )
       109        C      tau( 109) = (  -0.2656950   0.3089721  -0.1473982  )
       110        C      tau( 110) = (  -0.4580651   0.5009731  -0.3401581  )
       111        C      tau( 111) = (   0.0627601   0.3886687   0.1810570  )
       112        C      tau( 112) = (  -0.1301504   0.5816032  -0.0109702  )
       113        C      tau( 113) = (  -0.3217358   0.7738999  -0.2050268  )
       114        C      tau( 114) = (   0.1992520   0.6604650   0.3171590  )
       115        C      tau( 115) = (   0.0075539   0.8537989   0.1242628  )
       116        C      tau( 116) = (  -0.1859999   1.0449826  -0.0675554  )
       117        C      tau( 117) = (  -0.3087994   0.1162024   0.2806040  )
       118        C      tau( 118) = (  -0.5012559   0.3086389   0.0880845  )
       119        C      tau( 119) = (  -0.6933299   0.5011902  -0.1041978  )
       120        C      tau( 120) = (  -0.1726462   0.3883730   0.4166942  )
       121        C      tau( 121) = (  -0.5564929   0.7732404   0.0320994  )
       122        C      tau( 122) = (  -0.0367395   0.6605058   0.5523926  )
       123        C      tau( 123) = (  -0.2293492   0.8526188   0.3592431  )
       124        C      tau( 124) = (  -0.4215853   1.0466923   0.1676151  )
       125        C      tau( 125) = (  -0.5445051   0.1161772   0.5163158  )
       126        C      tau( 126) = (  -0.7369403   0.3086479   0.3238545  )
       127        C      tau( 127) = (  -0.9292200   0.5011967   0.1313781  )
       128        C      tau( 128) = (  -0.4084159   0.3883613   0.6523789  )
       129        C      tau( 129) = (  -0.6008987   0.5808686   0.4599563  )
       130        C      tau( 130) = (  -0.7929253   0.7732911   0.2674986  )
       131        C      tau( 131) = (  -0.2723259   0.6605860   0.7882721  )
       132        C      tau( 132) = (  -0.4647899   0.8529101   0.5956340  )
       133        C      tau( 133) = (  -0.6573802   1.0455127   0.4036963  )
       134        C      tau( 134) = (  -0.1230128   0.2525289   0.2308142  )
       135        C      tau( 135) = (  -0.3161326   0.4463612   0.0390020  )
       136        C      tau( 136) = (  -0.5091263   0.6368104  -0.1551038  )
       137        C      tau( 137) = (   0.0131891   0.5244955   0.3668400  )
       138        C      tau( 138) = (  -0.1657395   0.7183788   0.1769583  )
       139        C      tau( 139) = (  -0.3718198   0.9084509  -0.0173983  )
       140        C      tau( 140) = (   0.1495109   0.7967541   0.5032832  )
       141        C      tau( 141) = (  -0.0432654   0.9890351   0.3104420  )
       142        C      tau( 142) = (  -0.2356797   1.1814388   0.1180837  )
       143        C      tau( 143) = (  -0.3585879   0.2520833   0.4666423  )
       144        C      tau( 144) = (  -0.5514897   0.4440833   0.2743998  )
       145        C      tau( 145) = (  -0.7428088   0.6373049   0.0816886  )
       146        C      tau( 146) = (  -0.2225544   0.5244812   0.6023070  )
       147        C      tau( 147) = (  -0.4150638   0.7166455   0.4082155  )
       148        C      tau( 148) = (  -0.6090487   0.9098054   0.2178139  )
       149        C      tau( 149) = (  -0.0865000   0.7965985   0.7384574  )
       150        C      tau( 150) = (  -0.2789218   0.9890473   0.5460503  )
       151        C      tau( 151) = (  -0.4712510   1.1816612   0.3538238  )
       152        C      tau( 152) = (  -0.5944323   0.2524447   0.7022362  )
       153        C      tau( 153) = (  -0.7868425   0.4448621   0.5097864  )
       154        C      tau( 154) = (  -0.9790682   0.6371931   0.3171733  )
       155        C      tau( 155) = (  -0.4578542   0.5242565   0.8381511  )
       156        C      tau( 156) = (  -0.6507736   0.7169272   0.6458426  )
       157        C      tau( 157) = (  -0.8431717   0.9092870   0.4534240  )
       158        C      tau( 158) = (  -0.3221619   0.7966376   0.9743364  )
       159        C      tau( 159) = (  -0.5142794   0.9893774   0.7817631  )
       160        C      tau( 160) = (  -0.7071297   1.1814224   0.5895026  )
       161        C      tau( 161) = (  -0.2872532   0.2126775   0.0665738  )
       162        C      tau( 162) = (  -0.4795977   0.4049254  -0.1259467  )
       163        C      tau( 163) = (  -0.6724129   0.5973220  -0.3186407  )
       164        C      tau( 164) = (  -0.1521351   0.4861537   0.2029996  )
       165        C      tau( 165) = (  -0.3459610   0.6746497  -0.0032632  )
       166        C      tau( 166) = (  -0.5359198   0.8694971  -0.1822124  )
       167        C      tau( 167) = (  -0.0139879   0.7569511   0.3400347  )
       168        C      tau( 168) = (  -0.2078555   0.9482353   0.1465660  )
       169        C      tau( 169) = (  -0.3999142   1.1415888  -0.0461508  )
       170        C      tau( 170) = (  -0.5229691   0.2121978   0.3022612  )
       171        C      tau( 171) = (  -0.7150691   0.4049770   0.1097922  )
       172        C      tau( 172) = (  -0.9075744   0.5973725  -0.0826170  )
       173        C      tau( 173) = (  -0.3869948   0.4839965   0.4388948  )
       174        C      tau( 174) = (  -0.5773262   0.6772740   0.2459530  )
       175        C      tau( 175) = (  -0.7715323   0.8695200   0.0534398  )
       176        C      tau( 176) = (  -0.2508079   0.7566844   0.5736895  )
       177        C      tau( 177) = (  -0.4434447   0.9499877   0.3834180  )
       178        C      tau( 178) = (  -0.6357019   1.1417587   0.1893729  )
       179        C      tau( 179) = (  -0.7586553   0.2125975   0.5380132  )
       180        C      tau( 180) = (  -0.9508448   0.4046369   0.3451605  )
       181        C      tau( 181) = (  -1.1434564   0.5973582   0.1530418  )
       182        C      tau( 182) = (  -0.6225640   0.4847227   0.6740649  )
       183        C      tau( 183) = (  -0.8149650   0.6770877   0.4816512  )
       184        C      tau( 184) = (  -1.0073127   0.8697474   0.2887298  )
       185        C      tau( 185) = (  -0.4862883   0.7567615   0.8099532  )
       186        C      tau( 186) = (  -0.6788901   0.9491484   0.6177057  )
       187        C      tau( 187) = (  -0.8713302   1.1415807   0.4253022  )
       188        C      tau( 188) = (  -0.1016203   0.3490969   0.0169152  )
       189        C      tau( 189) = (  -0.2933054   0.5398005  -0.1769065  )
       190        C      tau( 190) = (  -0.4862782   0.7335260  -0.3682828  )
       191        C      tau( 191) = (   0.0362284   0.6197588   0.1526273  )
       192        C      tau( 192) = (  -0.1581374   0.8124026  -0.0389845  )
       193        C      tau( 193) = (  -0.3500997   1.0054934  -0.2320606  )
       194        C      tau( 194) = (   0.1709525   0.8929969   0.2889478  )
       195        C      tau( 195) = (  -0.0215837   1.0852048   0.0964555  )
       196        C      tau( 196) = (  -0.2140133   1.2776088  -0.0959866  )
       197        C      tau( 197) = (  -0.3371156   0.3477232   0.2527438  )
       198        C      tau( 198) = (  -0.5275981   0.5414140   0.0603650  )
       199        C      tau( 199) = (  -0.7217189   0.7334270  -0.1324664  )
       200        C      tau( 200) = (  -0.2013383   0.6205779   0.3866248  )
       201        C      tau( 201) = (  -0.4006092   0.8239497   0.2006855  )
       202        C      tau( 202) = (  -0.5857070   1.0055179   0.0035952  )
       203        C      tau( 203) = (  -0.0648299   0.8928150   0.5244226  )
       204        C      tau( 204) = (  -0.2572438   1.0852164   0.3320584  )
       205        C      tau( 205) = (  -0.4497068   1.2781897   0.1395660  )
       206        C      tau( 206) = (  -0.5728132   0.3483756   0.4882831  )
       207        C      tau( 207) = (  -0.7648707   0.5410382   0.2956547  )
       208        C      tau( 208) = (  -0.9573708   0.7334192   0.1032261  )
       209        C      tau( 209) = (  -0.4365961   0.6206910   0.6239293  )
       210        C      tau( 210) = (  -0.6290231   0.8131638   0.4317165  )
       211        C      tau( 211) = (  -0.8218996   1.0057286   0.2392528  )
       212        C      tau( 212) = (  -0.3005193   0.8927981   0.7600776  )
       213        C      tau( 213) = (  -0.4929664   1.0855412   0.5681861  )
       214        C      tau( 214) = (  -0.6853871   1.2777410   0.3753551  )
       215        N      tau( 215) = (  -0.3679714   0.5735236   0.2288112  )

     number of k points=     1
                       cart. coord. in units 2pi/alat
        k(    1) = (   0.0000000   0.0000000   0.0000000), wk =   1.0000000

     Dense  grid:   338755 G-vectors     FFT dimensions: (  90,  90,  90)

     Occupations read from input 

      Spin-up

        1.0000   1.0000   1.0000   1.0000   1.0000   1.0000   1.0000   1.0000
        1.0000   1.0000   1.0000   1.0000   1.0000   1.0000   1.0000   1.0000
        1.0000   1.0000   1.0000   1.0000   1.0000   1.0000   1.0000   1.0000
        1.0000   1.0000   1.0000   1.0000   1.0000   1.0000   1.0000   1.0000
        1.0000   1.0000   1.0000   1.0000   1.0000   1.0000   1.0000   1.0000
        1.0000   1.0000   1.0000   1.0000   1.0000   1.0000   1.0000   1.0000
        1.0000   1.0000   1.0000   1.0000   1.0000   1.0000   1.0000   1.0000
        1.0000   1.0000   1.0000   1.0000   1.0000   1.0000   1.0000   1.0000
        1.0000   1.0000   1.0000   1.0000   1.0000   1.0000   1.0000   1.0000
        1.0000   1.0000   1.0000   1.0000   1.0000   1.0000   1.0000   1.0000
        1.0000   1.0000   1.0000   1.0000   1.0000   1.0000   1.0000   1.0000
        1.0000   1.0000   1.0000   1.0000   1.0000   1.0000   1.0000   1.0000
        1.0000   1.0000   1.0000   1.0000   1.0000   1.0000   1.0000   1.0000
        1.0000   1.0000   1.0000   1.0000   1.0000   1.0000   1.0000   1.0000
        1.0000   1.0000   1.0000   1.0000   1.0000   1.0000   1.0000   1.0000
        1.0000   1.0000   1.0000   1.0000   1.0000   1.0000   1.0000   1.0000
        1.0000   1.0000   1.0000   1.0000   1.0000   1.0000   1.0000   1.0000
        1.0000   1.0000   1.0000   1.0000   1.0000   1.0000   1.0000   1.0000
        1.0000   1.0000   1.0000   1.0000   1.0000   1.0000   1.0000   1.0000
        1.0000   1.0000   1.0000   1.0000   1.0000   1.0000   1.0000   1.0000
        1.0000   1.0000   1.0000   1.0000   1.0000   1.0000   1.0000   1.0000
        1.0000   1.0000   1.0000   1.0000   1.0000   1.0000   1.0000   1.0000
        1.0000   1.0000   1.0000   1.0000   1.0000   1.0000   1.0000   1.0000
        1.0000   1.0000   1.0000   1.0000   1.0000   1.0000   1.0000   1.0000
        1.0000   1.0000   1.0000   1.0000   1.0000   1.0000   1.0000   1.0000
        1.0000   1.0000   1.0000   1.0000   1.0000   1.0000   1.0000   1.0000
        1.0000   1.0000   1.0000   1.0000   1.0000   1.0000   1.0000   1.0000
        1.0000   1.0000   1.0000   1.0000   1.0000   1.0000   1.0000   1.0000
        1.0000   1.0000   1.0000   1.0000   1.0000   1.0000   1.0000   1.0000
        1.0000   1.0000   1.0000   1.0000   1.0000   1.0000   1.0000   1.0000
        1.0000   1.0000   1.0000   1.0000   1.0000   1.0000   1.0000   1.0000
        1.0000   1.0000   1.0000   1.0000   1.0000   1.0000   1.0000   1.0000
        1.0000   1.0000   1.0000   1.0000   1.0000   1.0000   1.0000   1.0000
        1.0000   1.0000   1.0000   1.0000   1.0000   1.0000   1.0000   1.0000
        1.0000   1.0000   1.0000   1.0000   1.0000   1.0000   1.0000   1.0000
        1.0000   1.0000   1.0000   1.0000   1.0000   1.0000   1.0000   1.0000
        1.0000   1.0000   1.0000   1.0000   1.0000   1.0000   1.0000   1.0000
        1.0000   1.0000   1.0000   1.0000   1.0000   1.0000   1.0000   1.0000
        1.0000   1.0000   1.0000   1.0000   1.0000   1.0000   1.0000   1.0000
        1.0000   1.0000   1.0000   1.0000   1.0000   1.0000   1.0000   1.0000
        1.0000   1.0000   1.0000   1.0000   1.0000   1.0000   1.0000   1.0000
        1.0000   1.0000   1.0000   1.0000   1.0000   1.0000   1.0000   1.0000
        1.0000   1.0000   1.0000   1.0000   1.0000   1.0000   1.0000   1.0000
        1.0000   1.0000   1.0000   1.0000   1.0000   1.0000   1.0000   1.0000
        1.0000   1.0000   1.0000   1.0000   1.0000   1.0000   1.0000   1.0000
        1.0000   1.0000   1.0000   1.0000   1.0000   1.0000   1.0000   1.0000
        1.0000   1.0000   1.0000   1.0000   1.0000   1.0000   1.0000   1.0000
        1.0000   1.0000   1.0000   1.0000   1.0000   1.0000   1.0000   1.0000
        1.0000   1.0000   1.0000   1.0000   1.0000   1.0000   1.0000   1.0000
        1.0000   1.0000   1.0000   1.0000   1.0000   1.0000   1.0000   1.0000
        1.0000   1.0000   1.0000   1.0000   1.0000   1.0000   1.0000   1.0000
        1.0000   1.0000   1.0000   1.0000   1.0000   1.0000   1.0000   1.0000
        1.0000   1.0000   1.0000   1.0000   1.0000   1.0000   1.0000   1.0000
        1.0000   1.0000   1.0000   1.0000   1.0000   1.0000   1.0000   1.0000
        0.0000   0.0000   0.0000   0.0000   0.0000   0.0000   0.0000   0.0000
        0.0000   0.0000   0.0000   0.0000   0.0000   0.0000   0.0000   0.0000
        0.0000   0.0000   0.0000   0.0000   0.0000   0.0000   0.0000   0.0000
        0.0000   0.0000   0.0000   0.0000   0.0000   0.0000   0.0000   0.0000
        0.0000   0.0000   0.0000   0.0000   0.0000   0.0000   0.0000   0.0000
        0.0000   0.0000   0.0000   0.0000   0.0000   0.0000   0.0000   0.0000
        0.0000   0.0000   0.0000   0.0000   0.0000   0.0000   0.0000   0.0000
        0.0000   0.0000   0.0000   0.0000   0.0000   0.0000   0.0000   0.0000
        0.0000   0.0000   0.0000   0.0000   0.0000   0.0000   0.0000   0.0000
        0.0000   0.0000   0.0000   0.0000   0.0000   0.0000   0.0000   0.0000
        0.0000   0.0000   0.0000   0.0000   0.0000   0.0000   0.0000   0.0000
        0.0000   0.0000   0.0000   0.0000   0.0000   0.0000   0.0000   0.0000
        0.0000   0.0000   0.0000   0.0000   0.0000   0.0000   0.0000   0.0000
        0.0000   0.0000   0.0000   0.0000   0.0000   0.0000   0.0000   0.0000
        0.0000   0.0000   0.0000   0.0000   0.0000   0.0000   0.0000   0.0000
        0.0000   0.0000   0.0000   0.0000   0.0000   0.0000   0.0000   0.0000
        0.0000   0.0000   0.0000   0.0000   0.0000   0.0000   0.0000   0.0000
        0.0000   0.0000   0.0000   0.0000   0.0000   0.0000   0.0000   0.0000
        0.0000   0.0000   0.0000   0.0000   0.0000   0.0000   0.0000   0.0000
        0.0000   0.0000   0.0000   0.0000   0.0000   0.0000   0.0000   0.0000
        0.0000   0.0000   0.0000   0.0000   0.0000   0.0000   0.0000   0.0000
        0.0000   0.0000   0.0000   0.0000   0.0000   0.0000   0.0000   0.0000
        0.0000   0.0000   0.0000   0.0000   0.0000   0.0000   0.0000   0.0000
        0.0000   0.0000   0.0000   0.0000   0.0000   0.0000   0.0000   0.0000
        0.0000   0.0000   0.0000   0.0000   0.0000   0.0000   0.0000   0.0000
        0.0000   0.0000   0.0000   0.0000   0.0000   0.0000   0.0000   0.0000
        0.0000   0.0000   0.0000   0.0000   0.0000   0.0000   0.0000   0.0000
        0.0000   0.0000   0.0000   0.0000   0.0000   0.0000   0.0000   0.0000
        0.0000   0.0000   0.0000   0.0000   0.0000   0.0000   0.0000   0.0000
        0.0000   0.0000   0.0000   0.0000   0.0000   0.0000   0.0000   0.0000
        0.0000   0.0000   0.0000   0.0000   0.0000   0.0000   0.0000   0.0000
        0.0000   0.0000   0.0000   0.0000   0.0000   0.0000   0.0000   0.0000
        0.0000   0.0000   0.0000   0.0000   0.0000   0.0000   0.0000   0.0000
        0.0000   0.0000   0.0000   0.0000   0.0000   0.0000   0.0000   0.0000
        0.0000   0.0000   0.0000   0.0000   0.0000   0.0000   0.0000   0.0000
        0.0000   0.0000   0.0000   0.0000   0.0000   0.0000   0.0000   0.0000
        0.0000   0.0000   0.0000   0.0000   0.0000   0.0000   0.0000   0.0000
        0.0000   0.0000   0.0000   0.0000   0.0000   0.0000   0.0000   0.0000
        0.0000   0.0000   0.0000   0.0000   0.0000   0.0000   0.0000   0.0000
        0.0000   0.0000   0.0000   0.0000   0.0000   0.0000   0.0000   0.0000
        0.0000   0.0000   0.0000   0.0000   0.0000   0.0000   0.0000   0.0000
        0.0000   0.0000   0.0000   0.0000   0.0000   0.0000   0.0000   0.0000
        0.0000   0.0000   0.0000   0.0000   0.0000   0.0000   0.0000   0.0000
        0.0000   0.0000   0.0000   0.0000   0.0000   0.0000   0.0000   0.0000
        0.0000   0.0000   0.0000   0.0000   0.0000   0.0000   0.0000   0.0000
        0.0000   0.0000   0.0000   0.0000   0.0000   0.0000   0.0000   0.0000
        0.0000   0.0000   0.0000   0.0000   0.0000   0.0000   0.0000   0.0000
        0.0000   0.0000   0.0000   0.0000   0.0000   0.0000   0.0000   0.0000
        0.0000   0.0000   0.0000   0.0000   0.0000   0.0000   0.0000   0.0000
        0.0000   0.0000   0.0000   0.0000   0.0000   0.0000   0.0000   0.0000
        0.0000   0.0000   0.0000   0.0000   0.0000   0.0000   0.0000   0.0000
        0.0000   0.0000   0.0000   0.0000   0.0000   0.0000   0.0000   0.0000
        0.0000   0.0000   0.0000   0.0000   0.0000   0.0000   0.0000   0.0000
        0.0000   0.0000   0.0000   0.0000   0.0000   0.0000

      Spin-down

        1.0000   1.0000   1.0000   1.0000   1.0000   1.0000   1.0000   1.0000
        1.0000   1.0000   1.0000   1.0000   1.0000   1.0000   1.0000   1.0000
        1.0000   1.0000   1.0000   1.0000   1.0000   1.0000   1.0000   1.0000
        1.0000   1.0000   1.0000   1.0000   1.0000   1.0000   1.0000   1.0000
        1.0000   1.0000   1.0000   1.0000   1.0000   1.0000   1.0000   1.0000
        1.0000   1.0000   1.0000   1.0000   1.0000   1.0000   1.0000   1.0000
        1.0000   1.0000   1.0000   1.0000   1.0000   1.0000   1.0000   1.0000
        1.0000   1.0000   1.0000   1.0000   1.0000   1.0000   1.0000   1.0000
        1.0000   1.0000   1.0000   1.0000   1.0000   1.0000   1.0000   1.0000
        1.0000   1.0000   1.0000   1.0000   1.0000   1.0000   1.0000   1.0000
        1.0000   1.0000   1.0000   1.0000   1.0000   1.0000   1.0000   1.0000
        1.0000   1.0000   1.0000   1.0000   1.0000   1.0000   1.0000   1.0000
        1.0000   1.0000   1.0000   1.0000   1.0000   1.0000   1.0000   1.0000
        1.0000   1.0000   1.0000   1.0000   1.0000   1.0000   1.0000   1.0000
        1.0000   1.0000   1.0000   1.0000   1.0000   1.0000   1.0000   1.0000
        1.0000   1.0000   1.0000   1.0000   1.0000   1.0000   1.0000   1.0000
        1.0000   1.0000   1.0000   1.0000   1.0000   1.0000   1.0000   1.0000
        1.0000   1.0000   1.0000   1.0000   1.0000   1.0000   1.0000   1.0000
        1.0000   1.0000   1.0000   1.0000   1.0000   1.0000   1.0000   1.0000
        1.0000   1.0000   1.0000   1.0000   1.0000   1.0000   1.0000   1.0000
        1.0000   1.0000   1.0000   1.0000   1.0000   1.0000   1.0000   1.0000
        1.0000   1.0000   1.0000   1.0000   1.0000   1.0000   1.0000   1.0000
        1.0000   1.0000   1.0000   1.0000   1.0000   1.0000   1.0000   1.0000
        1.0000   1.0000   1.0000   1.0000   1.0000   1.0000   1.0000   1.0000
        1.0000   1.0000   1.0000   1.0000   1.0000   1.0000   1.0000   1.0000
        1.0000   1.0000   1.0000   1.0000   1.0000   1.0000   1.0000   1.0000
        1.0000   1.0000   1.0000   1.0000   1.0000   1.0000   1.0000   1.0000
        1.0000   1.0000   1.0000   1.0000   1.0000   1.0000   1.0000   1.0000
        1.0000   1.0000   1.0000   1.0000   1.0000   1.0000   1.0000   1.0000
        1.0000   1.0000   1.0000   1.0000   1.0000   1.0000   1.0000   1.0000
        1.0000   1.0000   1.0000   1.0000   1.0000   1.0000   1.0000   1.0000
        1.0000   1.0000   1.0000   1.0000   1.0000   1.0000   1.0000   1.0000
        1.0000   1.0000   1.0000   1.0000   1.0000   1.0000   1.0000   1.0000
        1.0000   1.0000   1.0000   1.0000   1.0000   1.0000   1.0000   1.0000
        1.0000   1.0000   1.0000   1.0000   1.0000   1.0000   1.0000   1.0000
        1.0000   1.0000   1.0000   1.0000   1.0000   1.0000   1.0000   1.0000
        1.0000   1.0000   1.0000   1.0000   1.0000   1.0000   1.0000   1.0000
        1.0000   1.0000   1.0000   1.0000   1.0000   1.0000   1.0000   1.0000
        1.0000   1.0000   1.0000   1.0000   1.0000   1.0000   1.0000   1.0000
        1.0000   1.0000   1.0000   1.0000   1.0000   1.0000   1.0000   1.0000
        1.0000   1.0000   1.0000   1.0000   1.0000   1.0000   1.0000   1.0000
        1.0000   1.0000   1.0000   1.0000   1.0000   1.0000   1.0000   1.0000
        1.0000   1.0000   1.0000   1.0000   1.0000   1.0000   1.0000   1.0000
        1.0000   1.0000   1.0000   1.0000   1.0000   1.0000   1.0000   1.0000
        1.0000   1.0000   1.0000   1.0000   1.0000   1.0000   1.0000   1.0000
        1.0000   1.0000   1.0000   1.0000   1.0000   1.0000   1.0000   1.0000
        1.0000   1.0000   1.0000   1.0000   1.0000   1.0000   1.0000   1.0000
        1.0000   1.0000   1.0000   1.0000   1.0000   1.0000   1.0000   1.0000
        1.0000   1.0000   1.0000   1.0000   1.0000   1.0000   1.0000   1.0000
        1.0000   1.0000   1.0000   1.0000   1.0000   1.0000   1.0000   1.0000
        1.0000   1.0000   1.0000   1.0000   1.0000   1.0000   1.0000   1.0000
        1.0000   1.0000   1.0000   1.0000   1.0000   1.0000   1.0000   1.0000
        1.0000   1.0000   1.0000   1.0000   1.0000   1.0000   1.0000   1.0000
        1.0000   1.0000   1.0000   1.0000   1.0000   0.0000   0.5000   0.5000
        0.0000   0.0000   0.0000   0.0000   0.0000   0.0000   0.0000   0.0000
        0.0000   0.0000   0.0000   0.0000   0.0000   0.0000   0.0000   0.0000
        0.0000   0.0000   0.0000   0.0000   0.0000   0.0000   0.0000   0.0000
        0.0000   0.0000   0.0000   0.0000   0.0000   0.0000   0.0000   0.0000
        0.0000   0.0000   0.0000   0.0000   0.0000   0.0000   0.0000   0.0000
        0.0000   0.0000   0.0000   0.0000   0.0000   0.0000   0.0000   0.0000
        0.0000   0.0000   0.0000   0.0000   0.0000   0.0000   0.0000   0.0000
        0.0000   0.0000   0.0000   0.0000   0.0000   0.0000   0.0000   0.0000
        0.0000   0.0000   0.0000   0.0000   0.0000   0.0000   0.0000   0.0000
        0.0000   0.0000   0.0000   0.0000   0.0000   0.0000   0.0000   0.0000
        0.0000   0.0000   0.0000   0.0000   0.0000   0.0000   0.0000   0.0000
        0.0000   0.0000   0.0000   0.0000   0.0000   0.0000   0.0000   0.0000
        0.0000   0.0000   0.0000   0.0000   0.0000   0.0000   0.0000   0.0000
        0.0000   0.0000   0.0000   0.0000   0.0000   0.0000   0.0000   0.0000
        0.0000   0.0000   0.0000   0.0000   0.0000   0.0000   0.0000   0.0000
        0.0000   0.0000   0.0000   0.0000   0.0000   0.0000   0.0000   0.0000
        0.0000   0.0000   0.0000   0.0000   0.0000   0.0000   0.0000   0.0000
        0.0000   0.0000   0.0000   0.0000   0.0000   0.0000   0.0000   0.0000
        0.0000   0.0000   0.0000   0.0000   0.0000   0.0000   0.0000   0.0000
        0.0000   0.0000   0.0000   0.0000   0.0000   0.0000   0.0000   0.0000
        0.0000   0.0000   0.0000   0.0000   0.0000   0.0000   0.0000   0.0000
        0.0000   0.0000   0.0000   0.0000   0.0000   0.0000   0.0000   0.0000
        0.0000   0.0000   0.0000   0.0000   0.0000   0.0000   0.0000   0.0000
        0.0000   0.0000   0.0000   0.0000   0.0000   0.0000   0.0000   0.0000
        0.0000   0.0000   0.0000   0.0000   0.0000   0.0000   0.0000   0.0000
        0.0000   0.0000   0.0000   0.0000   0.0000   0.0000   0.0000   0.0000
        0.0000   0.0000   0.0000   0.0000   0.0000   0.0000   0.0000   0.0000
        0.0000   0.0000   0.0000   0.0000   0.0000   0.0000   0.0000   0.0000
        0.0000   0.0000   0.0000   0.0000   0.0000   0.0000   0.0000   0.0000
        0.0000   0.0000   0.0000   0.0000   0.0000   0.0000   0.0000   0.0000
        0.0000   0.0000   0.0000   0.0000   0.0000   0.0000   0.0000   0.0000
        0.0000   0.0000   0.0000   0.0000   0.0000   0.0000   0.0000   0.0000
        0.0000   0.0000   0.0000   0.0000   0.0000   0.0000   0.0000   0.0000
        0.0000   0.0000   0.0000   0.0000   0.0000   0.0000   0.0000   0.0000
        0.0000   0.0000   0.0000   0.0000   0.0000   0.0000   0.0000   0.0000
        0.0000   0.0000   0.0000   0.0000   0.0000   0.0000   0.0000   0.0000
        0.0000   0.0000   0.0000   0.0000   0.0000   0.0000   0.0000   0.0000
        0.0000   0.0000   0.0000   0.0000   0.0000   0.0000   0.0000   0.0000
        0.0000   0.0000   0.0000   0.0000   0.0000   0.0000   0.0000   0.0000
        0.0000   0.0000   0.0000   0.0000   0.0000   0.0000   0.0000   0.0000
        0.0000   0.0000   0.0000   0.0000   0.0000   0.0000   0.0000   0.0000
        0.0000   0.0000   0.0000   0.0000   0.0000   0.0000   0.0000   0.0000
        0.0000   0.0000   0.0000   0.0000   0.0000   0.0000   0.0000   0.0000
        0.0000   0.0000   0.0000   0.0000   0.0000   0.0000   0.0000   0.0000
        0.0000   0.0000   0.0000   0.0000   0.0000   0.0000   0.0000   0.0000
        0.0000   0.0000   0.0000   0.0000   0.0000   0.0000   0.0000   0.0000
        0.0000   0.0000   0.0000   0.0000   0.0000   0.0000   0.0000   0.0000
        0.0000   0.0000   0.0000   0.0000   0.0000   0.0000   0.0000   0.0000
        0.0000   0.0000   0.0000   0.0000   0.0000   0.0000   0.0000   0.0000
        0.0000   0.0000   0.0000   0.0000   0.0000   0.0000   0.0000   0.0000
        0.0000   0.0000   0.0000   0.0000   0.0000   0.0000   0.0000   0.0000
        0.0000   0.0000   0.0000   0.0000   0.0000   0.0000   0.0000   0.0000
        0.0000   0.0000   0.0000   0.0000   0.0000   0.0000   0.0000   0.0000
        0.0000   0.0000   0.0000   0.0000   0.0000   0.0000

     Estimated max dynamical RAM per process >     206.76 MB

     Estimated total dynamical RAM >       7.27 GB

     Check: negative core charge=   -0.000075
     Generating pointlists ...
     new r_m :   0.0571 (alat units)  1.1560 (a.u.) for type    1
     new r_m :   0.0573 (alat units)  1.1612 (a.u.) for type    2

     Initial potential from superposition of free atoms

     starting charge     860.9911, renormalised to     862.0000
     Starting wfcs are random
     Checking if some PAW data can be deallocated... 

     total cpu time spent up to now is        6.4 secs

     per-process dynamical memory:   193.2 Mb

     Self-consistent Calculation

     iteration #  1     ecut=    45.00 Ry     beta= 0.70
     Davidson diagonalization with overlap
     ethr =  1.00E-02,  avg # of iterations =  9.0

     total cpu time spent up to now is       80.2 secs

     total energy              =   -3970.07687364 Ry
     estimated scf accuracy    <      12.74356708 Ry

     total magnetization       =     2.00 Bohr mag/cell
     absolute magnetization    =     2.13 Bohr mag/cell

     iteration #  2     ecut=    45.00 Ry     beta= 0.70
     Davidson diagonalization with overlap
     ethr =  1.48E-03,  avg # of iterations =  4.0

     total cpu time spent up to now is       99.7 secs

     total energy              =   -3968.09856554 Ry
     estimated scf accuracy    <       5.13591382 Ry

     total magnetization       =     2.00 Bohr mag/cell
     absolute magnetization    =     2.36 Bohr mag/cell

     iteration #  3     ecut=    45.00 Ry     beta= 0.70
     Davidson diagonalization with overlap
     ethr =  5.96E-04,  avg # of iterations =  5.5

     total cpu time spent up to now is      128.8 secs

     total energy              =   -3969.12905538 Ry
     estimated scf accuracy    <      20.25857120 Ry

     total magnetization       =     2.00 Bohr mag/cell
     absolute magnetization    =     2.12 Bohr mag/cell

     iteration #  4     ecut=    45.00 Ry     beta= 0.70
     Davidson diagonalization with overlap
     ethr =  5.96E-04,  avg # of iterations =  6.0

     total cpu time spent up to now is      152.3 secs

     total energy              =   -3971.11990483 Ry
     estimated scf accuracy    <       1.24083067 Ry

     total magnetization       =     2.00 Bohr mag/cell
     absolute magnetization    =     2.08 Bohr mag/cell

     iteration #  5     ecut=    45.00 Ry     beta= 0.70
     Davidson diagonalization with overlap
     ethr =  1.44E-04,  avg # of iterations =  8.5

     total cpu time spent up to now is      174.7 secs

     total energy              =   -3971.22453185 Ry
     estimated scf accuracy    <       0.30001374 Ry

     total magnetization       =     2.00 Bohr mag/cell
     absolute magnetization    =     2.07 Bohr mag/cell

     iteration #  6     ecut=    45.00 Ry     beta= 0.70
     Davidson diagonalization with overlap
     ethr =  3.48E-05,  avg # of iterations = 10.0

     total cpu time spent up to now is      197.6 secs

     total energy              =   -3971.21539468 Ry
     estimated scf accuracy    <       0.11138253 Ry

     total magnetization       =     2.00 Bohr mag/cell
     absolute magnetization    =     2.11 Bohr mag/cell

     iteration #  7     ecut=    45.00 Ry     beta= 0.70
     Davidson diagonalization with overlap
     ethr =  1.29E-05,  avg # of iterations =  8.0

     total cpu time spent up to now is      219.9 secs

     total energy              =   -3971.22150382 Ry
     estimated scf accuracy    <       0.02035083 Ry

     total magnetization       =     2.00 Bohr mag/cell
     absolute magnetization    =     2.14 Bohr mag/cell

     iteration #  8     ecut=    45.00 Ry     beta= 0.70
     Davidson diagonalization with overlap
     ethr =  2.36E-06,  avg # of iterations = 16.0

     total cpu time spent up to now is      249.6 secs

     total energy              =   -3971.22502823 Ry
     estimated scf accuracy    <       0.00259059 Ry

     total magnetization       =     2.00 Bohr mag/cell
     absolute magnetization    =     2.17 Bohr mag/cell

     iteration #  9     ecut=    45.00 Ry     beta= 0.70
     Davidson diagonalization with overlap
     ethr =  3.01E-07,  avg # of iterations =  2.5

     total cpu time spent up to now is      268.4 secs

     total energy              =   -3971.22562404 Ry
     estimated scf accuracy    <       0.00041130 Ry

     total magnetization       =     2.00 Bohr mag/cell
     absolute magnetization    =     2.19 Bohr mag/cell

     iteration # 10     ecut=    45.00 Ry     beta= 0.70
     Davidson diagonalization with overlap
     ethr =  4.77E-08,  avg # of iterations =  2.0

     total cpu time spent up to now is      286.9 secs

     total energy              =   -3971.22575016 Ry
     estimated scf accuracy    <       0.00007966 Ry

     total magnetization       =     2.00 Bohr mag/cell
     absolute magnetization    =     2.20 Bohr mag/cell

     iteration # 11     ecut=    45.00 Ry     beta= 0.70
     Davidson diagonalization with overlap
     ethr =  9.24E-09,  avg # of iterations =  3.0

     total cpu time spent up to now is      306.1 secs

     total energy              =   -3971.22577542 Ry
     estimated scf accuracy    <       0.00002519 Ry

     total magnetization       =     2.00 Bohr mag/cell
     absolute magnetization    =     2.20 Bohr mag/cell

     iteration # 12     ecut=    45.00 Ry     beta= 0.70
     Davidson diagonalization with overlap
     ethr =  2.92E-09,  avg # of iterations =  2.0

     total cpu time spent up to now is      324.6 secs

     total energy              =   -3971.22578251 Ry
     estimated scf accuracy    <       0.00000391 Ry

     total magnetization       =     2.00 Bohr mag/cell
     absolute magnetization    =     2.21 Bohr mag/cell

     iteration # 13     ecut=    45.00 Ry     beta= 0.70
     Davidson diagonalization with overlap
     ethr =  4.54E-10,  avg # of iterations =  3.0

     total cpu time spent up to now is      343.8 secs

     total energy              =   -3971.22578373 Ry
     estimated scf accuracy    <       0.00000134 Ry

     total magnetization       =     2.00 Bohr mag/cell
     absolute magnetization    =     2.21 Bohr mag/cell

     iteration # 14     ecut=    45.00 Ry     beta= 0.70
     Davidson diagonalization with overlap
     ethr =  1.55E-10,  avg # of iterations =  2.5

     total cpu time spent up to now is      362.6 secs

     total energy              =   -3971.22578409 Ry
     estimated scf accuracy    <       0.00000021 Ry

     total magnetization       =     2.00 Bohr mag/cell
     absolute magnetization    =     2.21 Bohr mag/cell

     iteration # 15     ecut=    45.00 Ry     beta= 0.70
     Davidson diagonalization with overlap
     ethr =  2.41E-11,  avg # of iterations =  2.5

     total cpu time spent up to now is      381.4 secs

     total energy              =   -3971.22578415 Ry
     estimated scf accuracy    <       0.00000009 Ry

     total magnetization       =     2.00 Bohr mag/cell
     absolute magnetization    =     2.21 Bohr mag/cell

     iteration # 16     ecut=    45.00 Ry     beta= 0.70
     Davidson diagonalization with overlap
     ethr =  9.93E-12,  avg # of iterations =  2.0

     total cpu time spent up to now is      399.8 secs

     total energy              =   -3971.22578417 Ry
     estimated scf accuracy    <       0.00000001 Ry

     total magnetization       =     2.00 Bohr mag/cell
     absolute magnetization    =     2.21 Bohr mag/cell

     iteration # 17     ecut=    45.00 Ry     beta= 0.70
     Davidson diagonalization with overlap
     ethr =  1.20E-12,  avg # of iterations =  2.0
 
     Magnetic moment per site  (integrated on atomic sphere of radius R)
     atom   1 (R=0.057)  charge=  1.8360  magn=  0.0001
     atom   2 (R=0.057)  charge=  1.8368  magn= -0.0000
     atom   3 (R=0.057)  charge=  1.8373  magn= -0.0000
     atom   4 (R=0.057)  charge=  1.8368  magn= -0.0000
     atom   5 (R=0.057)  charge=  1.8351  magn= -0.0002
     atom   6 (R=0.057)  charge=  1.8359  magn= -0.0009
     atom   7 (R=0.057)  charge=  1.8373  magn= -0.0000
     atom   8 (R=0.057)  charge=  1.8359  magn= -0.0009
     atom   9 (R=0.057)  charge=  1.8351  magn= -0.0003
     atom  10 (R=0.057)  charge=  1.8423  magn=  0.0016
     atom  11 (R=0.057)  charge=  1.8374  magn= -0.0001
     atom  12 (R=0.057)  charge=  1.8373  magn= -0.0002
     atom  13 (R=0.057)  charge=  1.8374  magn= -0.0001
     atom  14 (R=0.057)  charge=  1.8052  magn=  0.0003
     atom  15 (R=0.057)  charge=  1.8422  magn= -0.0033
     atom  16 (R=0.057)  charge=  1.8373  magn= -0.0002
     atom  17 (R=0.057)  charge=  1.8422  magn= -0.0033
     atom  18 (R=0.057)  charge=  1.8384  magn=  0.0006
     atom  19 (R=0.057)  charge=  1.8357  magn=  0.0001
     atom  20 (R=0.057)  charge=  1.8375  magn=  0.0000
     atom  21 (R=0.057)  charge=  1.8372  magn= -0.0001
     atom  22 (R=0.057)  charge=  1.8375  magn=  0.0000
     atom  23 (R=0.057)  charge=  1.8388  magn= -0.0002
     atom  24 (R=0.057)  charge=  1.8324  magn= -0.0002
     atom  25 (R=0.057)  charge=  1.8372  magn= -0.0001
     atom  26 (R=0.057)  charge=  1.8324  magn= -0.0002
     atom  27 (R=0.057)  charge=  1.8373  magn= -0.0009
     atom  28 (R=0.057)  charge=  1.8373  magn= -0.0001
     atom  29 (R=0.057)  charge=  1.8321  magn= -0.0002
     atom  30 (R=0.057)  charge=  1.8369  magn= -0.0009
     atom  31 (R=0.057)  charge=  1.8376  magn= -0.0002
     atom  32 (R=0.057)  charge=  1.8418  magn= -0.0033
     atom  33 (R=0.057)  charge=  1.8383  magn=  0.0006
     atom  34 (R=0.057)  charge=  1.8373  magn= -0.0000
     atom  35 (R=0.057)  charge=  1.8361  magn= -0.0009
     atom  36 (R=0.057)  charge=  1.8351  magn= -0.0003
     atom  37 (R=0.057)  charge=  1.8377  magn=  0.0000
     atom  38 (R=0.057)  charge=  1.8387  magn= -0.0002
     atom  39 (R=0.057)  charge=  1.8322  magn= -0.0002
     atom  40 (R=0.057)  charge=  1.8372  magn= -0.0001
     atom  41 (R=0.057)  charge=  1.8055  magn=  0.0003
     atom  42 (R=0.057)  charge=  1.8421  magn= -0.0033
     atom  43 (R=0.057)  charge=  1.8366  magn= -0.0000
     atom  44 (R=0.057)  charge=  1.8352  magn= -0.0002
     atom  45 (R=0.057)  charge=  1.8363  magn= -0.0009
     atom  46 (R=0.057)  charge=  1.8360  magn=  0.0001
     atom  47 (R=0.057)  charge=  1.8379  magn=  0.0000
     atom  48 (R=0.057)  charge=  1.8370  magn= -0.0001
     atom  49 (R=0.057)  charge=  1.8422  magn=  0.0016
     atom  50 (R=0.057)  charge=  1.8375  magn= -0.0001
     atom  51 (R=0.057)  charge=  1.8373  magn= -0.0002
     atom  52 (R=0.057)  charge=  1.8359  magn=  0.0001
     atom  53 (R=0.057)  charge=  1.8363  magn= -0.0000
     atom  54 (R=0.057)  charge=  1.8375  magn= -0.0000
     atom  55 (R=0.057)  charge=  1.8373  magn= -0.0001
     atom  56 (R=0.057)  charge=  1.8376  magn= -0.0002
     atom  57 (R=0.057)  charge=  1.8373  magn= -0.0000
     atom  58 (R=0.057)  charge=  1.8321  magn= -0.0002
     atom  59 (R=0.057)  charge=  1.8418  magn= -0.0033
     atom  60 (R=0.057)  charge=  1.8361  magn= -0.0009
     atom  61 (R=0.057)  charge=  1.8369  magn= -0.0009
     atom  62 (R=0.057)  charge=  1.8383  magn=  0.0006
     atom  63 (R=0.057)  charge=  1.8351  magn= -0.0003
     atom  64 (R=0.057)  charge=  1.8377  magn=  0.0000
     atom  65 (R=0.057)  charge=  1.8372  magn= -0.0001
     atom  66 (R=0.057)  charge=  1.8366  magn= -0.0000
     atom  67 (R=0.057)  charge=  1.8387  magn= -0.0002
     atom  68 (R=0.057)  charge=  1.8055  magn=  0.0003
     atom  69 (R=0.057)  charge=  1.8352  magn= -0.0002
     atom  70 (R=0.057)  charge=  1.8322  magn= -0.0002
     atom  71 (R=0.057)  charge=  1.8421  magn= -0.0033
     atom  72 (R=0.057)  charge=  1.8363  magn= -0.0009
     atom  73 (R=0.057)  charge=  1.8360  magn=  0.0001
     atom  74 (R=0.057)  charge=  1.8422  magn=  0.0016
     atom  75 (R=0.057)  charge=  1.8359  magn=  0.0001
     atom  76 (R=0.057)  charge=  1.8379  magn=  0.0000
     atom  77 (R=0.057)  charge=  1.8375  magn= -0.0001
     atom  78 (R=0.057)  charge=  1.8363  magn= -0.0000
     atom  79 (R=0.057)  charge=  1.8370  magn= -0.0001
     atom  80 (R=0.057)  charge=  1.8373  magn= -0.0002
     atom  81 (R=0.057)  charge=  1.8375  magn= -0.0000
     atom  82 (R=0.057)  charge=  1.8368  magn=  0.0000
     atom  83 (R=0.057)  charge=  1.8440  magn=  0.0021
     atom  84 (R=0.057)  charge=  1.8364  magn=  0.0000
     atom  85 (R=0.057)  charge=  1.8440  magn=  0.0021
     atom  86 (R=0.057)  charge=  1.8390  magn= -0.0008
     atom  87 (R=0.057)  charge=  1.8416  magn=  0.0037
     atom  88 (R=0.057)  charge=  1.8364  magn=  0.0000
     atom  89 (R=0.057)  charge=  1.8416  magn=  0.0037
     atom  90 (R=0.057)  charge=  1.8368  magn=  0.0004
     atom  91 (R=0.057)  charge=  1.8392  magn=  0.0010
     atom  92 (R=0.057)  charge=  1.8408  magn= -0.0006
     atom  93 (R=0.057)  charge=  1.8440  magn=  0.0021
     atom  94 (R=0.057)  charge=  1.8408  magn= -0.0006
     atom  95 (R=0.057)  charge=  1.8389  magn= -0.0008
     atom  96 (R=0.057)  charge=  1.8440  magn=  0.0021
     atom  97 (R=0.057)  charge=  1.8389  magn= -0.0008
     atom  98 (R=0.057)  charge=  1.8416  magn=  0.0037
     atom  99 (R=0.057)  charge=  1.8373  magn=  0.0001
     atom 100 (R=0.057)  charge=  1.8393  magn=  0.0010
     atom 101 (R=0.057)  charge=  1.8365  magn=  0.0000
     atom 102 (R=0.057)  charge=  1.8393  magn=  0.0010
     atom 103 (R=0.057)  charge=  1.8405  magn= -0.0006
     atom 104 (R=0.057)  charge=  1.8440  magn=  0.0021
     atom 105 (R=0.057)  charge=  1.8365  magn=  0.0000
     atom 106 (R=0.057)  charge=  1.8440  magn=  0.0021
     atom 107 (R=0.057)  charge=  1.8362  magn=  0.0000
     atom 108 (R=0.057)  charge=  1.8368  magn=  0.0002
     atom 109 (R=0.057)  charge=  1.8335  magn=  0.0001
     atom 110 (R=0.057)  charge=  1.8373  magn=  0.0012
     atom 111 (R=0.057)  charge=  1.8335  magn=  0.0001
     atom 112 (R=0.057)  charge=  1.8314  magn=  0.0054
     atom 113 (R=0.057)  charge=  1.8330  magn=  0.0157
     atom 114 (R=0.057)  charge=  1.8373  magn=  0.0012
     atom 115 (R=0.057)  charge=  1.8330  magn=  0.0157
     atom 116 (R=0.057)  charge=  1.8347  magn=  0.0008
     atom 117 (R=0.057)  charge=  1.8369  magn=  0.0009
     atom 118 (R=0.057)  charge=  1.8365  magn=  0.0010
     atom 119 (R=0.057)  charge=  1.8335  magn=  0.0001
     atom 120 (R=0.057)  charge=  1.8365  magn=  0.0010
     atom 121 (R=0.057)  charge=  1.8316  magn=  0.0054
     atom 122 (R=0.057)  charge=  1.8335  magn=  0.0001
     atom 123 (R=0.057)  charge=  1.8316  magn=  0.0054
     atom 124 (R=0.057)  charge=  1.8330  magn=  0.0157
     atom 125 (R=0.057)  charge=  1.8362  magn=  0.0006
     atom 126 (R=0.057)  charge=  1.8369  magn=  0.0009
     atom 127 (R=0.057)  charge=  1.8368  magn=  0.0002
     atom 128 (R=0.057)  charge=  1.8369  magn=  0.0009
     atom 129 (R=0.057)  charge=  1.8365  magn=  0.0010
     atom 130 (R=0.057)  charge=  1.8335  magn=  0.0001
     atom 131 (R=0.057)  charge=  1.8368  magn=  0.0002
     atom 132 (R=0.057)  charge=  1.8335  magn=  0.0001
     atom 133 (R=0.057)  charge=  1.8373  magn=  0.0012
     atom 134 (R=0.057)  charge=  1.8358  magn=  0.0001
     atom 135 (R=0.057)  charge=  1.8305  magn=  0.0040
     atom 136 (R=0.057)  charge=  1.8350  magn=  0.0158
     atom 137 (R=0.057)  charge=  1.8362  magn=  0.0012
     atom 138 (R=0.057)  charge=  1.8609  magn=  0.1922
     atom 139 (R=0.057)  charge=  1.8331  magn=  0.0049
     atom 140 (R=0.057)  charge=  1.8388  magn=  0.0014
     atom 141 (R=0.057)  charge=  1.8362  magn=  0.0010
     atom 142 (R=0.057)  charge=  1.8349  magn=  0.0002
     atom 143 (R=0.057)  charge=  1.8377  magn=  0.0010
     atom 144 (R=0.057)  charge=  1.8384  magn=  0.0071
     atom 145 (R=0.057)  charge=  1.8356  magn=  0.0001
     atom 146 (R=0.057)  charge=  1.8358  magn=  0.0001
     atom 147 (R=0.057)  charge=  1.8305  magn=  0.0040
     atom 148 (R=0.057)  charge=  1.8350  magn=  0.0158
     atom 149 (R=0.057)  charge=  1.8364  magn=  0.0003
     atom 150 (R=0.057)  charge=  1.8351  magn=  0.0001
     atom 151 (R=0.057)  charge=  1.8369  magn=  0.0011
     atom 152 (R=0.057)  charge=  1.8364  magn=  0.0003
     atom 153 (R=0.057)  charge=  1.8351  magn=  0.0001
     atom 154 (R=0.057)  charge=  1.8369  magn=  0.0011
     atom 155 (R=0.057)  charge=  1.8389  magn=  0.0014
     atom 156 (R=0.057)  charge=  1.8362  magn=  0.0010
     atom 157 (R=0.057)  charge=  1.8349  magn=  0.0002
     atom 158 (R=0.057)  charge=  1.8362  magn=  0.0006
     atom 159 (R=0.057)  charge=  1.8366  magn=  0.0017
     atom 160 (R=0.057)  charge=  1.8368  magn=  0.0003
     atom 161 (R=0.057)  charge=  1.8358  magn=  0.0001
     atom 162 (R=0.057)  charge=  1.8362  magn=  0.0012
     atom 163 (R=0.057)  charge=  1.8388  magn=  0.0014
     atom 164 (R=0.057)  charge=  1.8305  magn=  0.0040
     atom 165 (R=0.057)  charge=  1.8609  magn=  0.1922
     atom 166 (R=0.057)  charge=  1.8362  magn=  0.0010
     atom 167 (R=0.057)  charge=  1.8350  magn=  0.0157
     atom 168 (R=0.057)  charge=  1.8331  magn=  0.0049
     atom 169 (R=0.057)  charge=  1.8349  magn=  0.0002
     atom 170 (R=0.057)  charge=  1.8377  magn=  0.0010
     atom 171 (R=0.057)  charge=  1.8358  magn=  0.0001
     atom 172 (R=0.057)  charge=  1.8364  magn=  0.0003
     atom 173 (R=0.057)  charge=  1.8384  magn=  0.0071
     atom 174 (R=0.057)  charge=  1.8305  magn=  0.0040
     atom 175 (R=0.057)  charge=  1.8351  magn=  0.0001
     atom 176 (R=0.057)  charge=  1.8356  magn=  0.0001
     atom 177 (R=0.057)  charge=  1.8350  magn=  0.0158
     atom 178 (R=0.057)  charge=  1.8369  magn=  0.0011
     atom 179 (R=0.057)  charge=  1.8364  magn=  0.0003
     atom 180 (R=0.057)  charge=  1.8389  magn=  0.0014
     atom 181 (R=0.057)  charge=  1.8362  magn=  0.0006
     atom 182 (R=0.057)  charge=  1.8351  magn=  0.0001
     atom 183 (R=0.057)  charge=  1.8362  magn=  0.0010
     atom 184 (R=0.057)  charge=  1.8366  magn=  0.0017
     atom 185 (R=0.057)  charge=  1.8369  magn=  0.0011
     atom 186 (R=0.057)  charge=  1.8349  magn=  0.0002
     atom 187 (R=0.057)  charge=  1.8368  magn=  0.0003
     atom 188 (R=0.057)  charge=  1.8353  magn=  0.0001
     atom 189 (R=0.057)  charge=  1.8350  magn=  0.0158
     atom 190 (R=0.057)  charge=  1.8369  magn=  0.0011
     atom 191 (R=0.057)  charge=  1.8350  magn=  0.0158
     atom 192 (R=0.057)  charge=  1.8330  magn=  0.0049
     atom 193 (R=0.057)  charge=  1.8349  magn=  0.0002
     atom 194 (R=0.057)  charge=  1.8369  magn=  0.0011
     atom 195 (R=0.057)  charge=  1.8349  magn=  0.0002
     atom 196 (R=0.057)  charge=  1.8368  magn=  0.0003
     atom 197 (R=0.057)  charge=  1.8384  magn=  0.0071
     atom 198 (R=0.057)  charge=  1.8304  magn=  0.0040
     atom 199 (R=0.057)  charge=  1.8351  magn=  0.0001
     atom 200 (R=0.057)  charge=  1.8304  magn=  0.0040
     atom 201 (R=0.057)  charge=  1.8609  magn=  0.1922
     atom 202 (R=0.057)  charge=  1.8362  magn=  0.0010
     atom 203 (R=0.057)  charge=  1.8351  magn=  0.0001
     atom 204 (R=0.057)  charge=  1.8362  magn=  0.0010
     atom 205 (R=0.057)  charge=  1.8365  magn=  0.0017
     atom 206 (R=0.057)  charge=  1.8377  magn=  0.0010
     atom 207 (R=0.057)  charge=  1.8358  magn=  0.0001
     atom 208 (R=0.057)  charge=  1.8364  magn=  0.0003
     atom 209 (R=0.057)  charge=  1.8358  magn=  0.0001
     atom 210 (R=0.057)  charge=  1.8362  magn=  0.0012
     atom 211 (R=0.057)  charge=  1.8387  magn=  0.0014
     atom 212 (R=0.057)  charge=  1.8364  magn=  0.0003
     atom 213 (R=0.057)  charge=  1.8387  magn=  0.0014
     atom 214 (R=0.057)  charge=  1.8362  magn=  0.0006
     atom 215 (R=0.057)  charge=  2.9146  magn=  0.1213

     total cpu time spent up to now is      418.4 secs

     End of self-consistent calculation

 ------ SPIN UP ------------


          k = 0.0000 0.0000 0.0000 ( 42379 PWs)   bands (ev):

    -8.3095  -7.5696  -7.2906  -7.2906  -7.2380  -7.2380  -7.1610  -6.6984
    -6.2963  -6.2963  -6.2797  -6.2797  -6.2641  -6.2348  -6.2326  -6.2326
    -6.1784  -6.1784  -6.0125  -5.5494  -5.2633  -5.2605  -5.2605  -5.2302
    -5.2302  -5.2297  -5.0672  -4.4970  -4.2752  -4.2752  -4.2507  -4.2507
    -4.1955  -3.9115  -3.4028  -3.4027  -3.3819  -3.3819  -3.3774  -3.3631
    -3.3631  -3.3610  -3.3575  -3.3500  -3.3499  -3.3317  -3.3262  -3.3262
    -3.2978  -3.2977  -3.2923  -3.2899  -3.2898  -3.2735  -3.1985  -3.1985
    -3.0323  -2.8505  -2.6354  -2.6354  -2.5909  -2.5820  -2.5820  -2.5747
    -2.5669  -2.5669  -2.5658  -2.5461  -2.5461  -2.5279  -2.5278  -2.5218
    -2.5062  -2.5062  -2.4828  -2.4591  -2.4591  -2.4109  -2.3059  -2.3059
    -1.6512  -1.0810  -0.9174  -0.9174  -0.8749  -0.8749  -0.8614  -0.8552
    -0.8536  -0.8536  -0.7976  -0.7976  -0.4539   0.3306   0.3912   0.3913
     0.4108   0.4108   0.4506   0.6559   0.8203   0.8203   0.8908   0.8928
     0.8928   0.8958   0.8958   0.9088   0.9088   0.9099   0.9152   0.9460
     0.9460   0.9684   0.9823   1.0177   1.0177   1.0340   1.0354   1.0355
     1.0615   1.0615   1.0825   1.1054   1.1058   1.1058   1.1325   1.1339
     1.1342   1.1342   1.1409   1.1410   1.1419   1.1742   1.1743   1.1955
     1.1955   1.1987   1.2060   1.2060   1.2083   1.2083   1.2209   1.4317
     1.5670   1.5671   1.9412   2.1875   2.1875   2.1904   2.2357   2.2398
     2.2398   2.2488   2.2775   2.2775   2.4156   2.4156   3.3642   3.6916
     3.6916   3.7227   3.7811   3.7917   3.7948   3.7948   3.7956   3.7956
     3.8083   3.8132   3.8258   3.8271   3.8271   3.8446   3.8447   3.9593
     3.9593   3.9654   4.0126   4.3351   4.3351   4.3738   4.4364   4.4493
     4.4493   4.4513   4.4560   4.4560   4.4653   4.4653   4.4774   4.4869
     4.4876   4.4876   4.4912   4.4912   4.5025   4.5137   4.5137   4.5257
     4.7422   4.7422   5.2108   5.2108   5.2508   5.3121   5.3121   5.3132
     5.3155   5.3172   5.3172   5.3307   5.3348   5.3348   5.3581   5.3581
     5.4042   5.4087   5.4087   5.4284   5.4367   5.4682   5.4682   5.5135
     5.5400   5.5400   5.6110   5.7263   5.7263   5.8163   5.8352   5.8352
     5.8444   5.8574   5.8574   5.8593   5.8628   5.8636   5.8636   5.8783
     5.8783   5.8810   5.9013   5.9128   5.9129   5.9146   5.9382   5.9383
     5.9489   5.9766   5.9766   6.0118   6.0118   6.3025   6.3518   6.3518
     6.8394   6.8394   6.8995   6.9089   6.9376   6.9376   7.0597   7.3504
     7.3504   7.4447   7.4508   7.4508   7.4691   7.4731   7.4732   7.5063
     7.5565   7.5565   7.6937   7.6938   7.8149   7.8542   7.8622   7.8665
     7.8666   7.8711   7.8711   7.8987   7.9250   7.9250   7.9360   8.0429
     8.0429   8.0883   8.1081   8.1126   8.1127   8.1334   8.1343   8.1344
     8.1377   8.1377   8.1377   8.1505   8.1506   8.1574   8.1813   8.1813
     8.1894   8.2030   8.2030   8.2040   8.2040   8.2207   8.2661   8.2661
     8.2931   8.3109   8.3189   8.3189   8.3209   8.3279   8.3318   8.3318
     8.3367   8.3367   8.3424   8.3511   8.3520   8.3520   8.3539   8.3539
     8.3619   8.3642   8.3646   8.3646   8.3781   8.3781   8.3857   8.3867
     8.3911   8.3912   8.4019   8.4019   8.4298   8.4298   8.4478   8.4519
     8.4519   8.4830   8.4830   8.4867   8.5062   8.5374   8.5500   8.5519
     8.5519   8.6696   8.6697   8.9108   8.9210   8.9211   9.0819   9.0819
     9.1460   9.1571   9.1571   9.1616   9.1953   9.1953   9.1955   9.2054
     9.2100   9.2101   9.2165   9.2285   9.2286   9.2343   9.2343   9.2580
     9.3316   9.3317   9.3670   9.9219  10.1367  10.1367  10.4751  10.5044
    10.5044  10.5710  10.5719  10.5719  10.5963  10.6041  10.6041  10.6106
    10.6673  10.6673  10.6869  10.7624  10.7624  10.8281  10.8330  10.8330
    10.8337  10.8337  10.8372  10.8372  10.8454  10.8785  10.8785  10.8964
    10.8986  10.8986  10.9041  10.9409  10.9409  11.4239  11.5228  11.5228
    11.7203  11.7352  11.7352  11.7486  11.7782  11.7814  11.7814  11.8021
    11.8608  11.8608  12.9602  13.0118  13.0119  13.8481  15.2440  15.2442
    17.2963  17.2963  17.3022  17.3584  17.3584  17.3702  17.8358  17.9461
    17.9461  17.9539  17.9540  18.0172  18.0781  18.0781  18.1326  18.1958
    18.1958  18.1980  18.8096  18.8096  18.8286  19.3347  19.4689  19.4689
    19.4856  19.5123  19.5123  19.5314  19.5406  19.5406  19.5478  19.5478
    19.5904  19.9392  20.1759  20.1759  20.2130  20.2169  20.2169  20.2270
    20.2271  20.2280  20.2289  20.2289  20.2468  20.2468  20.2506  20.2585
    20.2874  20.2874  20.2904  20.3243  20.3244  20.3567  20.3709  20.3716
    20.3716  20.5891  20.6460  20.6461  20.7055  20.7157  20.7175  20.7175
    20.7275  20.7276  20.7424  20.7520  20.7523  20.7523  20.7788  20.7788
    20.8078  20.8078  20.8151  20.8229  20.8272  20.8272  20.8396  20.8484
    20.8485  20.8581  20.8581  20.8641  20.8682  20.8682  20.8832  20.8832
    20.8975  20.9133  20.9133  20.9502  20.9569  21.0065  21.0146  21.0146
    21.0778  21.0778  21.0859  21.1739  21.2806  21.2806  21.3129  21.3246
    21.3246  21.3381  21.3381  21.3381  21.3494  21.3495  21.3533  21.3636
    21.3744  21.3744  21.3983  21.3984  21.4005  21.4069  21.4069  21.4135
    21.4135  21.4136  21.4266  21.4267  21.4304  21.4480  21.4532  21.4532
    21.4703  21.4703  21.5036  21.5036  21.5117  21.5136  21.5940  21.6200
    21.6200  21.6296  21.6524  21.6524  21.6614  21.6647  21.6864  21.6864
    21.7034  21.7034  21.7213  21.7499  21.7499  21.7704  21.8008  21.8261
    21.8261  21.9327  21.9327  21.9720  22.0122  22.0122  22.1087  22.1087
    22.1353  22.1839  22.1855  22.1855  22.1977  22.2047  22.2047  22.3396
    22.3529  22.3529  22.3992  22.4547  22.4547  22.4854  22.4861  22.4861
    22.6354  22.6875  22.6875  22.8072  22.9427  22.9427  22.9808  23.1007
    23.1007  23.1075  23.1217  23.1217  23.1299  23.1299  23.1394  23.1394
    23.1431  23.1481  23.1705  23.1828  23.2017  23.2017  23.2120  23.2738
    23.3049  23.3049  23.3574  23.3574  23.4120  23.4571  23.4571  23.7673
    23.7673  23.7819  23.7869  23.7941  23.8059  23.8059  23.8126  23.8260
    23.8260  23.8454  23.8454  23.8556  23.8557  23.8622  23.8960  23.8963
    23.9681  23.9681  23.9843  24.1027  24.1027  24.1865  24.1865  24.2240
    24.2248  24.2248  24.2528  24.2716  24.2716  24.2742  24.2854  24.2854
    24.2977  24.3188  24.3188  24.3489  24.3765  24.3765  24.3987  24.3987
    24.3995  24.4017  24.4017  24.4070  24.4696  24.4702  24.4739  24.4739
    24.4850  24.4869  24.4869  24.5056  24.5097  24.5097  24.5221  24.5222
    24.5399  24.5602  24.5602  24.5614  24.6741  24.6742  24.7285  24.7950
    24.7950  24.9138  24.9138  25.5114  25.5242  25.5243  25.6071  25.7330
    25.7997  25.7997  25.8055  25.8055  25.9947  25.9947  26.0011  26.0185
    26.0358  26.0358  26.1026  26.1293  26.1514  26.1515  26.2236  26.2811
    26.2812  26.4281  26.5607  26.5607  26.5682  26.6266  26.6425  26.6425
    26.6455  26.6714  26.6714  26.6926  26.6946  26.6946  26.7471  26.7486
    26.7486  26.7817  26.7817  26.7847  26.8206  26.8441  26.8441  26.9452
    26.9452  27.0355  27.0355  27.0738  27.0907  27.1000  27.1000  27.1171
    27.1220  27.1220  27.1234  27.1321  27.1321  27.1556  27.1556  27.1767
    27.1925  27.2140  27.2140  27.2425  27.2425  27.2497  27.2623  27.2623
    27.2671  27.2804  27.2858  27.2859  27.2939  27.3066  27.3066  27.3091
    27.3092  27.3155  27.3250  27.3330  27.3387  27.3387  27.3607  27.3607
    27.3686  27.3706  27.3834  27.3834  27.3958  27.3958  27.4033  27.4153
    27.4293  27.4293  27.4670  27.4860  27.4860  27.4976  27.4976  27.5141
    27.5141  27.5229  27.5463  27.5463  27.5496  27.5579  27.5822  27.5892
    27.5892  27.5941  27.5941  27.5970  27.6021  27.6021  27.6091  27.6436
    27.6436  27.7195  27.7195  27.7308  27.7737  27.8821  27.8821  27.8829
    27.9181  27.9351  27.9352  27.9886  28.0529  28.0529  28.0963  28.0963
    28.1177  28.1554  28.1554  28.2757  28.3231  28.3306  28.3306  28.3451
    28.3698  28.3698  28.5921  28.6869  28.6871  28.8229  29.7118  29.8028
    29.8028  29.8381  29.9368  29.9368  30.0098  30.0606

 ------ SPIN DOWN ----------


          k = 0.0000 0.0000 0.0000 ( 42379 PWs)   bands (ev):

    -8.2998  -7.5330  -7.2877  -7.2877  -7.2319  -7.2319  -7.1483  -6.6697
    -6.2934  -6.2934  -6.2771  -6.2771  -6.2605  -6.2302  -6.2266  -6.2266
    -6.1642  -6.1642  -5.9904  -5.5312  -5.2584  -5.2535  -5.2535  -5.2224
    -5.2173  -5.2173  -5.0447  -4.4716  -4.2693  -4.2693  -4.2423  -4.2422
    -4.1881  -3.8852  -3.3958  -3.3958  -3.3791  -3.3791  -3.3761  -3.3593
    -3.3593  -3.3585  -3.3550  -3.3471  -3.3471  -3.3301  -3.3223  -3.3223
    -3.2861  -3.2860  -3.2827  -3.2794  -3.2793  -3.2688  -3.1788  -3.1788
    -3.0206  -2.8411  -2.6308  -2.6308  -2.5874  -2.5774  -2.5774  -2.5668
    -2.5641  -2.5632  -2.5632  -2.5391  -2.5390  -2.5219  -2.5219  -2.5129
    -2.5017  -2.5017  -2.4725  -2.4481  -2.4481  -2.3994  -2.2531  -2.2531
    -1.5974  -1.0671  -0.9118  -0.9118  -0.8651  -0.8651  -0.8563  -0.8501
    -0.8474  -0.8474  -0.7715  -0.7715  -0.3997   0.3466   0.3957   0.3958
     0.4177   0.4177   0.4562   0.6808   0.8289   0.8289   0.8911   0.8954
     0.8954   0.8979   0.8979   0.9128   0.9145   0.9146   0.9173   0.9491
     0.9491   0.9758   0.9924   1.0268   1.0268   1.0393   1.0465   1.0465
     1.0748   1.0748   1.0868   1.1105   1.1106   1.1154   1.1362   1.1365
     1.1397   1.1397   1.1456   1.1457   1.1515   1.1778   1.1778   1.2013
     1.2013   1.2045   1.2113   1.2113   1.2282   1.2283   1.2496   1.4521
     1.6080   1.6080   1.9604   2.1953   2.1953   2.2104   2.2438   2.2438
     2.2439   2.2525   2.2837   2.2837   2.4669   2.4669   3.4294   3.7035
     3.7035   3.7360   3.7883   3.7973   3.7973   3.7973   3.8005   3.8005
     3.8160   3.8174   3.8310   3.8316   3.8316   3.8534   3.8535   3.9735
     3.9735   3.9781   4.0303   4.3462   4.3462   4.3978   4.4397   4.4524
     4.4528   4.4528   4.4610   4.4610   4.4709   4.4709   4.4803   4.4927
     4.4927   4.4992   4.4992   4.5040   4.5151   4.5234   4.5234   4.5339
     4.7913   4.7913   5.2235   5.2235   5.2670   5.3140   5.3140   5.3174
     5.3179   5.3201   5.3201   5.3327   5.3387   5.3387   5.3618   5.3618
     5.4129   5.4154   5.4154   5.4387   5.4424   5.4801   5.4801   5.5241
     5.5490   5.5491   5.6436   5.7357   5.7357   5.8297   5.8381   5.8381
     5.8487   5.8615   5.8615   5.8677   5.8693   5.8705   5.8705   5.8839
     5.8840   5.8882   5.9132   5.9177   5.9245   5.9245   5.9477   5.9477
     5.9670   5.9905   5.9905   6.0247   6.0248   6.3355   6.3894   6.3894
     6.8490   6.8490   6.9070   6.9260   6.9529   6.9529   7.1275   7.3671
     7.3671   7.4539   7.4539   7.4567   7.4732   7.4796   7.4796   7.5245
     7.5698   7.5698   7.7044   7.7044   7.8369   7.8593   7.8714   7.8714
     7.8816   7.8817   7.8824   7.9061   7.9341   7.9341   7.9518   8.0538
     8.0539   8.0926   8.1111   8.1154   8.1154   8.1361   8.1370   8.1370
     8.1404   8.1412   8.1413   8.1529   8.1530   8.1635   8.1876   8.1876
     8.1943   8.2076   8.2076   8.2160   8.2160   8.2277   8.2719   8.2719
     8.3010   8.3217   8.3217   8.3226   8.3265   8.3303   8.3354   8.3354
     8.3393   8.3393   8.3468   8.3553   8.3557   8.3557   8.3606   8.3606
     8.3656   8.3678   8.3678   8.3690   8.3841   8.3841   8.3915   8.3992
     8.3992   8.4051   8.4158   8.4159   8.4366   8.4366   8.4544   8.4573
     8.4573   8.4951   8.4951   8.5014   8.5371   8.5463   8.5547   8.5727
     8.5727   8.7013   8.7014   8.9295   8.9370   8.9370   9.0887   9.0887
     9.1491   9.1605   9.1605   9.1636   9.2001   9.2001   9.2005   9.2182
     9.2238   9.2242   9.2242   9.2365   9.2365   9.2500   9.2500   9.2621
     9.3616   9.3616   9.3953  10.0026  10.1920  10.1921  10.5196  10.5196
    10.5751  10.5751  10.5754  10.5917  10.5988  10.6155  10.6155  10.6421
    10.6721  10.6721  10.6959  10.7675  10.7675  10.8372  10.8378  10.8379
    10.8409  10.8409  10.8490  10.8490  10.8498  10.8887  10.8887  10.9103
    10.9104  10.9126  10.9175  10.9508  10.9508  11.4950  11.5464  11.5464
    11.7433  11.7433  11.7509  11.7815  11.7880  11.7881  11.8124  11.8778
    11.8778  12.0074  13.0408  13.0409  13.0617  14.5988  16.1919  16.1920
    17.3004  17.3004  17.3174  17.3695  17.3695  17.3810  17.8469  17.9532
    17.9533  17.9599  17.9599  18.0268  18.0835  18.0835  18.1634  18.2083
    18.2121  18.2121  18.8264  18.8265  18.8415  19.3537  19.4723  19.4723
    19.4880  19.5212  19.5213  19.5370  19.5453  19.5453  19.5531  19.5531
    19.5983  19.9549  20.1800  20.1800  20.2156  20.2198  20.2198  20.2300
    20.2301  20.2305  20.2367  20.2367  20.2544  20.2545  20.2557  20.2638
    20.2956  20.2956  20.2957  20.3301  20.3301  20.3655  20.3800  20.3800
    20.3803  20.6007  20.6566  20.6566  20.7074  20.7171  20.7203  20.7204
    20.7305  20.7305  20.7447  20.7549  20.7550  20.7554  20.7832  20.7832
    20.8121  20.8122  20.8186  20.8314  20.8314  20.8358  20.8432  20.8611
    20.8611  20.8640  20.8640  20.8680  20.8781  20.8782  20.8919  20.8919
    20.9025  20.9210  20.9210  20.9571  20.9650  21.0176  21.0205  21.0205
    21.0854  21.0854  21.0932  21.1831  21.2879  21.2880  21.3158  21.3292
    21.3292  21.3416  21.3416  21.3425  21.3543  21.3543  21.3560  21.3777
    21.3785  21.3785  21.4031  21.4047  21.4047  21.4124  21.4124  21.4208
    21.4209  21.4209  21.4345  21.4345  21.4356  21.4623  21.4657  21.4657
    21.4837  21.4837  21.5214  21.5215  21.5256  21.5357  21.5999  21.6308
    21.6308  21.6330  21.6572  21.6572  21.6648  21.6801  21.6933  21.6934
    21.7111  21.7112  21.7330  21.7561  21.7561  21.7753  21.8220  21.8449
    21.8449  21.9544  21.9545  21.9782  22.0272  22.0273  22.1122  22.1122
    22.1373  22.1913  22.2001  22.2001  22.2056  22.2120  22.2120  22.3477
    22.3631  22.3631  22.4230  22.4633  22.4633  22.4904  22.4904  22.4928
    22.6561  22.7209  22.7209  22.8707  22.9589  22.9589  22.9978  23.1069
    23.1069  23.1095  23.1249  23.1249  23.1345  23.1345  23.1427  23.1427
    23.1472  23.1538  23.1751  23.1956  23.2154  23.2155  23.2320  23.3156
    23.3396  23.3396  23.3764  23.3764  23.4379  23.4873  23.4873  23.7773
    23.7773  23.7891  23.7988  23.8106  23.8106  23.8156  23.8271  23.8316
    23.8316  23.8542  23.8542  23.8624  23.8624  23.8688  23.9025  23.9143
    23.9854  23.9854  23.9929  24.1141  24.1141  24.2008  24.2009  24.2306
    24.2306  24.2312  24.2554  24.2758  24.2758  24.2809  24.2904  24.2904
    24.3037  24.3268  24.3268  24.3536  24.3863  24.3863  24.4054  24.4076
    24.4076  24.4163  24.4163  24.4174  24.4721  24.4887  24.4887  24.4888
    24.4903  24.4987  24.4987  24.5146  24.5187  24.5187  24.5288  24.5288
    24.5442  24.5650  24.5650  24.5851  24.7166  24.7166  24.7506  24.8984
    24.8985  24.9700  24.9700  25.5639  25.5670  25.5670  25.6381  25.7464
    25.8103  25.8103  25.8207  25.8207  26.0029  26.0041  26.0042  26.0237
    26.0467  26.0467  26.1311  26.1378  26.1667  26.1668  26.2499  26.3104
    26.3104  26.4449  26.5700  26.5700  26.5895  26.6332  26.6487  26.6487
    26.6511  26.6772  26.6772  26.7025  26.7025  26.7069  26.7573  26.7573
    26.7610  26.7881  26.7881  26.7901  26.8283  26.8570  26.8570  26.9685
    26.9685  27.0467  27.0467  27.0825  27.0932  27.1044  27.1044  27.1218
    27.1256  27.1256  27.1271  27.1354  27.1354  27.1619  27.1619  27.1884
    27.1965  27.2192  27.2193  27.2488  27.2488  27.2539  27.2669  27.2669
    27.2775  27.2838  27.2932  27.2933  27.2998  27.3122  27.3122  27.3183
    27.3184  27.3254  27.3272  27.3395  27.3490  27.3490  27.3690  27.3691
    27.3742  27.3812  27.3886  27.3886  27.4032  27.4032  27.4238  27.4348
    27.4380  27.4381  27.4726  27.4930  27.4930  27.5137  27.5137  27.5223
    27.5223  27.5398  27.5514  27.5514  27.5539  27.5621  27.5881  27.5965
    27.5965  27.6020  27.6020  27.6080  27.6097  27.6097  27.6128  27.6727
    27.6727  27.7446  27.7446  27.7868  27.8065  27.9000  27.9131  27.9131
    27.9261  27.9515  27.9515  28.0205  28.0707  28.0707  28.1304  28.1304
    28.1309  28.1829  28.1829  28.3047  28.3391  28.3704  28.3705  28.3938
    28.4372  28.4372  28.6571  28.7769  28.7771  28.9113  29.7564  29.8184
    29.8184  29.9279  29.9596  29.9597  30.0207  30.0681

     highest occupied, lowest unoccupied level (ev):    15.24418658   14.59884267

!    total energy              =   -3971.22578418 Ry
     total all-electron energy =    -16414.041387 Ry
     estimated scf accuracy    <          2.6E-09 Ry

     The total energy is the sum of the following terms:
     one-electron contribution =     885.14829900 Ry
     hartree contribution      =     218.44449751 Ry
     xc contribution           =   -1009.07263508 Ry
     ewald contribution        =   -2738.97074809 Ry
     one-center paw contrib.   =   -1326.77519751 Ry

     total magnetization       =     2.00 Bohr mag/cell
     absolute magnetization    =     2.21 Bohr mag/cell

     convergence has been achieved in  17 iterations

     Forces acting on atoms (cartesian axes, Ry/au):

     atom    1 type  1   force =     0.00006325   -0.00002547   -0.00005700
     atom    2 type  1   force =     0.00015105   -0.00002958    0.00001482
     atom    3 type  1   force =     0.00009456    0.00006038   -0.00009513
     atom    4 type  1   force =    -0.00000299   -0.00006710   -0.00013938
     atom    5 type  1   force =    -0.00010711    0.00003528    0.00009849
     atom    6 type  1   force =    -0.00008142   -0.00000693    0.00010139
     atom    7 type  1   force =     0.00008088    0.00005697   -0.00010878
     atom    8 type  1   force =    -0.00009928   -0.00001123    0.00008365
     atom    9 type  1   force =     0.00008192   -0.00002318   -0.00007629
     atom   10 type  1   force =     0.00014822    0.00005564   -0.00016162
     atom   11 type  1   force =     0.00008109   -0.00013914    0.00016896
     atom   12 type  1   force =    -0.00011163    0.00002376    0.00002277
     atom   13 type  1   force =    -0.00012900   -0.00019019   -0.00004115
     atom   14 type  1   force =     0.00136750    0.00036029   -0.00145489
     atom   15 type  1   force =     0.00161708    0.00027891   -0.00079686
     atom   16 type  1   force =    -0.00003084    0.00004330    0.00010344
     atom   17 type  1   force =     0.00075448    0.00006954   -0.00165944
     atom   18 type  1   force =     0.00121646   -0.00139573   -0.00087778
     atom   19 type  1   force =    -0.00003142    0.00001836    0.00002702
     atom   20 type  1   force =     0.00001044   -0.00001886    0.00002563
     atom   21 type  1   force =    -0.00006355    0.00000994    0.00003720
     atom   22 type  1   force =    -0.00002019   -0.00002633   -0.00000497
     atom   23 type  1   force =     0.00005487    0.00003823   -0.00006420
     atom   24 type  1   force =     0.00009623   -0.00015422   -0.00012075
     atom   25 type  1   force =    -0.00004026    0.00001556    0.00006053
     atom   26 type  1   force =     0.00015636   -0.00013959   -0.00006063
     atom   27 type  1   force =     0.00017566    0.00002831   -0.00018255
     atom   28 type  1   force =    -0.00001250   -0.00008270   -0.00007242
     atom   29 type  1   force =     0.00008641    0.00003762    0.00017570
     atom   30 type  1   force =     0.00011189    0.00019726    0.00006026
     atom   31 type  1   force =     0.00002212   -0.00009799   -0.00009008
     atom   32 type  1   force =     0.00017923    0.00164950    0.00052802
     atom   33 type  1   force =     0.00049242    0.00059011    0.00188177
     atom   34 type  1   force =     0.00004996    0.00011780   -0.00002210
     atom   35 type  1   force =    -0.00005358   -0.00012723   -0.00006883
     atom   36 type  1   force =     0.00004418    0.00006711    0.00003334
     atom   37 type  1   force =    -0.00002836   -0.00003027   -0.00000116
     atom   38 type  1   force =     0.00003972    0.00006619   -0.00002976
     atom   39 type  1   force =     0.00001883    0.00005246    0.00018556
     atom   40 type  1   force =    -0.00017506   -0.00006846    0.00012660
     atom   41 type  1   force =     0.00086224    0.00176138    0.00046049
     atom   42 type  1   force =     0.00124483    0.00120022    0.00043892
     atom   43 type  1   force =    -0.00006502    0.00007782    0.00006993
     atom   44 type  1   force =    -0.00005482   -0.00011417   -0.00010156
     atom   45 type  1   force =    -0.00004677   -0.00012873   -0.00006529
     atom   46 type  1   force =    -0.00000122   -0.00004473   -0.00006561
     atom   47 type  1   force =     0.00002934   -0.00005365   -0.00002148
     atom   48 type  1   force =    -0.00002923   -0.00006887   -0.00008388
     atom   49 type  1   force =     0.00012089    0.00018457    0.00000354
     atom   50 type  1   force =     0.00011173   -0.00019218    0.00008715
     atom   51 type  1   force =    -0.00007315   -0.00004884   -0.00009118
     atom   52 type  1   force =     0.00004617    0.00003984    0.00002576
     atom   53 type  1   force =     0.00014889   -0.00000655    0.00003540
     atom   54 type  1   force =     0.00008806    0.00010177   -0.00004094
     atom   55 type  1   force =     0.00008950   -0.00005790    0.00002959
     atom   56 type  1   force =     0.00011125   -0.00007629   -0.00000095
     atom   57 type  1   force =    -0.00000481    0.00010454   -0.00007691
     atom   58 type  1   force =    -0.00017713   -0.00002636   -0.00008779
     atom   59 type  1   force =    -0.00089649    0.00138844   -0.00054790
     atom   60 type  1   force =     0.00009532   -0.00009108    0.00008006
     atom   61 type  1   force =    -0.00010189    0.00014545   -0.00015352
     atom   62 type  1   force =    -0.00195313   -0.00000316   -0.00056371
     atom   63 type  1   force =    -0.00004693    0.00004498   -0.00005776
     atom   64 type  1   force =     0.00000751   -0.00002158    0.00003478
     atom   65 type  1   force =    -0.00011186   -0.00005308    0.00018980
     atom   66 type  1   force =    -0.00008803    0.00007226    0.00004695
     atom   67 type  1   force =     0.00001443    0.00006000   -0.00005502
     atom   68 type  1   force =    -0.00083798    0.00134892   -0.00123962
     atom   69 type  1   force =     0.00012401   -0.00007085    0.00007727
     atom   70 type  1   force =    -0.00019210    0.00000129   -0.00002540
     atom   71 type  1   force =    -0.00067359    0.00073467   -0.00147957
     atom   72 type  1   force =     0.00009248   -0.00009504    0.00007391
     atom   73 type  1   force =     0.00007422   -0.00002644    0.00000991
     atom   74 type  1   force =    -0.00004356    0.00014484   -0.00016089
     atom   75 type  1   force =    -0.00003303    0.00002065   -0.00005343
     atom   76 type  1   force =     0.00003441   -0.00005260   -0.00001647
     atom   77 type  1   force =    -0.00003624   -0.00022810   -0.00006081
     atom   78 type  1   force =    -0.00002859   -0.00004964   -0.00014213
     atom   79 type  1   force =     0.00009689   -0.00003827    0.00004225
     atom   80 type  1   force =     0.00009795   -0.00000730    0.00007992
     atom   81 type  1   force =     0.00001832    0.00008479   -0.00011070
     atom   82 type  1   force =     0.00014439   -0.00023005   -0.00008860
     atom   83 type  1   force =    -0.00012673    0.00008122   -0.00025196
     atom   84 type  1   force =    -0.00004867   -0.00008105   -0.00031376
     atom   85 type  1   force =     0.00022193    0.00016586    0.00009678
     atom   86 type  1   force =    -0.00008575   -0.00004794    0.00009732
     atom   87 type  1   force =     0.00004644    0.00003359    0.00006454
     atom   88 type  1   force =     0.00032257    0.00000909    0.00005744
     atom   89 type  1   force =    -0.00006941    0.00000547   -0.00005117
     atom   90 type  1   force =     0.00010007    0.00021248   -0.00015157
     atom   91 type  1   force =     0.00019764    0.00043561   -0.00030326
     atom   92 type  1   force =     0.00003572    0.00004036   -0.00004548
     atom   93 type  1   force =     0.00012554   -0.00004067   -0.00028154
     atom   94 type  1   force =     0.00003564    0.00004032   -0.00004556
     atom   95 type  1   force =     0.00006711   -0.00010367    0.00008187
     atom   96 type  1   force =     0.00028670   -0.00000159   -0.00012051
     atom   97 type  1   force =    -0.00005322   -0.00013284   -0.00003845
     atom   98 type  1   force =     0.00006941   -0.00005646   -0.00005567
     atom   99 type  1   force =    -0.00003649   -0.00014204    0.00007103
     atom  100 type  1   force =     0.00016945    0.00044597   -0.00031082
     atom  101 type  1   force =    -0.00024608   -0.00005312   -0.00004918
     atom  102 type  1   force =     0.00020170    0.00045371   -0.00027868
     atom  103 type  1   force =     0.00002678    0.00005326   -0.00003978
     atom  104 type  1   force =     0.00002209    0.00025839    0.00011847
     atom  105 type  1   force =     0.00005327    0.00001959    0.00025021
     atom  106 type  1   force =    -0.00017539    0.00021060   -0.00007902
     atom  107 type  1   force =    -0.00015901    0.00022110    0.00010542
     atom  108 type  1   force =     0.00002653   -0.00014175    0.00000792
     atom  109 type  1   force =     0.00002287    0.00013708   -0.00008752
     atom  110 type  1   force =    -0.00002922   -0.00000775   -0.00009463
     atom  111 type  1   force =     0.00005333    0.00014440   -0.00005703
     atom  112 type  1   force =    -0.00014994    0.00021914    0.00009678
     atom  113 type  1   force =    -0.00025093   -0.00049553   -0.00005499
     atom  114 type  1   force =     0.00009301    0.00002190    0.00002759
     atom  115 type  1   force =     0.00016305   -0.00039517    0.00035901
     atom  116 type  1   force =     0.00001735    0.00008731   -0.00003850
     atom  117 type  1   force =    -0.00026193    0.00017303    0.00021997
     atom  118 type  1   force =    -0.00007009   -0.00012381   -0.00000821
     atom  119 type  1   force =     0.00004858    0.00013048   -0.00008969
     atom  120 type  1   force =     0.00003515   -0.00009838    0.00009702
     atom  121 type  1   force =     0.00024940    0.00003173    0.00005947
     atom  122 type  1   force =     0.00005781    0.00013269   -0.00008051
     atom  123 type  1   force =    -0.00005813   -0.00004291   -0.00024807
     atom  124 type  1   force =    -0.00036316   -0.00016604    0.00040343
     atom  125 type  1   force =    -0.00010056   -0.00019813    0.00014862
     atom  126 type  1   force =     0.00030083   -0.00008251    0.00017595
     atom  127 type  1   force =    -0.00016262   -0.00005963    0.00003481
     atom  128 type  1   force =    -0.00014291   -0.00019035   -0.00026769
     atom  129 type  1   force =    -0.00010549   -0.00003894    0.00011486
     atom  130 type  1   force =     0.00003659    0.00014642   -0.00004911
     atom  131 type  1   force =    -0.00002437   -0.00002610    0.00017307
     atom  132 type  1   force =     0.00001417    0.00014105   -0.00007149
     atom  133 type  1   force =    -0.00007373    0.00009409    0.00005094
     atom  134 type  1   force =    -0.00001826    0.00000330   -0.00003285
     atom  135 type  1   force =    -0.00010340   -0.00006949   -0.00020797
     atom  136 type  1   force =    -0.00050318   -0.00029948    0.00005423
     atom  137 type  1   force =     0.00017105    0.00008044    0.00000258
     atom  138 type  1   force =     0.00540623   -0.00315918    0.00384770
     atom  139 type  1   force =    -0.00025272    0.00002987   -0.00006968
     atom  140 type  1   force =    -0.00008783    0.00001183    0.00009562
     atom  141 type  1   force =     0.00019976    0.00000995    0.00002229
     atom  142 type  1   force =    -0.00012973   -0.00000673   -0.00003570
     atom  143 type  1   force =    -0.00021689   -0.00017554    0.00008911
     atom  144 type  1   force =     0.00086167   -0.00042351    0.00056518
     atom  145 type  1   force =    -0.00019611    0.00003248   -0.00005691
     atom  146 type  1   force =    -0.00003454    0.00004803    0.00001902
     atom  147 type  1   force =    -0.00017950    0.00015223    0.00009581
     atom  148 type  1   force =    -0.00051426   -0.00026134    0.00011739
     atom  149 type  1   force =    -0.00002763    0.00002733    0.00020755
     atom  150 type  1   force =    -0.00009780   -0.00014144    0.00000720
     atom  151 type  1   force =    -0.00020447    0.00008311    0.00005426
     atom  152 type  1   force =     0.00003567   -0.00016585   -0.00004900
     atom  153 type  1   force =    -0.00013391   -0.00006425    0.00011314
     atom  154 type  1   force =    -0.00016155   -0.00005711   -0.00012656
     atom  155 type  1   force =    -0.00006163   -0.00008422   -0.00002859
     atom  156 type  1   force =     0.00018441    0.00004733    0.00007290
     atom  157 type  1   force =    -0.00014714    0.00001799   -0.00000362
     atom  158 type  1   force =     0.00012937   -0.00005300    0.00010440
     atom  159 type  1   force =     0.00010003   -0.00010917    0.00013952
     atom  160 type  1   force =    -0.00000015    0.00005582   -0.00000557
     atom  161 type  1   force =     0.00003062    0.00001517    0.00001597
     atom  162 type  1   force =    -0.00001656    0.00003501   -0.00018506
     atom  163 type  1   force =    -0.00009814    0.00000931    0.00008532
     atom  164 type  1   force =     0.00021542    0.00000789    0.00011090
     atom  165 type  1   force =    -0.00283838   -0.00515939   -0.00439704
     atom  166 type  1   force =    -0.00001826   -0.00004308   -0.00019573
     atom  167 type  1   force =     0.00000356   -0.00017652    0.00056095
     atom  168 type  1   force =     0.00005341    0.00010412    0.00023647
     atom  169 type  1   force =     0.00003256    0.00003263    0.00012657
     atom  170 type  1   force =    -0.00005135   -0.00013539    0.00025456
     atom  171 type  1   force =    -0.00003084    0.00004902    0.00002272
     atom  172 type  1   force =    -0.00020879   -0.00001667    0.00002637
     atom  173 type  1   force =    -0.00042457   -0.00073563   -0.00072101
     atom  174 type  1   force =    -0.00013412    0.00016324    0.00014121
     atom  175 type  1   force =     0.00002358   -0.00011206    0.00012857
     atom  176 type  1   force =     0.00004207    0.00009030    0.00018122
     atom  177 type  1   force =    -0.00006716   -0.00015282    0.00056453
     atom  178 type  1   force =    -0.00007809    0.00011373    0.00018058
     atom  179 type  1   force =     0.00008768   -0.00015316    0.00000312
     atom  180 type  1   force =     0.00004587   -0.00005807    0.00007886
     atom  181 type  1   force =    -0.00008523   -0.00010511   -0.00011009
     atom  182 type  1   force =    -0.00009867   -0.00005574    0.00014842
     atom  183 type  1   force =    -0.00007676   -0.00001606   -0.00018830
     atom  184 type  1   force =    -0.00010697   -0.00015945   -0.00006757
     atom  185 type  1   force =     0.00013183    0.00001411    0.00016675
     atom  186 type  1   force =    -0.00000498    0.00005249    0.00013858
     atom  187 type  1   force =    -0.00000769    0.00005397   -0.00001312
     atom  188 type  1   force =     0.00012138   -0.00011917   -0.00009246
     atom  189 type  1   force =     0.00007856   -0.00056962   -0.00002002
     atom  190 type  1   force =     0.00000750   -0.00012668   -0.00014920
     atom  191 type  1   force =     0.00015598   -0.00055087    0.00005734
     atom  192 type  1   force =     0.00014453   -0.00012743   -0.00011359
     atom  193 type  1   force =     0.00007067   -0.00008192   -0.00003332
     atom  194 type  1   force =     0.00017506   -0.00008597    0.00001833
     atom  195 type  1   force =     0.00005365   -0.00008605   -0.00005033
     atom  196 type  1   force =     0.00000050    0.00005515   -0.00001381
     atom  197 type  1   force =    -0.00080618    0.00032081    0.00072831
     atom  198 type  1   force =    -0.00005500   -0.00008361   -0.00020958
     atom  199 type  1   force =     0.00003237   -0.00013399    0.00009129
     atom  200 type  1   force =     0.00022173   -0.00001653    0.00006707
     atom  201 type  1   force =    -0.00526937    0.00158375    0.00488501
     atom  202 type  1   force =    -0.00009171    0.00016675    0.00009556
     atom  203 type  1   force =    -0.00005621   -0.00015544    0.00000278
     atom  204 type  1   force =    -0.00013475    0.00015647    0.00005251
     atom  205 type  1   force =    -0.00015773    0.00001077    0.00015515
     atom  206 type  1   force =    -0.00001031   -0.00026863    0.00007555
     atom  207 type  1   force =    -0.00001940    0.00000323   -0.00002292
     atom  208 type  1   force =    -0.00019866   -0.00006292   -0.00002564
     atom  209 type  1   force =     0.00002086    0.00001301    0.00001739
     atom  210 type  1   force =    -0.00007286    0.00018093    0.00002893
     atom  211 type  1   force =    -0.00007684   -0.00007711   -0.00002672
     atom  212 type  1   force =     0.00003409   -0.00000651    0.00020701
     atom  213 type  1   force =     0.00004194   -0.00004818    0.00009206
     atom  214 type  1   force =    -0.00015265    0.00007643    0.00013415
     atom  215 type  2   force =     0.00093366    0.00245327   -0.00152871

     Total force =     0.015140     Total SCF correction =     0.000185


     Computing stress (Cartesian axis) and pressure

          total   stress  (Ry/bohr**3)                   (kbar)     P=       28.28
   0.00019585  -0.00000379   0.00000238           28.81       -0.56        0.35
  -0.00000379   0.00018748   0.00000618           -0.56       27.58        0.91
   0.00000238   0.00000618   0.00019343            0.35        0.91       28.45


     Writing all to output data dir ./tmp/diamond_pd.save/ :
     XML data file, charge density
     init_run     :      5.85s CPU      6.25s WALL (       1 calls)
     electrons    :    405.39s CPU    412.24s WALL (       1 calls)
     forces       :      4.12s CPU      4.24s WALL (       1 calls)
     stress       :     14.38s CPU     14.52s WALL (       1 calls)

     Called by init_run:
     wfcinit      :      4.93s CPU      5.13s WALL (       1 calls)
     potinit      :      0.62s CPU      0.76s WALL (       1 calls)
     hinit0       :      0.11s CPU      0.11s WALL (       1 calls)

     Called by electrons:
     c_bands      :    364.05s CPU    370.21s WALL (      17 calls)
     sum_band     :     26.53s CPU     26.85s WALL (      17 calls)
     v_of_rho     :      0.64s CPU      0.65s WALL (      18 calls)
     newd         :      2.44s CPU      2.52s WALL (      18 calls)
     PAW_pot      :     11.89s CPU     12.11s WALL (      18 calls)
     mix_rho      :      0.48s CPU      0.49s WALL (      17 calls)

     Called by c_bands:
     init_us_2    :      5.41s CPU      5.53s WALL (      74 calls)
     cegterg      :    357.84s CPU    363.87s WALL (      34 calls)

     Called by *egterg:
     cdiaghg      :     61.12s CPU     62.08s WALL (     211 calls)
     h_psi        :    104.43s CPU    107.05s WALL (     213 calls)
     s_psi        :     33.04s CPU     33.26s WALL (     213 calls)
     g_psi        :      0.84s CPU      0.85s WALL (     177 calls)

     Called by h_psi:
     h_psi:calbec :     34.41s CPU     34.68s WALL (     213 calls)
     vloc_psi     :     33.38s CPU     33.99s WALL (     213 calls)
     add_vuspsi   :     34.90s CPU     35.84s WALL (     213 calls)

     General routines
     calbec       :     60.28s CPU     60.77s WALL (     281 calls)
     fft          :      0.25s CPU      0.26s WALL (     420 calls)
     ffts         :      0.02s CPU      0.02s WALL (      34 calls)
     fftw         :     35.35s CPU     36.01s WALL (  174346 calls)
 
     Parallel routines
 
     PWSCF        :   7m 9.87s CPU   7m17.74s WALL

 
   This run was terminated on:   0:47:57  23Aug2026            

=------------------------------------------------------------------------------=
   JOB DONE.
=------------------------------------------------------------------------------=
