C8                                      
   1.00000000000000     
    10.7211360931000002    0.0000000000000000    0.0000000000000000
     0.0000000000000000   10.7211360931000002    0.0000000000000000
     0.0000000000000000    0.0000000000000000   10.7211360931000002
   C    N 
   214     1
Direct
     0.0832555768214953    0.0832822232700119    0.0834110891785023
     0.0833325584206734    0.0835113933246368    0.4165791305845648
     0.0826295608019442    0.0832244184893665    0.7502148993574153
     0.0834249346737639    0.4164803268289984    0.0832417313262337
     0.0836572471737625    0.4168640942833883    0.4166669017277173
     0.0827598479965759    0.4165257469540850    0.7498648253368283
     0.0835258333387188    0.7501149429730056    0.0831408326612788
     0.0838575866848352    0.7501929426038610    0.4164620611136202
     0.0837539910925459    0.7500221418661263    0.7500538201632733
     0.4164517676425860    0.0832244184893665    0.0840371051980534
     0.4166567650085404    0.0834246751073945    0.4173916072171264
     0.4157769721275605    0.0821242484672139    0.7508896948724402
     0.4168018416631726    0.4165257469540850    0.0839068180034217
     0.4179166547613360    0.4171746787875255    0.4189469505500731
     0.4148635340718458    0.4149574158954105    0.7518031329281553
     0.4166128468367278    0.7500221418661263    0.0829126749074517
     0.4164243531695754    0.7505803423477427    0.4155239554612196
     0.4170988121915634    0.7489134762425139    0.7495678548084377
     0.7500875364154365    0.0835113933246368    0.0833341075793242
     0.7498729239114066    0.0837128750276042    0.4167937430885943
     0.7492750597828747    0.0834246751073945    0.7500099019914607
     0.7499997652722837    0.4168640942833883    0.0830094188262351
     0.7583380019752687    0.4117585761122711    0.4083286650247323
     0.7477197164499279    0.4171746787875255    0.7487500122386653
     0.7502046058863807    0.7501929426038610    0.0828090793151623
     0.7503822072704572    0.7509523069354189    0.4162844597295440
     0.7511427115387816    0.7505803423477427    0.7502423138304259
     0.2498910854893678    0.2497851006425847    0.0840371051980534
     0.2500913421073957    0.2499900980085391    0.4173916072171264
     0.2487909154672150    0.2491103051275594    0.7508896948724402
     0.2501780603246381    0.5834208694154353    0.0833341075793242
     0.2503795420276054    0.5832062569114054    0.4167937430885943
     0.2500913421073957    0.5826083927828735    0.7500099019914607
     0.2499488902700132    0.9165889108214974    0.0834110891785023
     0.2501780603246381    0.9166658924206755    0.4165791305845648
     0.2498910854893678    0.9159628948019466    0.7502148993574153
     0.5831924129540829    0.2501351746631714    0.0839068180034217
     0.5838413447875229    0.2512499877613348    0.4189469505500731
     0.5816240818954082    0.2481968670718447    0.7518031329281553
     0.5835307602833858    0.5833330982722825    0.0830094188262351
     0.5784252421122685    0.5916713349752675    0.4083286650247323
     0.5838413447875229    0.5810530494499266    0.7487500122386653
     0.5831469928289962    0.9167582686737663    0.0832417313262337
     0.5835307602833858    0.9169905811737649    0.4166669017277173
     0.5831924129540829    0.9160931819965784    0.7498648253368283
     0.9166888088661275    0.2499461798367265    0.0829126749074517
     0.9172470093477439    0.2497576861695742    0.4155239554612196
     0.9155801432425151    0.2504321451915622    0.7495678548084377
     0.9168596096038623    0.5835379388863795    0.0828090793151623
     0.9176189739354201    0.5837155402704560    0.4162844597295440
     0.9172470093477439    0.5844760445387804    0.7502423138304259
     0.9167816099730068    0.9168591673387212    0.0831408326612788
     0.9168596096038623    0.9171909206848379    0.4164620611136202
     0.9166888088661275    0.9170873250925482    0.7500538201632733
     0.2501223514030999    0.0834556844030987    0.2503989440604146
     0.2493764523200865    0.0827097853200853    0.5840213675432525
     0.2494350399606349    0.0827683729606337    0.9172316270393662
     0.2506756650164749    0.4167683812426677    0.2508046662368177
     0.2495894947130120    0.4161757520579497    0.5838242479420502
     0.2493764523200865    0.4159786324567477    0.9172902146799148
     0.2500769885896190    0.7502911626655726    0.2497088373344273
     0.2506756650164749    0.7491953337631824    0.5832316187573323
     0.2501223514030999    0.7496010559395853    0.9165443155969013
     0.5834350472426653    0.0840089980164739    0.2508046662368177
     0.5828424180579473    0.0829228277130107    0.5838242479420502
     0.5826452984567451    0.0827097853200853    0.9172902146799148
     0.5841478292524677    0.4174811632524701    0.2502518438099076
     0.5828424180579473    0.4161757520579497    0.9170771722869894
     0.5828486031967208    0.7514373001007841    0.2485626998992160
     0.5841478292524677    0.7497481561900926    0.5825188367475299
     0.5834350472426653    0.7491953337631824    0.9159910019835263
     0.9169578296655738    0.0834103215896179    0.2497088373344273
     0.9158620007631836    0.0840089980164739    0.5832316187573323
     0.9162677229395865    0.0834556844030987    0.9165443155969013
     0.9181039671007853    0.4161819371967235    0.2485626998992160
     0.9164148231900938    0.4174811632524701    0.5825188367475299
     0.9158620007631836    0.4167683812426677    0.9159910019835263
     0.9170020455791552    0.7503353785791540    0.2496646214208461
     0.9181039671007853    0.7514373001007841    0.5838180628032767
     0.9169578296655738    0.7502911626655726    0.9165896784103821
     0.0837539910925459    0.2499461798367265    0.2499778581338739
     0.0827598479965759    0.2501351746631714    0.5834742530459147
     0.0826295608019442    0.2497851006425847    0.9167755815106337
     0.0838575866848352    0.5835379388863795    0.2498070573961391
     0.0836572471737625    0.5833330982722825    0.5831359057166118
     0.0833325584206734    0.5834208694154353    0.9164886066753631
     0.0835258333387188    0.9168591673387212    0.2498850570269944
     0.0834249346737639    0.9167582686737663    0.5835196731710014
     0.0832555768214953    0.9165889108214974    0.9167177767299880
     0.4170988121915634    0.2504321451915622    0.2510865237574864
     0.4148635340718458    0.2481968670718447    0.5850425841045894
     0.4157769721275605    0.2491103051275594    0.9178757515327861
     0.4164243531695754    0.5844760445387804    0.2494196576522572
     0.4179166547613360    0.5810530494499266    0.5828253212124747
     0.4166567650085404    0.5826083927828735    0.9165753248926055
     0.4166128468367278    0.9170873250925482    0.2499778581338739
     0.4168018416631726    0.9160931819965784    0.5834742530459147
     0.4164517676425860    0.9159628948019466    0.9167755815106337
     0.7511427115387816    0.2497576861695742    0.2494196576522572
     0.7477197164499279    0.2512499877613348    0.5828253212124747
     0.7492750597828747    0.2499900980085391    0.9165753248926055
     0.7503822072704572    0.5837155402704560    0.2490476930645809
     0.7583380019752687    0.5916713349752675    0.5882414238877290
     0.7498729239114066    0.5832062569114054    0.9162871249723959
     0.7502046058863807    0.9171909206848379    0.2498070573961391
     0.7499997652722837    0.9169905811737649    0.5831359057166118
     0.7500875364154365    0.9166658924206755    0.9164886066753631
     0.9999466908026980    0.0002104395992439    0.9997895604007563
     0.0002788504028627    0.0004632116036390    0.3331258600699867
     0.9996346056483106    0.0003396810618706    0.6665256252052325
     0.9996346056483106    0.3334743747947674    0.9996603189381295
     0.0002657530193136    0.3338613642873962    0.3331615863194570
     0.9992330816852170    0.3336608565138544    0.6663391434861456
     0.0002788504028627    0.6668741399300137    0.9995367883963611
     0.0006509579090942    0.6671813597926912    0.3328186402073090
     0.0002657530193136    0.6668384136805433    0.6661386357126040
     0.3333001436511441    0.9997290857807393    0.0002709142192608
     0.3335890538304268    0.0001995991117776    0.3335862260241996
     0.3330397967409973    0.9992823253285087    0.6669617217033498
     0.3330397967409973    0.3330382782966500    0.0007176746714913
     0.3343703469182612    0.3334821056973220    0.3345529078832686
     0.3321984119992645    0.3324552900921809    0.6675447099078192
     0.3335890538304268    0.6664137739758004    0.9998004008882225
     0.3338906510770463    0.6667038291252737    0.3332961708747265
     0.3343703469182612    0.6654470921167315    0.6665178943026777
     0.6665743645923099    0.9999629779720715    0.0000370220279284
     0.6668704955371115    0.0005380180733251    0.3333677696119029
     0.6664545024597845    0.9998703050699786    0.6666578195130186
     0.6664545024597845    0.3333421804869815    0.0001296949300216
     0.6664314964444398    0.3362332295645904    0.3355224704859481
     0.6629016953147422    0.3332339399432884    0.6667660600567117
     0.6668704955371115    0.6666322303880973    0.9994619819266750
     0.6681091416844576    0.6664540541991772    0.3335459458008229
     0.6664314964444398    0.6644775295140525    0.6637667704354097
     0.1663957527807405    0.1666334776511464    0.0002709142192608
     0.1668662661117788    0.1669223878304293    0.3335862260241996
     0.1659489923285101    0.1663731307409999    0.6669617217033498
     0.1666296449720729    0.4999076975923088    0.0000370220279284
     0.1672046850733263    0.5002038285371103    0.3333677696119029
     0.1665369720699797    0.4997878354597834    0.6666578195130186
     0.1668771065992452    0.8332800238026969    0.9997895604007563
     0.1671298786036402    0.8336121834028617    0.3331258600699867
     0.1670063480618717    0.8329679386483094    0.6665256252052325
     0.4997049452966512    0.1663731307409999    0.0007176746714913
     0.5001487726973234    0.1677036809182635    0.3345529078832686
     0.4991219570921821    0.1655317459992668    0.6675447099078192
     0.5000088474869826    0.4997878354597834    0.0001296949300216
     0.5028998965645916    0.4997648294444388    0.3355224704859481
     0.4999006069432897    0.4962350283147408    0.6667660600567117
     0.5001410417947687    0.8329679386483094    0.9996603189381295
     0.5005280312873972    0.8335990860193123    0.3331615863194570
     0.5003275235138556    0.8325664146852156    0.6663391434861456
     0.8330804399757979    0.1669223878304293    0.9998004008882225
     0.8333704951252713    0.1672239850770488    0.3332961708747265
     0.8321137581167291    0.1677036809182635    0.6665178943026777
     0.8332988963880948    0.5002038285371103    0.9994619819266750
     0.8331207201991748    0.5014424746844564    0.3335459458008229
     0.8311441955140501    0.4997648294444388    0.6637667704354097
     0.8335408059300112    0.8336121834028617    0.9995367883963611
     0.8338480257926888    0.8339842909090931    0.3328186402073090
     0.8335050796805409    0.8335990860193123    0.6661386357126040
     0.1668771065992452    0.0002104395992439    0.1667199761973034
     0.1666296449720729    0.9999629779720715    0.5000923024076913
     0.1663957527807405    0.9997290857807393    0.8333665223488533
     0.1670063480618717    0.3334743747947674    0.1670320613516908
     0.1665369720699797    0.3333421804869815    0.5002121645402169
     0.1659489923285101    0.3330382782966500    0.8336268692590001
     0.1671298786036402    0.6668741399300137    0.1663878165971385
     0.1672046850733263    0.6666322303880973    0.4997961714628897
     0.1668662661117788    0.6664137739758004    0.8330776121695708
     0.5001410417947687    0.0003396810618706    0.1670320613516908
     0.5000088474869826    0.9998703050699786    0.5002121645402169
     0.4997049452966512    0.9992823253285087    0.8336268692590001
     0.5003275235138556    0.3336608565138544    0.1674335853147844
     0.4999006069432897    0.3332339399432884    0.5037649716852590
     0.4991219570921821    0.3324552900921809    0.8344682540007333
     0.5005280312873972    0.6668384136805433    0.1664009139806877
     0.5028998965645916    0.6644775295140525    0.5002351705555614
     0.5001487726973234    0.6654470921167315    0.8322963190817364
     0.8335408059300112    0.0004632116036390    0.1663878165971385
     0.8332988963880948    0.0005380180733251    0.4997961714628897
     0.8330804399757979    0.0001995991117776    0.8330776121695708
     0.8335050796805409    0.3338613642873962    0.1664009139806877
     0.8311441955140501    0.3362332295645904    0.5002351705555614
     0.8321137581167291    0.3334821056973220    0.8322963190817364
     0.8338480257926888    0.6671813597926912    0.1660157090909068
     0.8331207201991748    0.6664540541991772    0.4985575253155440
     0.8333704951252713    0.6667038291252737    0.8327760149229512
     0.0000625284282472    0.1670484846776195    0.1666041385717540
     0.9996055955728229    0.1671898537269931    0.5002426259103767
     0.9992989551867579    0.1668245736031394    0.8331754263968607
     0.0005391298697803    0.5006853526404191    0.1661275371302206
     0.0002184975771460    0.5004397802330013    0.4995602197669989
     0.9996055955728229    0.4997573740896233    0.8328101462730072
     0.0004073488852371    0.8337406818852361    0.1662593181147641
     0.0005391298697803    0.8338724628697793    0.4993146473595805
     0.0000625284282472    0.8333958614282461    0.8329515153223801
     0.3334912396031370    0.1668245736031394    0.1673677118132431
     0.3327379897681138    0.1660713237681162    0.5005290437382363
     0.3327097675506785    0.1660431015506809    0.8339568984493188
     0.3338565197269907    0.4997573740896233    0.1670610714271780
     0.3336850778644005    0.4996786349255679    0.5003213650744323
     0.3327379897681138    0.4994709562617637    0.8339286762318837
     0.3337151506776171    0.8333958614282461    0.1666041385717540
     0.3338565197269907    0.8329389285728217    0.5002426259103767
     0.3334912396031370    0.8326322881867567    0.8331754263968607
     0.6664240410896245    0.1671898537269931    0.1670610714271780
     0.6663453019255688    0.1670184118644029    0.5003213650744323
     0.6661376232617648    0.1660713237681162    0.8339286762318837
     0.6671064472330025    0.5004397802330013    0.1664481694228554
     0.6663453019255688    0.4996786349255679    0.8329815881355970
     0.6673520196404203    0.8338724628697793    0.1661275371302206
     0.6671064472330025    0.8335518305771448    0.4995602197669989
     0.6664240410896245    0.8329389285728217    0.8328101462730072
     0.5756861696903594    0.4090195036903619    0.5909804963096382
 
  0.00000000E+00  0.00000000E+00  0.00000000E+00
  0.00000000E+00  0.00000000E+00  0.00000000E+00
  0.00000000E+00  0.00000000E+00  0.00000000E+00
  0.00000000E+00  0.00000000E+00  0.00000000E+00
  0.00000000E+00  0.00000000E+00  0.00000000E+00
  0.00000000E+00  0.00000000E+00  0.00000000E+00
  0.00000000E+00  0.00000000E+00  0.00000000E+00
  0.00000000E+00  0.00000000E+00  0.00000000E+00
  0.00000000E+00  0.00000000E+00  0.00000000E+00
  0.00000000E+00  0.00000000E+00  0.00000000E+00
  0.00000000E+00  0.00000000E+00  0.00000000E+00
  0.00000000E+00  0.00000000E+00  0.00000000E+00
  0.00000000E+00  0.00000000E+00  0.00000000E+00
  0.00000000E+00  0.00000000E+00  0.00000000E+00
  0.00000000E+00  0.00000000E+00  0.00000000E+00
  0.00000000E+00  0.00000000E+00  0.00000000E+00
  0.00000000E+00  0.00000000E+00  0.00000000E+00
  0.00000000E+00  0.00000000E+00  0.00000000E+00
  0.00000000E+00  0.00000000E+00  0.00000000E+00
  0.00000000E+00  0.00000000E+00  0.00000000E+00
  0.00000000E+00  0.00000000E+00  0.00000000E+00
  0.00000000E+00  0.00000000E+00  0.00000000E+00
  0.00000000E+00  0.00000000E+00  0.00000000E+00
  0.00000000E+00  0.00000000E+00  0.00000000E+00
  0.00000000E+00  0.00000000E+00  0.00000000E+00
  0.00000000E+00  0.00000000E+00  0.00000000E+00
  0.00000000E+00  0.00000000E+00  0.00000000E+00
  0.00000000E+00  0.00000000E+00  0.00000000E+00
  0.00000000E+00  0.00000000E+00  0.00000000E+00
  0.00000000E+00  0.00000000E+00  0.00000000E+00
  0.00000000E+00  0.00000000E+00  0.00000000E+00
  0.00000000E+00  0.00000000E+00  0.00000000E+00
  0.00000000E+00  0.00000000E+00  0.00000000E+00
  0.00000000E+00  0.00000000E+00  0.00000000E+00
  0.00000000E+00  0.00000000E+00  0.00000000E+00
  0.00000000E+00  0.00000000E+00  0.00000000E+00
  0.00000000E+00  0.00000000E+00  0.00000000E+00
  0.00000000E+00  0.00000000E+00  0.00000000E+00
  0.00000000E+00  0.00000000E+00  0.00000000E+00
  0.00000000E+00  0.00000000E+00  0.00000000E+00
  0.00000000E+00  0.00000000E+00  0.00000000E+00
  0.00000000E+00  0.00000000E+00  0.00000000E+00
  0.00000000E+00  0.00000000E+00  0.00000000E+00
  0.00000000E+00  0.00000000E+00  0.00000000E+00
  0.00000000E+00  0.00000000E+00  0.00000000E+00
  0.00000000E+00  0.00000000E+00  0.00000000E+00
  0.00000000E+00  0.00000000E+00  0.00000000E+00
  0.00000000E+00  0.00000000E+00  0.00000000E+00
  0.00000000E+00  0.00000000E+00  0.00000000E+00
  0.00000000E+00  0.00000000E+00  0.00000000E+00
  0.00000000E+00  0.00000000E+00  0.00000000E+00
  0.00000000E+00  0.00000000E+00  0.00000000E+00
  0.00000000E+00  0.00000000E+00  0.00000000E+00
  0.00000000E+00  0.00000000E+00  0.00000000E+00
  0.00000000E+00  0.00000000E+00  0.00000000E+00
  0.00000000E+00  0.00000000E+00  0.00000000E+00
  0.00000000E+00  0.00000000E+00  0.00000000E+00
  0.00000000E+00  0.00000000E+00  0.00000000E+00
  0.00000000E+00  0.00000000E+00  0.00000000E+00
  0.00000000E+00  0.00000000E+00  0.00000000E+00
  0.00000000E+00  0.00000000E+00  0.00000000E+00
  0.00000000E+00  0.00000000E+00  0.00000000E+00
  0.00000000E+00  0.00000000E+00  0.00000000E+00
  0.00000000E+00  0.00000000E+00  0.00000000E+00
  0.00000000E+00  0.00000000E+00  0.00000000E+00
  0.00000000E+00  0.00000000E+00  0.00000000E+00
  0.00000000E+00  0.00000000E+00  0.00000000E+00
  0.00000000E+00  0.00000000E+00  0.00000000E+00
  0.00000000E+00  0.00000000E+00  0.00000000E+00
  0.00000000E+00  0.00000000E+00  0.00000000E+00
  0.00000000E+00  0.00000000E+00  0.00000000E+00
  0.00000000E+00  0.00000000E+00  0.00000000E+00
  0.00000000E+00  0.00000000E+00  0.00000000E+00
  0.00000000E+00  0.00000000E+00  0.00000000E+00
  0.00000000E+00  0.00000000E+00  0.00000000E+00
  0.00000000E+00  0.00000000E+00  0.00000000E+00
  0.00000000E+00  0.00000000E+00  0.00000000E+00
  0.00000000E+00  0.00000000E+00  0.00000000E+00
  0.00000000E+00  0.00000000E+00  0.00000000E+00
  0.00000000E+00  0.00000000E+00  0.00000000E+00
  0.00000000E+00  0.00000000E+00  0.00000000E+00
  0.00000000E+00  0.00000000E+00  0.00000000E+00
  0.00000000E+00  0.00000000E+00  0.00000000E+00
  0.00000000E+00  0.00000000E+00  0.00000000E+00
  0.00000000E+00  0.00000000E+00  0.00000000E+00
  0.00000000E+00  0.00000000E+00  0.00000000E+00
  0.00000000E+00  0.00000000E+00  0.00000000E+00
  0.00000000E+00  0.00000000E+00  0.00000000E+00
  0.00000000E+00  0.00000000E+00  0.00000000E+00
  0.00000000E+00  0.00000000E+00  0.00000000E+00
  0.00000000E+00  0.00000000E+00  0.00000000E+00
  0.00000000E+00  0.00000000E+00  0.00000000E+00
  0.00000000E+00  0.00000000E+00  0.00000000E+00
  0.00000000E+00  0.00000000E+00  0.00000000E+00
  0.00000000E+00  0.00000000E+00  0.00000000E+00
  0.00000000E+00  0.00000000E+00  0.00000000E+00
  0.00000000E+00  0.00000000E+00  0.00000000E+00
  0.00000000E+00  0.00000000E+00  0.00000000E+00
  0.00000000E+00  0.00000000E+00  0.00000000E+00
  0.00000000E+00  0.00000000E+00  0.00000000E+00
  0.00000000E+00  0.00000000E+00  0.00000000E+00
  0.00000000E+00  0.00000000E+00  0.00000000E+00
  0.00000000E+00  0.00000000E+00  0.00000000E+00
  0.00000000E+00  0.00000000E+00  0.00000000E+00
  0.00000000E+00  0.00000000E+00  0.00000000E+00
  0.00000000E+00  0.00000000E+00  0.00000000E+00
  0.00000000E+00  0.00000000E+00  0.00000000E+00
  0.00000000E+00  0.00000000E+00  0.00000000E+00
  0.00000000E+00  0.00000000E+00  0.00000000E+00
  0.00000000E+00  0.00000000E+00  0.00000000E+00
  0.00000000E+00  0.00000000E+00  0.00000000E+00
  0.00000000E+00  0.00000000E+00  0.00000000E+00
  0.00000000E+00  0.00000000E+00  0.00000000E+00
  0.00000000E+00  0.00000000E+00  0.00000000E+00
  0.00000000E+00  0.00000000E+00  0.00000000E+00
  0.00000000E+00  0.00000000E+00  0.00000000E+00
  0.00000000E+00  0.00000000E+00  0.00000000E+00
  0.00000000E+00  0.00000000E+00  0.00000000E+00
  0.00000000E+00  0.00000000E+00  0.00000000E+00
  0.00000000E+00  0.00000000E+00  0.00000000E+00
  0.00000000E+00  0.00000000E+00  0.00000000E+00
  0.00000000E+00  0.00000000E+00  0.00000000E+00
  0.00000000E+00  0.00000000E+00  0.00000000E+00
  0.00000000E+00  0.00000000E+00  0.00000000E+00
  0.00000000E+00  0.00000000E+00  0.00000000E+00
  0.00000000E+00  0.00000000E+00  0.00000000E+00
  0.00000000E+00  0.00000000E+00  0.00000000E+00
  0.00000000E+00  0.00000000E+00  0.00000000E+00
  0.00000000E+00  0.00000000E+00  0.00000000E+00
  0.00000000E+00  0.00000000E+00  0.00000000E+00
  0.00000000E+00  0.00000000E+00  0.00000000E+00
  0.00000000E+00  0.00000000E+00  0.00000000E+00
  0.00000000E+00  0.00000000E+00  0.00000000E+00
  0.00000000E+00  0.00000000E+00  0.00000000E+00
  0.00000000E+00  0.00000000E+00  0.00000000E+00
  0.00000000E+00  0.00000000E+00  0.00000000E+00
  0.00000000E+00  0.00000000E+00  0.00000000E+00
  0.00000000E+00  0.00000000E+00  0.00000000E+00
  0.00000000E+00  0.00000000E+00  0.00000000E+00
  0.00000000E+00  0.00000000E+00  0.00000000E+00
  0.00000000E+00  0.00000000E+00  0.00000000E+00
  0.00000000E+00  0.00000000E+00  0.00000000E+00
  0.00000000E+00  0.00000000E+00  0.00000000E+00
  0.00000000E+00  0.00000000E+00  0.00000000E+00
  0.00000000E+00  0.00000000E+00  0.00000000E+00
  0.00000000E+00  0.00000000E+00  0.00000000E+00
  0.00000000E+00  0.00000000E+00  0.00000000E+00
  0.00000000E+00  0.00000000E+00  0.00000000E+00
  0.00000000E+00  0.00000000E+00  0.00000000E+00
  0.00000000E+00  0.00000000E+00  0.00000000E+00
  0.00000000E+00  0.00000000E+00  0.00000000E+00
  0.00000000E+00  0.00000000E+00  0.00000000E+00
  0.00000000E+00  0.00000000E+00  0.00000000E+00
  0.00000000E+00  0.00000000E+00  0.00000000E+00
  0.00000000E+00  0.00000000E+00  0.00000000E+00
  0.00000000E+00  0.00000000E+00  0.00000000E+00
  0.00000000E+00  0.00000000E+00  0.00000000E+00
  0.00000000E+00  0.00000000E+00  0.00000000E+00
  0.00000000E+00  0.00000000E+00  0.00000000E+00
  0.00000000E+00  0.00000000E+00  0.00000000E+00
  0.00000000E+00  0.00000000E+00  0.00000000E+00
  0.00000000E+00  0.00000000E+00  0.00000000E+00
  0.00000000E+00  0.00000000E+00  0.00000000E+00
  0.00000000E+00  0.00000000E+00  0.00000000E+00
  0.00000000E+00  0.00000000E+00  0.00000000E+00
  0.00000000E+00  0.00000000E+00  0.00000000E+00
  0.00000000E+00  0.00000000E+00  0.00000000E+00
  0.00000000E+00  0.00000000E+00  0.00000000E+00
  0.00000000E+00  0.00000000E+00  0.00000000E+00
  0.00000000E+00  0.00000000E+00  0.00000000E+00
  0.00000000E+00  0.00000000E+00  0.00000000E+00
  0.00000000E+00  0.00000000E+00  0.00000000E+00
  0.00000000E+00  0.00000000E+00  0.00000000E+00
  0.00000000E+00  0.00000000E+00  0.00000000E+00
  0.00000000E+00  0.00000000E+00  0.00000000E+00
  0.00000000E+00  0.00000000E+00  0.00000000E+00
  0.00000000E+00  0.00000000E+00  0.00000000E+00
  0.00000000E+00  0.00000000E+00  0.00000000E+00
  0.00000000E+00  0.00000000E+00  0.00000000E+00
  0.00000000E+00  0.00000000E+00  0.00000000E+00
  0.00000000E+00  0.00000000E+00  0.00000000E+00
  0.00000000E+00  0.00000000E+00  0.00000000E+00
  0.00000000E+00  0.00000000E+00  0.00000000E+00
  0.00000000E+00  0.00000000E+00  0.00000000E+00
  0.00000000E+00  0.00000000E+00  0.00000000E+00
  0.00000000E+00  0.00000000E+00  0.00000000E+00
  0.00000000E+00  0.00000000E+00  0.00000000E+00
  0.00000000E+00  0.00000000E+00  0.00000000E+00
  0.00000000E+00  0.00000000E+00  0.00000000E+00
  0.00000000E+00  0.00000000E+00  0.00000000E+00
  0.00000000E+00  0.00000000E+00  0.00000000E+00
  0.00000000E+00  0.00000000E+00  0.00000000E+00
  0.00000000E+00  0.00000000E+00  0.00000000E+00
  0.00000000E+00  0.00000000E+00  0.00000000E+00
  0.00000000E+00  0.00000000E+00  0.00000000E+00
  0.00000000E+00  0.00000000E+00  0.00000000E+00
  0.00000000E+00  0.00000000E+00  0.00000000E+00
  0.00000000E+00  0.00000000E+00  0.00000000E+00
  0.00000000E+00  0.00000000E+00  0.00000000E+00
  0.00000000E+00  0.00000000E+00  0.00000000E+00
  0.00000000E+00  0.00000000E+00  0.00000000E+00
  0.00000000E+00  0.00000000E+00  0.00000000E+00
  0.00000000E+00  0.00000000E+00  0.00000000E+00
  0.00000000E+00  0.00000000E+00  0.00000000E+00
  0.00000000E+00  0.00000000E+00  0.00000000E+00
  0.00000000E+00  0.00000000E+00  0.00000000E+00
  0.00000000E+00  0.00000000E+00  0.00000000E+00
  0.00000000E+00  0.00000000E+00  0.00000000E+00
  0.00000000E+00  0.00000000E+00  0.00000000E+00
  0.00000000E+00  0.00000000E+00  0.00000000E+00
  0.00000000E+00  0.00000000E+00  0.00000000E+00
  0.00000000E+00  0.00000000E+00  0.00000000E+00
  0.00000000E+00  0.00000000E+00  0.00000000E+00
  0.00000000E+00  0.00000000E+00  0.00000000E+00
  0.00000000E+00  0.00000000E+00  0.00000000E+00
