C8                                      
   1.00000000000000     
    10.7211360931000002    0.0000000000000000    0.0000000000000000
     0.0000000000000000   10.7211360931000002    0.0000000000000000
     0.0000000000000000    0.0000000000000000   10.7211360931000002
   C    N 
   214     1
Direct
     0.0832261817578230    0.0834921740760608    0.0834404842421745
     0.0833643228856026    0.0836670741529155    0.4167213862166452
     0.0825985772948229    0.0832438517933486    0.7500806786083313
     0.0835575382888154    0.4168231982220764    0.0831091277111821
     0.0835615786310435    0.4170013875857544    0.4166736201844745
     0.0827400643824647    0.4165387219511826    0.7498349006086451
     0.0836899109576955    0.7501516825781780    0.0829767550423020
     0.0840457936039220    0.7503152302695520    0.4163236549432917
     0.0835647148331072    0.7498328243718358    0.7496777236724729
     0.4165859883916700    0.0832438517933486    0.0840680887051747
     0.4166908480653674    0.0834555469976810    0.4174044658930173
     0.4159026755123229    0.0822137322227212    0.7507639914876783
     0.4168317663913562    0.4165387219511826    0.0839266016175329
     0.4184795054329826    0.4171293777927442    0.4190343370143910
     0.4148143865218323    0.4154257379188675    0.7518522804781690
     0.4169889433275282    0.7498328243718358    0.0831019511668904
     0.4170711416105430    0.7501183286973253    0.4163820459760519
     0.4171468775975762    0.7488717662509945    0.7495197894024253
     0.7499452807833563    0.0836670741529155    0.0833023431143950
     0.7498458480029934    0.0840454568535440    0.4168208189970080
     0.7492622011069838    0.0834555469976810    0.7499758189346336
     0.7499930468155266    0.4170013875857544    0.0831050873689540
     0.7568730502815674    0.4139903919043423    0.4097936167184339
     0.7476323299856102    0.4171293777927442    0.7481871615670184
     0.7503430120567096    0.7503152302695520    0.0826208723960756
     0.7506256144001294    0.7506961716368739    0.4160410525998719
     0.7502846210239492    0.7501183286973253    0.7495955253894583
     0.2499105187933498    0.2499193213916687    0.0840680887051747
     0.2501222139976822    0.2500241810653663    0.4174044658930173
     0.2488803992227224    0.2492360085123216    0.7507639914876783
     0.2503337411529167    0.5832786137833551    0.0833023431143950
     0.2507121238535451    0.5831791810029922    0.4168208189970080
     0.2501222139976822    0.5825955341069826    0.7499758189346336
     0.2501588410760620    0.9165595157578255    0.0834404842421745
     0.2503337411529167    0.9166976568856050    0.4167213862166452
     0.2499105187933498    0.9159319112948250    0.7500806786083313
     0.5832053879511803    0.2501650993913551    0.0839266016175329
     0.5837960437927416    0.2518128384329814    0.4190343370143910
     0.5820924039188652    0.2481477195218310    0.7518522804781690
     0.5836680535857520    0.5833263798155254    0.0831050873689540
     0.5806570579043396    0.5902063832815662    0.4097936167184339
     0.5837960437927416    0.5809656629856090    0.7481871615670184
     0.5834898642220742    0.9168908722888177    0.0831091277111821
     0.5836680535857520    0.9168949126310461    0.4166736201844745
     0.5832053879511803    0.9160733983824673    0.7498349006086451
     0.9164994913718371    0.2503222763275270    0.0831019511668904
     0.9167849956973265    0.2504044746105418    0.4163820459760519
     0.9155384332509957    0.2504802105975750    0.7495197894024253
     0.9169818972695533    0.5836763450567084    0.0826208723960756
     0.9173628386368751    0.5839589474001282    0.4160410525998719
     0.9167849956973265    0.5836179540239480    0.7495955253894583
     0.9168183495781792    0.9170232449576978    0.0829767550423020
     0.9169818972695533    0.9173791276039241    0.4163236549432917
     0.9164994913718371    0.9168980488331097    0.7496777236724729
     0.2502104734259507    0.0835438064259495    0.2504499183883895
     0.2493308904290129    0.0826642234290116    0.5838156798556040
     0.2495103204312520    0.0828436534312509    0.9171563465687491
     0.2508124394889062    0.4168497779242609    0.2508260039633914
     0.2497702154979320    0.4162044064395290    0.5837955935604708
     0.2493308904290129    0.4161843201443959    0.9173357765709885
     0.2505813219536700    0.7501200246547369    0.2498799753452630
     0.2508124394889062    0.7491739960366088    0.5831502220757389
     0.2502104734259507    0.7495500816116105    0.9164561935740508
     0.5835164439242587    0.0841457724889049    0.2508260039633914
     0.5828710724395267    0.0831035484979308    0.5837955935604708
     0.5828509861443936    0.0826642234290116    0.9173357765709885
     0.5841195557199927    0.4174528897199950    0.2506599748951225
     0.5828710724395267    0.4162044064395290    0.9168964515020690
     0.5839312359126339    0.7513579497968533    0.2486420502031467
     0.5841195557199927    0.7493400251048777    0.5825471102800048
     0.5835164439242587    0.7491739960366088    0.9158542275110950
     0.9167866916547381    0.0839146549536689    0.2498799753452630
     0.9158406630366100    0.0841457724889049    0.5831502220757389
     0.9162167486116117    0.0835438064259495    0.9164561935740508
     0.9180246167968545    0.4172645699126364    0.2486420502031467
     0.9160066921048790    0.4174528897199950    0.5825471102800048
     0.9158406630366100    0.4168497779242609    0.9158542275110950
     0.9172146204585200    0.7505479534585188    0.2494520465414813
     0.9180246167968545    0.7513579497968533    0.5827354300873637
     0.9167866916547381    0.7501200246547369    0.9160853450463311
     0.0835647148331072    0.2503222763275270    0.2501671756281642
     0.0827400643824647    0.2501650993913551    0.5834612780488173
     0.0825985772948229    0.2499193213916687    0.9167561482066513
     0.0840457936039220    0.5836763450567084    0.2496847697304480
     0.0835615786310435    0.5833263798155254    0.5829986124142456
     0.0833643228856026    0.5832786137833551    0.9163329258470846
     0.0836899109576955    0.9170232449576978    0.2498483174218220
     0.0835575382888154    0.9168908722888177    0.5831768017779234
     0.0832261817578230    0.9165595157578255    0.9165078259239394
     0.4171468775975762    0.2504802105975750    0.2511282337490053
     0.4148143865218323    0.2481477195218310    0.5845742620811324
     0.4159026755123229    0.2492360085123216    0.9177862677772788
     0.4170711416105430    0.5836179540239480    0.2498816713026747
     0.4184795054329826    0.5809656629856090    0.5828706222072559
     0.4166908480653674    0.5825955341069826    0.9165444530023189
     0.4169889433275282    0.9168980488331097    0.2501671756281642
     0.4168317663913562    0.9160733983824673    0.5834612780488173
     0.4165859883916700    0.9159319112948250    0.9167561482066513
     0.7502846210239492    0.2504044746105418    0.2498816713026747
     0.7476323299856102    0.2518128384329814    0.5828706222072559
     0.7492622011069838    0.2500241810653663    0.9165444530023189
     0.7506256144001294    0.5839589474001282    0.2493038283631262
     0.7568730502815674    0.5902063832815662    0.5860096080956579
     0.7498458480029934    0.5831791810029922    0.9159545431464557
     0.7503430120567096    0.9173791276039241    0.2496847697304480
     0.7499930468155266    0.9168949126310461    0.5829986124142456
     0.7499452807833563    0.9166976568856050    0.9163329258470846
     0.9998775396218368    0.0002116320268809    0.9997883679731193
     0.0002168844424801    0.0005747066131492    0.3331513849341441
     0.9995096295385255    0.0003094241603215    0.6664932096393800
     0.9995096295385255    0.3335067903606204    0.9996905758396786
     0.0001408832155474    0.3339768142797450    0.3332105309664129
     0.9990380404166150    0.3337716826543911    0.6662283173456088
     0.0002168844424801    0.6668486150658555    0.9994252933868508
     0.0006057070830967    0.6671256829314743    0.3328743170685259
     0.0001408832155474    0.6667894690335874    0.6660231857202550
     0.3332647523276949    0.9996207632673152    0.0003792367326850
     0.3336633301190066    0.0001503742243772    0.3336584710112147
     0.3329694794166096    0.9991312124650507    0.6670381927105142
     0.3329694794166096    0.3329618072894859    0.0008687875349491
     0.3344903824154726    0.3335596959492897    0.3348090779978767
     0.3320014645987621    0.3322502767378387    0.6677497232621615
     0.3336633301190066    0.6663415289887855    0.9998496257756226
     0.3341113106504240    0.6665544852602512    0.3334455147397490
     0.3344903824154726    0.6651909220021233    0.6664403040507103
     0.6665195977724386    0.9999397015290065    0.0000602984709933
     0.6668730202094059    0.0005806445190817    0.3334750074411530
     0.6663889615860987    0.9997953100685681    0.6666242457088868
     0.6663889615860987    0.3333757542911133    0.0002046899314318
     0.6669064275871236    0.3360897973765812    0.3353953194854676
     0.6618591515677350    0.3328869461937942    0.6671130538062058
     0.6668730202094059    0.6665249925588471    0.9994193554809180
     0.6674226579274817    0.6669590221865273    0.3330409778134724
     0.6669064275871236    0.6646046805145320    0.6639102026234186
     0.1662874302673163    0.1665980863276973    0.0003792367326850
     0.1668170412243783    0.1669966641190087    0.3336584710112147
     0.1657978794650520    0.1663028134166121    0.6670381927105142
     0.1666063685290079    0.4998529307724374    0.0000602984709933
     0.1672473115190829    0.5002063532094045    0.3334750074411530
     0.1664619770685694    0.4997222945860973    0.6666242457088868
     0.1668782990268818    0.8332108726218356    0.9997883679731193
     0.1672413736131504    0.8335502174424789    0.3331513849341441
     0.1669760911603227    0.8328429625385243    0.6664932096393800
     0.4996284742894871    0.1663028134166121    0.0008687875349491
     0.5002263629492908    0.1678237164154749    0.3348090779978767
     0.4989169437378400    0.1653347985987646    0.6677497232621615
     0.5000424212911144    0.4997222945860973    0.0002046899314318
     0.5027564643765826    0.5002397605871225    0.3353953194854676
     0.4995536131937955    0.4951924845677336    0.6671130538062058
     0.5001734573606215    0.8328429625385243    0.9996905758396786
     0.5006434812797462    0.8334742162155461    0.3332105309664129
     0.5004383496543924    0.8323713734166137    0.6662283173456088
     0.8330081949887831    0.1669966641190087    0.9998496257756226
     0.8332211512602488    0.1674446446504265    0.3334455147397490
     0.8318575880021208    0.1678237164154749    0.6664403040507103
     0.8331916585588447    0.5002063532094045    0.9994193554809180
     0.8336256881865248    0.5007559909274804    0.3330409778134724
     0.8312713465145296    0.5002397605871225    0.6639102026234186
     0.8335152810658530    0.8335502174424789    0.9994252933868508
     0.8337923489314719    0.8339390400830955    0.3328743170685259
     0.8334561350335850    0.8334742162155461    0.6660231857202550
     0.1668782990268818    0.0002116320268809    0.1667891273781644
     0.1666063685290079    0.9999397015290065    0.5001470692275626
     0.1662874302673163    0.9996207632673152    0.8334019136723029
     0.1669760911603227    0.3335067903606204    0.1671570374614757
     0.1664619770685694    0.3333757542911133    0.5002777054139025
     0.1657978794650520    0.3329618072894859    0.8336971865833881
     0.1672413736131504    0.6668486150658555    0.1664497825575211
     0.1672473115190829    0.6665249925588471    0.4997936467905953
     0.1668170412243783    0.6663415289887855    0.8330033358809912
     0.5001734573606215    0.0003094241603215    0.1671570374614757
     0.5000424212911144    0.9997953100685681    0.5002777054139025
     0.4996284742894871    0.9991312124650507    0.8336971865833881
     0.5004383496543924    0.3337716826543911    0.1676286265833863
     0.4995536131937955    0.3328869461937942    0.5048075154322662
     0.4989169437378400    0.3322502767378387    0.8346652014012358
     0.5006434812797462    0.6667894690335874    0.1665257837844538
     0.5027564643765826    0.6646046805145320    0.4997602394128777
     0.5002263629492908    0.6651909220021233    0.8321762835845248
     0.8335152810658530    0.0005747066131492    0.1664497825575211
     0.8331916585588447    0.0005806445190817    0.4997936467905953
     0.8330081949887831    0.0001503742243772    0.8330033358809912
     0.8334561350335850    0.3339768142797450    0.1665257837844538
     0.8312713465145296    0.3360897973765812    0.4997602394128777
     0.8318575880021208    0.3335596959492897    0.8321762835845248
     0.8337923489314719    0.6671256829314743    0.1660609599169043
     0.8336256881865248    0.6669590221865273    0.4992440090725196
     0.8332211512602488    0.6665544852602512    0.8325553553495738
     0.9999631671156007    0.1671698061574037    0.1667034998844004
     0.9996135806694192    0.1671633477655051    0.5000739378921359
     0.9991395463209057    0.1668395023848283    0.8331604976151715
     0.0007426885333320    0.5004785838250529    0.1659239784666693
     0.9999404570791707    0.5004752758482297    0.4995247241517704
     0.9996135806694192    0.4999260621078640    0.8328366522344948
     0.0004196552918753    0.8337529882918739    0.1662470117081258
     0.0007426885333320    0.8340760215333307    0.4995214161749471
     0.9999631671156007    0.8332965001155996    0.8328301938425964
     0.3335061683848259    0.1668395023848283    0.1675271206790956
     0.3324424653517097    0.1657757993517121    0.5008571062597287
     0.3325597149833731    0.1658930489833754    0.8341069510166246
     0.3338300137655029    0.4999260621078640    0.1670530863305818
     0.3339192898424945    0.4995554813523089    0.5004445186476909
     0.3324424653517097    0.4991428937402712    0.8342242006482878
     0.3338364721574013    0.8332965001155996    0.1667034998844004
     0.3338300137655029    0.8329469136694180    0.5000739378921359
     0.3335061683848259    0.8324728793209046    0.8331604976151715
     0.6665927291078652    0.1671633477655051    0.1670530863305818
     0.6662221483523105    0.1672526238424970    0.5004445186476909
     0.6658095607402725    0.1657757993517121    0.8342242006482878
     0.6671419428482309    0.5004752758482297    0.1667262099208304
     0.6662221483523105    0.4995554813523089    0.8327473761575027
     0.6671452508250540    0.8340760215333307    0.1659239784666693
     0.6671419428482309    0.8332737900791695    0.4995247241517704
     0.6665927291078652    0.8329469136694180    0.8328366522344948
     0.5754154196565139    0.4087487536565161    0.5912512463434837
 
  0.00000000E+00  0.00000000E+00  0.00000000E+00
  0.00000000E+00  0.00000000E+00  0.00000000E+00
  0.00000000E+00  0.00000000E+00  0.00000000E+00
  0.00000000E+00  0.00000000E+00  0.00000000E+00
  0.00000000E+00  0.00000000E+00  0.00000000E+00
  0.00000000E+00  0.00000000E+00  0.00000000E+00
  0.00000000E+00  0.00000000E+00  0.00000000E+00
  0.00000000E+00  0.00000000E+00  0.00000000E+00
  0.00000000E+00  0.00000000E+00  0.00000000E+00
  0.00000000E+00  0.00000000E+00  0.00000000E+00
  0.00000000E+00  0.00000000E+00  0.00000000E+00
  0.00000000E+00  0.00000000E+00  0.00000000E+00
  0.00000000E+00  0.00000000E+00  0.00000000E+00
  0.00000000E+00  0.00000000E+00  0.00000000E+00
  0.00000000E+00  0.00000000E+00  0.00000000E+00
  0.00000000E+00  0.00000000E+00  0.00000000E+00
  0.00000000E+00  0.00000000E+00  0.00000000E+00
  0.00000000E+00  0.00000000E+00  0.00000000E+00
  0.00000000E+00  0.00000000E+00  0.00000000E+00
  0.00000000E+00  0.00000000E+00  0.00000000E+00
  0.00000000E+00  0.00000000E+00  0.00000000E+00
  0.00000000E+00  0.00000000E+00  0.00000000E+00
  0.00000000E+00  0.00000000E+00  0.00000000E+00
  0.00000000E+00  0.00000000E+00  0.00000000E+00
  0.00000000E+00  0.00000000E+00  0.00000000E+00
  0.00000000E+00  0.00000000E+00  0.00000000E+00
  0.00000000E+00  0.00000000E+00  0.00000000E+00
  0.00000000E+00  0.00000000E+00  0.00000000E+00
  0.00000000E+00  0.00000000E+00  0.00000000E+00
  0.00000000E+00  0.00000000E+00  0.00000000E+00
  0.00000000E+00  0.00000000E+00  0.00000000E+00
  0.00000000E+00  0.00000000E+00  0.00000000E+00
  0.00000000E+00  0.00000000E+00  0.00000000E+00
  0.00000000E+00  0.00000000E+00  0.00000000E+00
  0.00000000E+00  0.00000000E+00  0.00000000E+00
  0.00000000E+00  0.00000000E+00  0.00000000E+00
  0.00000000E+00  0.00000000E+00  0.00000000E+00
  0.00000000E+00  0.00000000E+00  0.00000000E+00
  0.00000000E+00  0.00000000E+00  0.00000000E+00
  0.00000000E+00  0.00000000E+00  0.00000000E+00
  0.00000000E+00  0.00000000E+00  0.00000000E+00
  0.00000000E+00  0.00000000E+00  0.00000000E+00
  0.00000000E+00  0.00000000E+00  0.00000000E+00
  0.00000000E+00  0.00000000E+00  0.00000000E+00
  0.00000000E+00  0.00000000E+00  0.00000000E+00
  0.00000000E+00  0.00000000E+00  0.00000000E+00
  0.00000000E+00  0.00000000E+00  0.00000000E+00
  0.00000000E+00  0.00000000E+00  0.00000000E+00
  0.00000000E+00  0.00000000E+00  0.00000000E+00
  0.00000000E+00  0.00000000E+00  0.00000000E+00
  0.00000000E+00  0.00000000E+00  0.00000000E+00
  0.00000000E+00  0.00000000E+00  0.00000000E+00
  0.00000000E+00  0.00000000E+00  0.00000000E+00
  0.00000000E+00  0.00000000E+00  0.00000000E+00
  0.00000000E+00  0.00000000E+00  0.00000000E+00
  0.00000000E+00  0.00000000E+00  0.00000000E+00
  0.00000000E+00  0.00000000E+00  0.00000000E+00
  0.00000000E+00  0.00000000E+00  0.00000000E+00
  0.00000000E+00  0.00000000E+00  0.00000000E+00
  0.00000000E+00  0.00000000E+00  0.00000000E+00
  0.00000000E+00  0.00000000E+00  0.00000000E+00
  0.00000000E+00  0.00000000E+00  0.00000000E+00
  0.00000000E+00  0.00000000E+00  0.00000000E+00
  0.00000000E+00  0.00000000E+00  0.00000000E+00
  0.00000000E+00  0.00000000E+00  0.00000000E+00
  0.00000000E+00  0.00000000E+00  0.00000000E+00
  0.00000000E+00  0.00000000E+00  0.00000000E+00
  0.00000000E+00  0.00000000E+00  0.00000000E+00
  0.00000000E+00  0.00000000E+00  0.00000000E+00
  0.00000000E+00  0.00000000E+00  0.00000000E+00
  0.00000000E+00  0.00000000E+00  0.00000000E+00
  0.00000000E+00  0.00000000E+00  0.00000000E+00
  0.00000000E+00  0.00000000E+00  0.00000000E+00
  0.00000000E+00  0.00000000E+00  0.00000000E+00
  0.00000000E+00  0.00000000E+00  0.00000000E+00
  0.00000000E+00  0.00000000E+00  0.00000000E+00
  0.00000000E+00  0.00000000E+00  0.00000000E+00
  0.00000000E+00  0.00000000E+00  0.00000000E+00
  0.00000000E+00  0.00000000E+00  0.00000000E+00
  0.00000000E+00  0.00000000E+00  0.00000000E+00
  0.00000000E+00  0.00000000E+00  0.00000000E+00
  0.00000000E+00  0.00000000E+00  0.00000000E+00
  0.00000000E+00  0.00000000E+00  0.00000000E+00
  0.00000000E+00  0.00000000E+00  0.00000000E+00
  0.00000000E+00  0.00000000E+00  0.00000000E+00
  0.00000000E+00  0.00000000E+00  0.00000000E+00
  0.00000000E+00  0.00000000E+00  0.00000000E+00
  0.00000000E+00  0.00000000E+00  0.00000000E+00
  0.00000000E+00  0.00000000E+00  0.00000000E+00
  0.00000000E+00  0.00000000E+00  0.00000000E+00
  0.00000000E+00  0.00000000E+00  0.00000000E+00
  0.00000000E+00  0.00000000E+00  0.00000000E+00
  0.00000000E+00  0.00000000E+00  0.00000000E+00
  0.00000000E+00  0.00000000E+00  0.00000000E+00
  0.00000000E+00  0.00000000E+00  0.00000000E+00
  0.00000000E+00  0.00000000E+00  0.00000000E+00
  0.00000000E+00  0.00000000E+00  0.00000000E+00
  0.00000000E+00  0.00000000E+00  0.00000000E+00
  0.00000000E+00  0.00000000E+00  0.00000000E+00
  0.00000000E+00  0.00000000E+00  0.00000000E+00
  0.00000000E+00  0.00000000E+00  0.00000000E+00
  0.00000000E+00  0.00000000E+00  0.00000000E+00
  0.00000000E+00  0.00000000E+00  0.00000000E+00
  0.00000000E+00  0.00000000E+00  0.00000000E+00
  0.00000000E+00  0.00000000E+00  0.00000000E+00
  0.00000000E+00  0.00000000E+00  0.00000000E+00
  0.00000000E+00  0.00000000E+00  0.00000000E+00
  0.00000000E+00  0.00000000E+00  0.00000000E+00
  0.00000000E+00  0.00000000E+00  0.00000000E+00
  0.00000000E+00  0.00000000E+00  0.00000000E+00
  0.00000000E+00  0.00000000E+00  0.00000000E+00
  0.00000000E+00  0.00000000E+00  0.00000000E+00
  0.00000000E+00  0.00000000E+00  0.00000000E+00
  0.00000000E+00  0.00000000E+00  0.00000000E+00
  0.00000000E+00  0.00000000E+00  0.00000000E+00
  0.00000000E+00  0.00000000E+00  0.00000000E+00
  0.00000000E+00  0.00000000E+00  0.00000000E+00
  0.00000000E+00  0.00000000E+00  0.00000000E+00
  0.00000000E+00  0.00000000E+00  0.00000000E+00
  0.00000000E+00  0.00000000E+00  0.00000000E+00
  0.00000000E+00  0.00000000E+00  0.00000000E+00
  0.00000000E+00  0.00000000E+00  0.00000000E+00
  0.00000000E+00  0.00000000E+00  0.00000000E+00
  0.00000000E+00  0.00000000E+00  0.00000000E+00
  0.00000000E+00  0.00000000E+00  0.00000000E+00
  0.00000000E+00  0.00000000E+00  0.00000000E+00
  0.00000000E+00  0.00000000E+00  0.00000000E+00
  0.00000000E+00  0.00000000E+00  0.00000000E+00
  0.00000000E+00  0.00000000E+00  0.00000000E+00
  0.00000000E+00  0.00000000E+00  0.00000000E+00
  0.00000000E+00  0.00000000E+00  0.00000000E+00
  0.00000000E+00  0.00000000E+00  0.00000000E+00
  0.00000000E+00  0.00000000E+00  0.00000000E+00
  0.00000000E+00  0.00000000E+00  0.00000000E+00
  0.00000000E+00  0.00000000E+00  0.00000000E+00
  0.00000000E+00  0.00000000E+00  0.00000000E+00
  0.00000000E+00  0.00000000E+00  0.00000000E+00
  0.00000000E+00  0.00000000E+00  0.00000000E+00
  0.00000000E+00  0.00000000E+00  0.00000000E+00
  0.00000000E+00  0.00000000E+00  0.00000000E+00
  0.00000000E+00  0.00000000E+00  0.00000000E+00
  0.00000000E+00  0.00000000E+00  0.00000000E+00
  0.00000000E+00  0.00000000E+00  0.00000000E+00
  0.00000000E+00  0.00000000E+00  0.00000000E+00
  0.00000000E+00  0.00000000E+00  0.00000000E+00
  0.00000000E+00  0.00000000E+00  0.00000000E+00
  0.00000000E+00  0.00000000E+00  0.00000000E+00
  0.00000000E+00  0.00000000E+00  0.00000000E+00
  0.00000000E+00  0.00000000E+00  0.00000000E+00
  0.00000000E+00  0.00000000E+00  0.00000000E+00
  0.00000000E+00  0.00000000E+00  0.00000000E+00
  0.00000000E+00  0.00000000E+00  0.00000000E+00
  0.00000000E+00  0.00000000E+00  0.00000000E+00
  0.00000000E+00  0.00000000E+00  0.00000000E+00
  0.00000000E+00  0.00000000E+00  0.00000000E+00
  0.00000000E+00  0.00000000E+00  0.00000000E+00
  0.00000000E+00  0.00000000E+00  0.00000000E+00
  0.00000000E+00  0.00000000E+00  0.00000000E+00
  0.00000000E+00  0.00000000E+00  0.00000000E+00
  0.00000000E+00  0.00000000E+00  0.00000000E+00
  0.00000000E+00  0.00000000E+00  0.00000000E+00
  0.00000000E+00  0.00000000E+00  0.00000000E+00
  0.00000000E+00  0.00000000E+00  0.00000000E+00
  0.00000000E+00  0.00000000E+00  0.00000000E+00
  0.00000000E+00  0.00000000E+00  0.00000000E+00
  0.00000000E+00  0.00000000E+00  0.00000000E+00
  0.00000000E+00  0.00000000E+00  0.00000000E+00
  0.00000000E+00  0.00000000E+00  0.00000000E+00
  0.00000000E+00  0.00000000E+00  0.00000000E+00
  0.00000000E+00  0.00000000E+00  0.00000000E+00
  0.00000000E+00  0.00000000E+00  0.00000000E+00
  0.00000000E+00  0.00000000E+00  0.00000000E+00
  0.00000000E+00  0.00000000E+00  0.00000000E+00
  0.00000000E+00  0.00000000E+00  0.00000000E+00
  0.00000000E+00  0.00000000E+00  0.00000000E+00
  0.00000000E+00  0.00000000E+00  0.00000000E+00
  0.00000000E+00  0.00000000E+00  0.00000000E+00
  0.00000000E+00  0.00000000E+00  0.00000000E+00
  0.00000000E+00  0.00000000E+00  0.00000000E+00
  0.00000000E+00  0.00000000E+00  0.00000000E+00
  0.00000000E+00  0.00000000E+00  0.00000000E+00
  0.00000000E+00  0.00000000E+00  0.00000000E+00
  0.00000000E+00  0.00000000E+00  0.00000000E+00
  0.00000000E+00  0.00000000E+00  0.00000000E+00
  0.00000000E+00  0.00000000E+00  0.00000000E+00
  0.00000000E+00  0.00000000E+00  0.00000000E+00
  0.00000000E+00  0.00000000E+00  0.00000000E+00
  0.00000000E+00  0.00000000E+00  0.00000000E+00
  0.00000000E+00  0.00000000E+00  0.00000000E+00
  0.00000000E+00  0.00000000E+00  0.00000000E+00
  0.00000000E+00  0.00000000E+00  0.00000000E+00
  0.00000000E+00  0.00000000E+00  0.00000000E+00
  0.00000000E+00  0.00000000E+00  0.00000000E+00
  0.00000000E+00  0.00000000E+00  0.00000000E+00
  0.00000000E+00  0.00000000E+00  0.00000000E+00
  0.00000000E+00  0.00000000E+00  0.00000000E+00
  0.00000000E+00  0.00000000E+00  0.00000000E+00
  0.00000000E+00  0.00000000E+00  0.00000000E+00
  0.00000000E+00  0.00000000E+00  0.00000000E+00
  0.00000000E+00  0.00000000E+00  0.00000000E+00
  0.00000000E+00  0.00000000E+00  0.00000000E+00
  0.00000000E+00  0.00000000E+00  0.00000000E+00
  0.00000000E+00  0.00000000E+00  0.00000000E+00
  0.00000000E+00  0.00000000E+00  0.00000000E+00
  0.00000000E+00  0.00000000E+00  0.00000000E+00
  0.00000000E+00  0.00000000E+00  0.00000000E+00
  0.00000000E+00  0.00000000E+00  0.00000000E+00
  0.00000000E+00  0.00000000E+00  0.00000000E+00
  0.00000000E+00  0.00000000E+00  0.00000000E+00
  0.00000000E+00  0.00000000E+00  0.00000000E+00
  0.00000000E+00  0.00000000E+00  0.00000000E+00
  0.00000000E+00  0.00000000E+00  0.00000000E+00
  0.00000000E+00  0.00000000E+00  0.00000000E+00
  0.00000000E+00  0.00000000E+00  0.00000000E+00
  0.00000000E+00  0.00000000E+00  0.00000000E+00
