C8                                      
   1.00000000000000     
    10.7211360931000002    0.0000000000000000    0.0000000000000000
     0.0000000000000000   10.7211360931000002    0.0000000000000000
     0.0000000000000000    0.0000000000000000   10.7211360931000002
   C    N 
   214     1
Direct
     0.0832543305298010    0.0834078571342452    0.0834123354701966
     0.0838393783211592    0.0830340549637961    0.4168702782509743
     0.0830398553570464    0.0835461697546944    0.7497939620243731
     0.0839336357163780    0.4170040081717177    0.0827330302836196
     0.0831861464466964    0.4167944891164527    0.4167202396830674
     0.0830602945052655    0.4169127897303847    0.7498386787443717
     0.0831361114099456    0.7498311250410834    0.0835305545900519
     0.0831662347503298    0.7498758722881134    0.4168566534315195
     0.0834699651063567    0.7498378464207689    0.7498109747320217
     0.4168727049756282    0.0835461697546944    0.0836268106429512
     0.4169868174014739    0.0836725991799031    0.4168691641337197
     0.4164782439195766    0.0829220949231123    0.7501884230804249
     0.4168279882556293    0.4169127897303847    0.0836063714947321
     0.4186930810145083    0.4179247375149699    0.4181487985678976
     0.4155664577147656    0.4164783083597120    0.7511002092852358
     0.4168556922679796    0.7498378464207689    0.0831967008936408
     0.4156067586472104    0.7509718125297725    0.4174442949257625
     0.4174819170942657    0.7493053435953283    0.7491847499057357
     0.7497963887490270    0.0830340549637961    0.0828272876788384
     0.7498847786914361    0.0835820643173830    0.4167818883085653
     0.7497975028662816    0.0836725991799031    0.7496798495985270
     0.7499464273169336    0.4167944891164527    0.0834805195533011
     0.7571408137078269    0.4096905931106501    0.4095258532921741
     0.7485178684321033    0.4179247375149699    0.7479735859854926
     0.7498100135684816    0.7498758722881134    0.0835004312496678
     0.7491594843693555    0.7486199640220249    0.4175071826306457
     0.7492223720742387    0.7509718125297725    0.7510599083527907
     0.2502128367546955    0.2502060379756270    0.0836268106429512
     0.2503392661799044    0.2503201504014727    0.4168691641337197
     0.2495887619231135    0.2498115769195753    0.7501884230804249
     0.2497007219637973    0.5831297217490258    0.0828272876788384
     0.2502487313173842    0.5832181116914349    0.4167818883085653
     0.2503392661799044    0.5831308358662803    0.7496798495985270
     0.2500745241342463    0.9165876645298034    0.0834123354701966
     0.2497007219637973    0.9171727123211617    0.4168702782509743
     0.2502128367546955    0.9163731893570488    0.7497939620243731
     0.5835794557303821    0.2501613212556281    0.0836063714947321
     0.5845914035149673    0.2520264140145070    0.4181487985678976
     0.5831449743597094    0.2488997907147643    0.7511002092852358
     0.5834611551164505    0.5832797603169324    0.0834805195533011
     0.5763572591106478    0.5904741467078257    0.4095258532921741
     0.5845914035149673    0.5818512014321021    0.7479735859854926
     0.5836706741717151    0.9172669697163807    0.0827330302836196
     0.5834611551164505    0.9165194804466987    0.4167202396830674
     0.5835794557303821    0.9163936285052676    0.7498386787443717
     0.9165045134207701    0.2501890252679784    0.0831967008936408
     0.9176384795297737    0.2489400916472092    0.4174442949257625
     0.9159720105953295    0.2508152500942645    0.7491847499057357
     0.9165425392881146    0.5831433465684804    0.0835004312496678
     0.9152866310220261    0.5824928173693543    0.4175071826306457
     0.9176384795297737    0.5825557050742375    0.7510599083527907
     0.9164977920410846    0.9164694454099480    0.0835305545900519
     0.9165425392881146    0.9164995687503323    0.4168566534315195
     0.9165045134207701    0.9168032991063595    0.7498109747320217
     0.2502377515908111    0.0835710845908098    0.2501371924827890
     0.2499477659580671    0.0832810989580659    0.5833041087880450
     0.2498923779159322    0.0832257109159310    0.9167742890840689
     0.2504684030848003    0.4170235163623306    0.2503373531307936
     0.2500053162352174    0.4166690552493159    0.5833309447506841
     0.2499477659580671    0.4166958912119552    0.9167189010419340
     0.2499271939508918    0.7498807909871094    0.2501192090128908
     0.2504684030848003    0.7496626468692065    0.5829764836376695
     0.2502377515908111    0.7498628075172110    0.9164289154091902
     0.5836901823623281    0.0838017360847991    0.2503373531307936
     0.5833357212493134    0.0833386492352163    0.5833309447506841
     0.5833625572119526    0.0832810989580659    0.9167189010419340
     0.5841586710362597    0.4174920050362621    0.2515397165892721
     0.5833357212493134    0.4166690552493159    0.9166613507647837
     0.5840467907205137    0.7510769859937013    0.2489230140062987
     0.5841586710362597    0.7484602834107282    0.5825079949637378
     0.5836901823623281    0.7496626468692065    0.9161982639152008
     0.9165474579871106    0.0832605269508906    0.2501192090128908
     0.9163293138692077    0.0838017360847991    0.5829764836376695
     0.9165294745172122    0.0835710845908098    0.9164289154091902
     0.9177436529937025    0.4173801247205160    0.2489230140062987
     0.9151269504107294    0.4174920050362621    0.5825079949637378
     0.9163293138692077    0.4170235163623306    0.9161982639152008
     0.9160230941474374    0.7493564271474362    0.2506435728525641
     0.9177436529937025    0.7510769859937013    0.5826198752794839
     0.9165474579871106    0.7498807909871094    0.9167394730491094
     0.0834699651063567    0.2501890252679784    0.2501621535792312
     0.0830602945052655    0.2501613212556281    0.5830872102696155
     0.0830398553570464    0.2502060379756270    0.9164538302453056
     0.0831662347503298    0.5831433465684804    0.2501241277118868
     0.0831861464466964    0.5832797603169324    0.5832055108835471
     0.0838393783211592    0.5831297217490258    0.9169659450362040
     0.0831361114099456    0.9164694454099480    0.2501688749589167
     0.0839336357163780    0.9172669697163807    0.5829959918282824
     0.0832543305298010    0.9165876645298034    0.9165921428657550
     0.4174819170942657    0.2508152500942645    0.2506946564046716
     0.4155664577147656    0.2488997907147643    0.5835216916402882
     0.4164782439195766    0.2498115769195753    0.9170779050768874
     0.4156067586472104    0.5825557050742375    0.2490281874702276
     0.4186930810145083    0.5818512014321021    0.5820752624850303
     0.4169868174014739    0.5831308358662803    0.9163274008200970
     0.4168556922679796    0.9168032991063595    0.2501621535792312
     0.4168279882556293    0.9163936285052676    0.5830872102696155
     0.4168727049756282    0.9163731893570488    0.9164538302453056
     0.7492223720742387    0.2489400916472092    0.2490281874702276
     0.7485178684321033    0.2520264140145070    0.5820752624850303
     0.7497975028662816    0.2503201504014727    0.9163274008200970
     0.7491594843693555    0.5824928173693543    0.2513800359779751
     0.7571408137078269    0.5904741467078257    0.5903094068893497
     0.7498847786914361    0.5832181116914349    0.9164179356826166
     0.7498100135684816    0.9164995687503323    0.2501241277118868
     0.7499464273169336    0.9165194804466987    0.5832055108835471
     0.7497963887490270    0.9171727123211617    0.9169659450362040
     0.9998616548245771    0.0000182614838828    0.9999817385161174
     0.9999235889346930    0.9998562191113102    0.3333925810468631
     0.9997596165887377    0.0003574741900756    0.6665502215739477
     0.9997596165887377    0.3334497784260521    0.9996425258099245
     0.0000848000592416    0.3333358911683170    0.3333104455944859
     0.9989558340662112    0.3342924222895113    0.6657075777104888
     0.9999235889346930    0.6666074189531369    0.0001437808886902
     0.9990628492144826    0.6657812186270676    0.3342187813729324
     0.0000848000592416    0.6666895544055139    0.6666641088316831
     0.3334599117583589    0.9999278359670982    0.0000721640329016
     0.3335280164259344    0.0002716841338570    0.3333593898129682
     0.3334605920339226    0.9997459984284210    0.6665931215276930
     0.3334605920339226    0.3334068784723070    0.0002540015715789
     0.3347507091109378    0.3340778574630073    0.3345189448465483
     0.3326679292171953    0.3329581428765626    0.6670418571234376
     0.3335280164259344    0.6666406101870318    0.9997283158661429
     0.3332778031942411    0.6667014269306460    0.3332985730693537
     0.3347507091109378    0.6654810551534516    0.6659221425369927
     0.6667889479128158    0.0002554228575979    0.9997445771424019
     0.6666360796125301    0.0000630004516199    0.3336578493389116
     0.6667238272367344    0.9999178925308067    0.6664374036486653
     0.6667238272367344    0.3335625963513348    0.0000821074691932
     0.6695616159268705    0.3349685969010976    0.3347664090968275
     0.6627702472873578    0.3341872166404321    0.6658127833595681
     0.6666360796125301    0.6663421506610886    0.9999369995483801
     0.6641578853445071    0.6652601948760981    0.3347398051239021
     0.6695616159268705    0.6652335909031726    0.6650314030989026
     0.1665945029670996    0.1667932457583613    0.0000721640329016
     0.1669383511338582    0.1668613504259368    0.3333593898129682
     0.1664126654284223    0.1667939260339250    0.6665931215276930
     0.1669220898575991    0.5001222809128146    0.9997445771424019
     0.1667296674516213    0.4999694126125288    0.3336578493389116
     0.1665845595308080    0.5000571602367332    0.6664374036486653
     0.1666849284838840    0.8331949878245759    0.9999817385161174
     0.1665228861113112    0.8332569219346918    0.3333925810468631
     0.1670241411900768    0.8330929495887365    0.6665502215739477
     0.5000735454723082    0.1667939260339250    0.0002540015715789
     0.5007445244630085    0.1680840431109401    0.3345189448465483
     0.4996248098765637    0.1660012632171978    0.6670418571234376
     0.5002292633513358    0.5000571602367332    0.0000821074691932
     0.5016352639010986    0.5028949489268693    0.3347664090968276
     0.5008538836404332    0.4961035802873565    0.6658127833595681
     0.5001164454260535    0.8330929495887365    0.9996425258099245
     0.5000025581683181    0.8334181330592403    0.3333104455944859
     0.5009590892895124    0.8322891670662100    0.6657075777104888
     0.8333072761870294    0.1668613504259368    0.9997283158661429
     0.8333680929306436    0.1666111371942435    0.3332985730693537
     0.8321477211534491    0.1680840431109401    0.6659221425369927
     0.8330088166610862    0.4999694126125288    0.9999369995483801
     0.8319268608760957    0.4974912183445058    0.3347398051239021
     0.8319002569031702    0.5028949489268693    0.6650314030989026
     0.8332740849531345    0.8332569219346918    0.0001437808886902
     0.8324478846270652    0.8323961822144814    0.3342187813729324
     0.8333562204055115    0.8334181330592403    0.6666641088316831
     0.1666849284838840    0.0000182614838828    0.1668050121754239
     0.1669220898575991    0.0002554228575979    0.4998777190871855
     0.1665945029670996    0.9999278359670982    0.8332067542416387
     0.1670241411900768    0.3334497784260521    0.1669070504112637
     0.1665845595308080    0.3335625963513348    0.4999428397632670
     0.1664126654284223    0.3334068784723070    0.8332060739660748
     0.1665228861113112    0.6666074189531369    0.1667430780653083
     0.1667296674516213    0.6663421506610886    0.5000305873874712
     0.1669383511338582    0.6666406101870318    0.8331386495740634
     0.5001164454260535    0.0003574741900756    0.1669070504112637
     0.5002292633513358    0.9999178925308067    0.4999428397632670
     0.5000735454723082    0.9997459984284210    0.8332060739660748
     0.5009590892895124    0.3342924222895113    0.1677108329337899
     0.5008538836404332    0.3341872166404321    0.5038964197126434
     0.4996248098765637    0.3329581428765626    0.8339987367828022
     0.5000025581683181    0.6666895544055139    0.1665818669407596
     0.5016352639010986    0.6652335909031726    0.4971050510731309
     0.5007445244630085    0.6654810551534516    0.8319159568890597
     0.8332740849531345    0.9998562191113102    0.1667430780653083
     0.8330088166610862    0.0000630004516199    0.5000305873874712
     0.8333072761870294    0.0002716841338570    0.8331386495740634
     0.8333562204055115    0.3333358911683170    0.1665818669407596
     0.8319002569031702    0.3349685969010976    0.4971050510731309
     0.8321477211534491    0.3340778574630073    0.8319159568890597
     0.8324478846270652    0.6657812186270676    0.1676038177855183
     0.8319268608760957    0.6652601948760981    0.5025087816554941
     0.8333680929306436    0.6667014269306460    0.8333888628057565
     0.9999055930171309    0.1667787086101495    0.1667610739828703
     0.0008387067141821    0.1659501441648035    0.4996528897175103
     0.9995506011651696    0.1670937885372259    0.8329062114627741
     0.0008600772733779    0.4996274685473611    0.1658065897266233
     0.9988109776278672    0.5000604608148939    0.4999395391851061
     0.0008387067141821    0.5003471102824895    0.8340498558351964
     0.9995810893154961    0.8329144223154948    0.1670855776845051
     0.0008600772733779    0.8341934102733768    0.5003725314526388
     0.9999055930171309    0.8332389260171297    0.8332212913898503
     0.3337604545372234    0.1670937885372259    0.1671160658348315
     0.3330622524253095    0.1663955864253118    0.5002463829057534
     0.3331629739118672    0.1664963079118697    0.8335036920881301
     0.3326168101648012    0.5003471102824895    0.1658279602858191
     0.3341350481360101    0.4999689052038910    0.5000310947961091
     0.3330622524253095    0.4997536170942469    0.8336044135746881
     0.3334453746101469    0.8332389260171297    0.1667610739828703
     0.3326168101648012    0.8341720397141810    0.4996528897175103
     0.3337604545372234    0.8328839341651684    0.8329062114627741
     0.6670137772824908    0.1659501441648035    0.1658279602858191
     0.6666355722038921    0.1674683821360125    0.5000310947961091
     0.6664202840942478    0.1663955864253118    0.8336044135746881
     0.6667271278148951    0.5000604608148939    0.1678556893721340
     0.6666355722038921    0.4999689052038910    0.8325316178639875
     0.6662941355473624    0.8341934102733768    0.1658065897266233
     0.6667271278148951    0.8321443106278660    0.4999395391851061
     0.6670137772824908    0.8341720397141810    0.8340498558351964
     0.5751743466998235    0.4085076806998260    0.5914923193001741
 
  0.00000000E+00  0.00000000E+00  0.00000000E+00
  0.00000000E+00  0.00000000E+00  0.00000000E+00
  0.00000000E+00  0.00000000E+00  0.00000000E+00
  0.00000000E+00  0.00000000E+00  0.00000000E+00
  0.00000000E+00  0.00000000E+00  0.00000000E+00
  0.00000000E+00  0.00000000E+00  0.00000000E+00
  0.00000000E+00  0.00000000E+00  0.00000000E+00
  0.00000000E+00  0.00000000E+00  0.00000000E+00
  0.00000000E+00  0.00000000E+00  0.00000000E+00
  0.00000000E+00  0.00000000E+00  0.00000000E+00
  0.00000000E+00  0.00000000E+00  0.00000000E+00
  0.00000000E+00  0.00000000E+00  0.00000000E+00
  0.00000000E+00  0.00000000E+00  0.00000000E+00
  0.00000000E+00  0.00000000E+00  0.00000000E+00
  0.00000000E+00  0.00000000E+00  0.00000000E+00
  0.00000000E+00  0.00000000E+00  0.00000000E+00
  0.00000000E+00  0.00000000E+00  0.00000000E+00
  0.00000000E+00  0.00000000E+00  0.00000000E+00
  0.00000000E+00  0.00000000E+00  0.00000000E+00
  0.00000000E+00  0.00000000E+00  0.00000000E+00
  0.00000000E+00  0.00000000E+00  0.00000000E+00
  0.00000000E+00  0.00000000E+00  0.00000000E+00
  0.00000000E+00  0.00000000E+00  0.00000000E+00
  0.00000000E+00  0.00000000E+00  0.00000000E+00
  0.00000000E+00  0.00000000E+00  0.00000000E+00
  0.00000000E+00  0.00000000E+00  0.00000000E+00
  0.00000000E+00  0.00000000E+00  0.00000000E+00
  0.00000000E+00  0.00000000E+00  0.00000000E+00
  0.00000000E+00  0.00000000E+00  0.00000000E+00
  0.00000000E+00  0.00000000E+00  0.00000000E+00
  0.00000000E+00  0.00000000E+00  0.00000000E+00
  0.00000000E+00  0.00000000E+00  0.00000000E+00
  0.00000000E+00  0.00000000E+00  0.00000000E+00
  0.00000000E+00  0.00000000E+00  0.00000000E+00
  0.00000000E+00  0.00000000E+00  0.00000000E+00
  0.00000000E+00  0.00000000E+00  0.00000000E+00
  0.00000000E+00  0.00000000E+00  0.00000000E+00
  0.00000000E+00  0.00000000E+00  0.00000000E+00
  0.00000000E+00  0.00000000E+00  0.00000000E+00
  0.00000000E+00  0.00000000E+00  0.00000000E+00
  0.00000000E+00  0.00000000E+00  0.00000000E+00
  0.00000000E+00  0.00000000E+00  0.00000000E+00
  0.00000000E+00  0.00000000E+00  0.00000000E+00
  0.00000000E+00  0.00000000E+00  0.00000000E+00
  0.00000000E+00  0.00000000E+00  0.00000000E+00
  0.00000000E+00  0.00000000E+00  0.00000000E+00
  0.00000000E+00  0.00000000E+00  0.00000000E+00
  0.00000000E+00  0.00000000E+00  0.00000000E+00
  0.00000000E+00  0.00000000E+00  0.00000000E+00
  0.00000000E+00  0.00000000E+00  0.00000000E+00
  0.00000000E+00  0.00000000E+00  0.00000000E+00
  0.00000000E+00  0.00000000E+00  0.00000000E+00
  0.00000000E+00  0.00000000E+00  0.00000000E+00
  0.00000000E+00  0.00000000E+00  0.00000000E+00
  0.00000000E+00  0.00000000E+00  0.00000000E+00
  0.00000000E+00  0.00000000E+00  0.00000000E+00
  0.00000000E+00  0.00000000E+00  0.00000000E+00
  0.00000000E+00  0.00000000E+00  0.00000000E+00
  0.00000000E+00  0.00000000E+00  0.00000000E+00
  0.00000000E+00  0.00000000E+00  0.00000000E+00
  0.00000000E+00  0.00000000E+00  0.00000000E+00
  0.00000000E+00  0.00000000E+00  0.00000000E+00
  0.00000000E+00  0.00000000E+00  0.00000000E+00
  0.00000000E+00  0.00000000E+00  0.00000000E+00
  0.00000000E+00  0.00000000E+00  0.00000000E+00
  0.00000000E+00  0.00000000E+00  0.00000000E+00
  0.00000000E+00  0.00000000E+00  0.00000000E+00
  0.00000000E+00  0.00000000E+00  0.00000000E+00
  0.00000000E+00  0.00000000E+00  0.00000000E+00
  0.00000000E+00  0.00000000E+00  0.00000000E+00
  0.00000000E+00  0.00000000E+00  0.00000000E+00
  0.00000000E+00  0.00000000E+00  0.00000000E+00
  0.00000000E+00  0.00000000E+00  0.00000000E+00
  0.00000000E+00  0.00000000E+00  0.00000000E+00
  0.00000000E+00  0.00000000E+00  0.00000000E+00
  0.00000000E+00  0.00000000E+00  0.00000000E+00
  0.00000000E+00  0.00000000E+00  0.00000000E+00
  0.00000000E+00  0.00000000E+00  0.00000000E+00
  0.00000000E+00  0.00000000E+00  0.00000000E+00
  0.00000000E+00  0.00000000E+00  0.00000000E+00
  0.00000000E+00  0.00000000E+00  0.00000000E+00
  0.00000000E+00  0.00000000E+00  0.00000000E+00
  0.00000000E+00  0.00000000E+00  0.00000000E+00
  0.00000000E+00  0.00000000E+00  0.00000000E+00
  0.00000000E+00  0.00000000E+00  0.00000000E+00
  0.00000000E+00  0.00000000E+00  0.00000000E+00
  0.00000000E+00  0.00000000E+00  0.00000000E+00
  0.00000000E+00  0.00000000E+00  0.00000000E+00
  0.00000000E+00  0.00000000E+00  0.00000000E+00
  0.00000000E+00  0.00000000E+00  0.00000000E+00
  0.00000000E+00  0.00000000E+00  0.00000000E+00
  0.00000000E+00  0.00000000E+00  0.00000000E+00
  0.00000000E+00  0.00000000E+00  0.00000000E+00
  0.00000000E+00  0.00000000E+00  0.00000000E+00
  0.00000000E+00  0.00000000E+00  0.00000000E+00
  0.00000000E+00  0.00000000E+00  0.00000000E+00
  0.00000000E+00  0.00000000E+00  0.00000000E+00
  0.00000000E+00  0.00000000E+00  0.00000000E+00
  0.00000000E+00  0.00000000E+00  0.00000000E+00
  0.00000000E+00  0.00000000E+00  0.00000000E+00
  0.00000000E+00  0.00000000E+00  0.00000000E+00
  0.00000000E+00  0.00000000E+00  0.00000000E+00
  0.00000000E+00  0.00000000E+00  0.00000000E+00
  0.00000000E+00  0.00000000E+00  0.00000000E+00
  0.00000000E+00  0.00000000E+00  0.00000000E+00
  0.00000000E+00  0.00000000E+00  0.00000000E+00
  0.00000000E+00  0.00000000E+00  0.00000000E+00
  0.00000000E+00  0.00000000E+00  0.00000000E+00
  0.00000000E+00  0.00000000E+00  0.00000000E+00
  0.00000000E+00  0.00000000E+00  0.00000000E+00
  0.00000000E+00  0.00000000E+00  0.00000000E+00
  0.00000000E+00  0.00000000E+00  0.00000000E+00
  0.00000000E+00  0.00000000E+00  0.00000000E+00
  0.00000000E+00  0.00000000E+00  0.00000000E+00
  0.00000000E+00  0.00000000E+00  0.00000000E+00
  0.00000000E+00  0.00000000E+00  0.00000000E+00
  0.00000000E+00  0.00000000E+00  0.00000000E+00
  0.00000000E+00  0.00000000E+00  0.00000000E+00
  0.00000000E+00  0.00000000E+00  0.00000000E+00
  0.00000000E+00  0.00000000E+00  0.00000000E+00
  0.00000000E+00  0.00000000E+00  0.00000000E+00
  0.00000000E+00  0.00000000E+00  0.00000000E+00
  0.00000000E+00  0.00000000E+00  0.00000000E+00
  0.00000000E+00  0.00000000E+00  0.00000000E+00
  0.00000000E+00  0.00000000E+00  0.00000000E+00
  0.00000000E+00  0.00000000E+00  0.00000000E+00
  0.00000000E+00  0.00000000E+00  0.00000000E+00
  0.00000000E+00  0.00000000E+00  0.00000000E+00
  0.00000000E+00  0.00000000E+00  0.00000000E+00
  0.00000000E+00  0.00000000E+00  0.00000000E+00
  0.00000000E+00  0.00000000E+00  0.00000000E+00
  0.00000000E+00  0.00000000E+00  0.00000000E+00
  0.00000000E+00  0.00000000E+00  0.00000000E+00
  0.00000000E+00  0.00000000E+00  0.00000000E+00
  0.00000000E+00  0.00000000E+00  0.00000000E+00
  0.00000000E+00  0.00000000E+00  0.00000000E+00
  0.00000000E+00  0.00000000E+00  0.00000000E+00
  0.00000000E+00  0.00000000E+00  0.00000000E+00
  0.00000000E+00  0.00000000E+00  0.00000000E+00
  0.00000000E+00  0.00000000E+00  0.00000000E+00
  0.00000000E+00  0.00000000E+00  0.00000000E+00
  0.00000000E+00  0.00000000E+00  0.00000000E+00
  0.00000000E+00  0.00000000E+00  0.00000000E+00
  0.00000000E+00  0.00000000E+00  0.00000000E+00
  0.00000000E+00  0.00000000E+00  0.00000000E+00
  0.00000000E+00  0.00000000E+00  0.00000000E+00
  0.00000000E+00  0.00000000E+00  0.00000000E+00
  0.00000000E+00  0.00000000E+00  0.00000000E+00
  0.00000000E+00  0.00000000E+00  0.00000000E+00
  0.00000000E+00  0.00000000E+00  0.00000000E+00
  0.00000000E+00  0.00000000E+00  0.00000000E+00
  0.00000000E+00  0.00000000E+00  0.00000000E+00
  0.00000000E+00  0.00000000E+00  0.00000000E+00
  0.00000000E+00  0.00000000E+00  0.00000000E+00
  0.00000000E+00  0.00000000E+00  0.00000000E+00
  0.00000000E+00  0.00000000E+00  0.00000000E+00
  0.00000000E+00  0.00000000E+00  0.00000000E+00
  0.00000000E+00  0.00000000E+00  0.00000000E+00
  0.00000000E+00  0.00000000E+00  0.00000000E+00
  0.00000000E+00  0.00000000E+00  0.00000000E+00
  0.00000000E+00  0.00000000E+00  0.00000000E+00
  0.00000000E+00  0.00000000E+00  0.00000000E+00
  0.00000000E+00  0.00000000E+00  0.00000000E+00
  0.00000000E+00  0.00000000E+00  0.00000000E+00
  0.00000000E+00  0.00000000E+00  0.00000000E+00
  0.00000000E+00  0.00000000E+00  0.00000000E+00
  0.00000000E+00  0.00000000E+00  0.00000000E+00
  0.00000000E+00  0.00000000E+00  0.00000000E+00
  0.00000000E+00  0.00000000E+00  0.00000000E+00
  0.00000000E+00  0.00000000E+00  0.00000000E+00
  0.00000000E+00  0.00000000E+00  0.00000000E+00
  0.00000000E+00  0.00000000E+00  0.00000000E+00
  0.00000000E+00  0.00000000E+00  0.00000000E+00
  0.00000000E+00  0.00000000E+00  0.00000000E+00
  0.00000000E+00  0.00000000E+00  0.00000000E+00
  0.00000000E+00  0.00000000E+00  0.00000000E+00
  0.00000000E+00  0.00000000E+00  0.00000000E+00
  0.00000000E+00  0.00000000E+00  0.00000000E+00
  0.00000000E+00  0.00000000E+00  0.00000000E+00
  0.00000000E+00  0.00000000E+00  0.00000000E+00
  0.00000000E+00  0.00000000E+00  0.00000000E+00
  0.00000000E+00  0.00000000E+00  0.00000000E+00
  0.00000000E+00  0.00000000E+00  0.00000000E+00
  0.00000000E+00  0.00000000E+00  0.00000000E+00
  0.00000000E+00  0.00000000E+00  0.00000000E+00
  0.00000000E+00  0.00000000E+00  0.00000000E+00
  0.00000000E+00  0.00000000E+00  0.00000000E+00
  0.00000000E+00  0.00000000E+00  0.00000000E+00
  0.00000000E+00  0.00000000E+00  0.00000000E+00
  0.00000000E+00  0.00000000E+00  0.00000000E+00
  0.00000000E+00  0.00000000E+00  0.00000000E+00
  0.00000000E+00  0.00000000E+00  0.00000000E+00
  0.00000000E+00  0.00000000E+00  0.00000000E+00
  0.00000000E+00  0.00000000E+00  0.00000000E+00
  0.00000000E+00  0.00000000E+00  0.00000000E+00
  0.00000000E+00  0.00000000E+00  0.00000000E+00
  0.00000000E+00  0.00000000E+00  0.00000000E+00
  0.00000000E+00  0.00000000E+00  0.00000000E+00
  0.00000000E+00  0.00000000E+00  0.00000000E+00
  0.00000000E+00  0.00000000E+00  0.00000000E+00
  0.00000000E+00  0.00000000E+00  0.00000000E+00
  0.00000000E+00  0.00000000E+00  0.00000000E+00
  0.00000000E+00  0.00000000E+00  0.00000000E+00
  0.00000000E+00  0.00000000E+00  0.00000000E+00
  0.00000000E+00  0.00000000E+00  0.00000000E+00
  0.00000000E+00  0.00000000E+00  0.00000000E+00
  0.00000000E+00  0.00000000E+00  0.00000000E+00
  0.00000000E+00  0.00000000E+00  0.00000000E+00
  0.00000000E+00  0.00000000E+00  0.00000000E+00
  0.00000000E+00  0.00000000E+00  0.00000000E+00
  0.00000000E+00  0.00000000E+00  0.00000000E+00
  0.00000000E+00  0.00000000E+00  0.00000000E+00
  0.00000000E+00  0.00000000E+00  0.00000000E+00
  0.00000000E+00  0.00000000E+00  0.00000000E+00
  0.00000000E+00  0.00000000E+00  0.00000000E+00
