
     Program PWSCF v.7.4.1 starts on  1Aug2026 at 16:39: 6 

     This program is part of the open-source Quantum ESPRESSO suite
     for quantum simulation of materials; please cite
         "P. Giannozzi et al., J. Phys.:Condens. Matter 21 395502 (2009);
         "P. Giannozzi et al., J. Phys.:Condens. Matter 29 465901 (2017);
         "P. Giannozzi et al., J. Chem. Phys. 152 154105 (2020);
          URL http://www.quantum-espresso.org", 
     in publications or presentations arising from this work. More details at
     http://www.quantum-espresso.org/quote

     Parallel version (MPI), running on    36 processors

     MPI processes distributed on     1 nodes
     115922 MiB available memory on the printing compute node when the environment starts
 
     Reading input from diamond_pd_scf.in

     Current dimensions of program PWSCF are:
     Max number of different atomic species (ntypx) = 10
     Max number of k-points (npk) =  40000
     Max angular momentum in pseudopotentials (lmaxx) =  4
     file C.pbe-n-kjpaw_psl.1.0.0.UPF: wavefunction(s)  2S 2P renormalized
     file N.pbe-n-kjpaw_psl.1.0.0.UPF: wavefunction(s)  2S renormalized
     Message from routine setup:
     the system is metallic, specify occupations
 
     R & G space division:  proc/nbgrp/npool/nimage =      36
     Subspace diagonalization in iterative solution of the eigenvalue problem:
     one sub-group per band group will be used
     scalapack distributed-memory algorithm (size of sub-group:  6*  6 procs)

 
     Parallelization info
     --------------------
     sticks:   dense  smooth     PW     G-vecs:    dense   smooth      PW
     Min         163     163     40                 9409     9409    1174
     Max         164     164     41                 9414     9414    1179
     Sum        5877    5877   1473               338755   338755   42379
 
     Using Slab Decomposition
 


     bravais-lattice index     =            0
     lattice parameter (alat)  =      20.2515  a.u.
     unit-cell volume          =    8305.5769 (a.u.)^3
     number of atoms/cell      =          215
     number of atomic types    =            2
     number of electrons       =       861.00 (up: 431.00, down: 430.00)
     number of Kohn-Sham states=          861
     kinetic-energy cutoff     =      45.0000  Ry
     charge density cutoff     =     180.0000  Ry
     scf convergence threshold =      1.0E-08
     mixing beta               =       0.7000
     number of iterations used =            8  plain     mixing
     Exchange-correlation= SLA  PW   PBX  PBC
                           (   1   4   3   4   0   0   0)

     celldm(1)=  20.251472  celldm(2)=   0.000000  celldm(3)=   0.000000
     celldm(4)=   0.000000  celldm(5)=   0.000000  celldm(6)=   0.000000

     crystal axes: (cart. coord. in units of alat)
               a(1) = (  -0.707107   0.000000   0.707107 )  
               a(2) = (   0.408248   0.816497   0.408248 )  
               a(3) = (  -0.577350   0.577350  -0.577350 )  

     reciprocal axes: (cart. coord. in units 2 pi/alat)
               b(1) = ( -0.707107  0.000000  0.707107 )  
               b(2) = (  0.408248  0.816497  0.408248 )  
               b(3) = ( -0.577350  0.577350 -0.577350 )  


     PseudoPot. # 1 for C  read from file:
     ../../../pseudos/C.pbe-n-kjpaw_psl.1.0.0.UPF
     MD5 check sum: 5f16ad9a65e90284d1d834d4ab3b0f7d
     Pseudo is Projector augmented-wave + core cor, Zval =  4.0
     Generated using &quot;atomic&quot; code by A. Dal Corso  v.6.3
     Shape of augmentation charge: PSQ
     Using radial grid of 1073 points,  4 beta functions with: 
                l(1) =   0
                l(2) =   0
                l(3) =   1
                l(4) =   1
     Q(r) pseudized with 0 coefficients 


     PseudoPot. # 2 for N  read from file:
     ../../../pseudos/N.pbe-n-kjpaw_psl.1.0.0.UPF
     MD5 check sum: a6186d50559fdcbe4b2d0187dd61a119
     Pseudo is Projector augmented-wave + core cor, Zval =  5.0
     Generated using &quot;atomic&quot; code by A. Dal Corso  v.6.3
     Shape of augmentation charge: PSQ
     Using radial grid of 1085 points,  4 beta functions with: 
                l(1) =   0
                l(2) =   0
                l(3) =   1
                l(4) =   1
     Q(r) pseudized with 0 coefficients 


     atomic species   valence    mass     pseudopotential
     C                 4.00    12.01070     C ( 1.00)
     N                 5.00    14.00670     N ( 1.00)

     Starting magnetic structure 
     atomic species   magnetization
     C               0.000
     N               0.000

     No symmetry found


                                    s                        frac. trans.

      isym =  1     identity                                     

 cryst.   s( 1) = (     1          0          0      )
                  (     0          1          0      )
                  (     0          0          1      )

 cart.    s( 1) = (  1.0000000  0.0000000  0.0000000 )
                  (  0.0000000  1.0000000  0.0000000 )
                  (  0.0000000  0.0000000  1.0000000 )


   Cartesian axes

     site n.     atom                  positions (alat units)
         1        C      tau(   1) = (  -0.0000733   0.0002112   0.0000220  )
         2        C      tau(   2) = (  -0.1924986   0.1928377  -0.1921736  )
         3        C      tau(   3) = (  -0.3848159   0.3851817  -0.3849568  )
         4        C      tau(   4) = (   0.1357214   0.2724772   0.1360465  )
         5        C      tau(   5) = (  -0.0572329   0.4654932  -0.0557147  )
         6        C      tau(   6) = (  -0.2489669   0.6574594  -0.2487641  )
         7        C      tau(   7) = (   0.2721566   0.5445900   0.2720156  )
         8        C      tau(   8) = (   0.0795665   0.7371750   0.0797694  )
         9        C      tau(   9) = (  -0.1128983   0.9292687  -0.1125801  )
        10        C      tau(  10) = (  -0.2357753  -0.0000108   0.2357779  )
        11        C      tau(  11) = (  -0.4282415   0.1925427   0.0434084  )
        12        C      tau(  12) = (  -0.6205342   0.3851574  -0.1490879  )
        13        C      tau(  13) = (  -0.0997957   0.2722370   0.3718543  )
        14        C      tau(  14) = (  -0.2949390   0.4640277   0.1823470  )
        15        C      tau(  15) = (  -0.4839816   0.6577025  -0.0131160  )
        16        C      tau(  16) = (   0.0362977   0.5445316   0.5077440  )
        17        C      tau(  17) = (  -0.1561207   0.7372549   0.3147449  )
        18        C      tau(  18) = (  -0.3478055   0.9293829   0.1222994  )
        19        C      tau(  19) = (  -0.4714682  -0.0001129   0.4714956  )
        20        C      tau(  20) = (  -0.6641565   0.1921520   0.2790846  )
        21        C      tau(  21) = (  -0.8562113   0.3849268   0.0865249  )
        22        C      tau(  22) = (  -0.3353866   0.2719250   0.6078545  )
        23        C      tau(  23) = (  -0.5282945   0.4638684   0.4157412  )
        24        C      tau(  24) = (  -0.7188340   0.6567055   0.2224805  )
        25        C      tau(  25) = (  -0.1992626   0.5443293   0.7434737  )
        26        C      tau(  26) = (  -0.3914609   0.7361395   0.5498536  )
        27        C      tau(  27) = (  -0.5836816   0.9289841   0.3582723  )
        28        C      tau(  28) = (  -0.0500168   0.1363756   0.1858441  )
        29        C      tau(  29) = (  -0.2427793   0.3295333  -0.0055455  )
        30        C      tau(  30) = (  -0.4349898   0.5212500  -0.1990283  )
        31        C      tau(  31) = (   0.0860050   0.4085821   0.3218727  )
        32        C      tau(  32) = (  -0.1092085   0.6025875   0.1303418  )
        33        C      tau(  33) = (  -0.2993442   0.7935696  -0.0629092  )
        34        C      tau(  34) = (   0.2223759   0.6807121   0.4580117  )
        35        C      tau(  35) = (   0.0301666   0.8733160   0.2657910  )
        36        C      tau(  36) = (  -0.1623930   1.0657723   0.0731374  )
        37        C      tau(  37) = (  -0.2856036   0.1357870   0.4218963  )
        38        C      tau(  38) = (  -0.4784741   0.3274458   0.2296512  )
        39        C      tau(  39) = (  -0.6696240   0.5211830   0.0374430  )
        40        C      tau(  40) = (  -0.1495034   0.4082204   0.5577514  )
        41        C      tau(  41) = (  -0.3432508   0.5972405   0.3636874  )
        42        C      tau(  42) = (  -0.5308876   0.7917367   0.1714899  )
        43        C      tau(  43) = (  -0.0135702   0.6803819   0.6936446  )
        44        C      tau(  44) = (  -0.2058777   0.8728276   0.5009704  )
        45        C      tau(  45) = (  -0.3980519   1.0654173   0.3085768  )
        46        C      tau(  46) = (  -0.5213186   0.1361259   0.6574850  )
        47        C      tau(  47) = (  -0.7140751   0.3285868   0.4652918  )
        48        C      tau(  48) = (  -0.9059344   0.5211602   0.2724513  )
        49        C      tau(  49) = (  -0.3851711   0.4082356   0.7933801  )
        50        C      tau(  50) = (  -0.5778556   0.6008268   0.6009969  )
        51        C      tau(  51) = (  -0.7697952   0.7931473   0.4084553  )
        52        C      tau(  52) = (  -0.2490886   0.6804623   0.9293869  )
        53        C      tau(  53) = (  -0.4414818   0.8727630   0.7367073  )
        54        C      tau(  54) = (  -0.6338786   1.0653069   0.5444270  )
        55        C      tau(  55) = (  -0.2141040   0.0965613   0.0217569  )
        56        C      tau(  56) = (  -0.4065129   0.2890772  -0.1706453  )
        57        C      tau(  57) = (  -0.5990011   0.4814126  -0.3633653  )
        58        C      tau(  58) = (  -0.0792272   0.3692176   0.1580066  )
        59        C      tau(  59) = (  -0.2717688   0.5631438  -0.0322183  )
        60        C      tau(  60) = (  -0.4631705   0.7536124  -0.2275461  )
        61        C      tau(  61) = (   0.0580384   0.6408787   0.2939999  )
        62        C      tau(  62) = (  -0.1344957   0.8335685   0.1019393  )
        63        C      tau(  63) = (  -0.3268946   1.0258575  -0.0913642  )
        64        C      tau(  64) = (  -0.4500042   0.0958967   0.2574956  )
        65        C      tau(  65) = (  -0.6422958   0.2886489   0.0649590  )
        66        C      tau(  66) = (  -0.8345651   0.4811751  -0.1273503  )
        67        C      tau(  67) = (  -0.3139461   0.3673670   0.3941792  )
        68        C      tau(  68) = (  -0.5038739   0.5582667   0.2030642  )
        69        C      tau(  69) = (  -0.6982596   0.7533557   0.0085886  )
        70        C      tau(  70) = (  -0.1783645   0.6403826   0.5287024  )
        71        C      tau(  71) = (  -0.3683812   0.8311674   0.3339963  )
        72        C      tau(  72) = (  -0.5622567   1.0255745   0.1443721  )
        73        C      tau(  73) = (  -0.6856764   0.0962460   0.4931272  )
        74        C      tau(  74) = (  -0.8779292   0.2886724   0.3006220  )
        75        C      tau(  75) = (  -1.0703200   0.4811981   0.1081556  )
        76        C      tau(  76) = (  -0.5498545   0.3684333   0.6295124  )
        77        C      tau(  77) = (  -0.7419514   0.5610104   0.4369011  )
        78        C      tau(  78) = (  -0.9339774   0.7532635   0.2442117  )
        79        C      tau(  79) = (  -0.4134047   0.6406679   0.7649811  )
        80        C      tau(  80) = (  -0.6057346   0.8329551   0.5725159  )
        81        C      tau(  81) = (  -0.7980802   1.0254649   0.3802255  )
        82        C      tau(  82) = (  -0.0285745   0.2327342  -0.0278963  )
        83        C      tau(  83) = (  -0.2208315   0.4251350  -0.2203046  )
        84        C      tau(  84) = (  -0.4130986   0.6174382  -0.4131082  )
        85        C      tau(  85) = (   0.1074848   0.5047978   0.1080117  )
        86        C      tau(  86) = (  -0.0850946   0.6974145  -0.0841266  )
        87        C      tau(  87) = (  -0.2770302   0.8898371  -0.2776187  )
        88        C      tau(  88) = (   0.2439508   0.7768651   0.2439412  )
        89        C      tau(  89) = (   0.0520217   0.9696784   0.0514331  )
        90        C      tau(  90) = (  -0.1408762   1.1616937  -0.1409980  )
        91        C      tau(  91) = (  -0.2641250   0.2314956   0.2079547  )
        92        C      tau(  92) = (  -0.4564423   0.4249642   0.0154523  )
        93        C      tau(  93) = (  -0.6491827   0.6172778  -0.1776845  )
        94        C      tau(  94) = (  -0.1282277   0.5046025   0.3436670  )
        95        C      tau(  95) = (  -0.5126356   0.8896567  -0.0415056  )
        96        C      tau(  96) = (   0.0085460   0.7768695   0.4800443  )
        97        C      tau(  97) = (  -0.1840344   0.9693887   0.2870956  )
        98        C      tau(  98) = (  -0.3765735   1.1621854   0.0945800  )
        99        C      tau(  99) = (  -0.4999000   0.2319734   0.4436139  )
       100        C      tau( 100) = (  -0.6924902   0.4241731   0.2512014  )
       101        C      tau( 101) = (  -0.8842089   0.6171554   0.0585385  )
       102        C      tau( 102) = (  -0.3637988   0.5039270   0.5798928  )
       103        C      tau( 103) = (  -0.5554821   0.6966461   0.3864474  )
       104        C      tau( 104) = (  -0.7479284   0.8891233   0.1942729  )
       105        C      tau( 105) = (  -0.2276138   0.7764721   0.7151335  )
       106        C      tau( 106) = (  -0.4196733   0.9687713   0.5225280  )
       107        C      tau( 107) = (  -0.6122632   1.1615264   0.3304296  )
       108        C      tau( 108) = (  -0.0731883   0.1165038   0.0449197  )
       109        C      tau( 109) = (  -0.2657126   0.3092760  -0.1470835  )
       110        C      tau( 110) = (  -0.4579651   0.5012769  -0.3402273  )
       111        C      tau( 111) = (   0.0623823   0.3888852   0.1810114  )
       112        C      tau( 112) = (  -0.1306717   0.5821549  -0.0105827  )
       113        C      tau( 113) = (  -0.3219949   0.7741741  -0.2053954  )
       114        C      tau( 114) = (   0.1992505   0.6607442   0.3169883  )
       115        C      tau( 115) = (   0.0078398   0.8542054   0.1244393  )
       116        C      tau( 116) = (  -0.1857443   1.0456540  -0.0679739  )
       117        C      tau( 117) = (  -0.3088702   0.1156688   0.2808043  )
       118        C      tau( 118) = (  -0.5013597   0.3084264   0.0883810  )
       119        C      tau( 119) = (  -0.6932941   0.5012211  -0.1040553  )
       120        C      tau( 120) = (  -0.1728871   0.3881272   0.4168536  )
       121        C      tau( 121) = (  -0.5571732   0.7733514   0.0312565  )
       122        C      tau( 122) = (  -0.0368842   0.6604929   0.5523546  )
       123        C      tau( 123) = (  -0.2285761   0.8530824   0.3598537  )
       124        C      tau( 124) = (  -0.4214993   1.0468868   0.1674820  )
       125        C      tau( 125) = (  -0.5446045   0.1160169   0.5164541  )
       126        C      tau( 126) = (  -0.7372519   0.3083714   0.3240966  )
       127        C      tau( 127) = (  -0.9291758   0.5011162   0.1314287  )
       128        C      tau( 128) = (  -0.4085948   0.3881170   0.6527537  )
       129        C      tau( 129) = (  -0.6008721   0.5805854   0.4599985  )
       130        C      tau( 130) = (  -0.7924471   0.7730359   0.2674284  )
       131        C      tau( 131) = (  -0.2723549   0.6604877   0.7882497  )
       132        C      tau( 132) = (  -0.4646478   0.8525733   0.5952276  )
       133        C      tau( 133) = (  -0.6570270   1.0454192   0.4033658  )
       134        C      tau( 134) = (  -0.1232463   0.2524290   0.2308912  )
       135        C      tau( 135) = (  -0.3165667   0.4462739   0.0400094  )
       136        C      tau( 136) = (  -0.5087989   0.6371524  -0.1552059  )
       137        C      tau( 137) = (   0.0130191   0.5246190   0.3667790  )
       138        C      tau( 138) = (  -0.1687766   0.7216962   0.1772274  )
       139        C      tau( 139) = (  -0.3717648   0.9099851  -0.0187028  )
       140        C      tau( 140) = (   0.1494640   0.7968249   0.5031056  )
       141        C      tau( 141) = (  -0.0429905   0.9893797   0.3105707  )
       142        C      tau( 142) = (  -0.2354675   1.1819169   0.1179655  )
       143        C      tau( 143) = (  -0.3587204   0.2516456   0.4669856  )
       144        C      tau( 144) = (  -0.5520635   0.4431599   0.2747540  )
       145        C      tau( 145) = (  -0.7428255   0.6371365   0.0817260  )
       146        C      tau( 146) = (  -0.2227000   0.5242726   0.6024275  )
       147        C      tau( 147) = (  -0.4146419   0.7155167   0.4076176  )
       148        C      tau( 148) = (  -0.6068527   0.9095341   0.2174154  )
       149        C      tau( 149) = (  -0.0865687   0.7963803   0.7385509  )
       150        C      tau( 150) = (  -0.2788800   0.9888887   0.5460761  )
       151        C      tau( 151) = (  -0.4712357   1.1816169   0.3537567  )
       152        C      tau( 152) = (  -0.5945886   0.2524522   0.7023412  )
       153        C      tau( 153) = (  -0.7870646   0.4451033   0.5101393  )
       154        C      tau( 154) = (  -0.9790467   0.6372791   0.3171764  )
       155        C      tau( 155) = (  -0.4582129   0.5246333   0.8381449  )
       156        C      tau( 156) = (  -0.6508470   0.7170322   0.6458248  )
       157        C      tau( 157) = (  -0.8429698   0.9093859   0.4532253  )
       158        C      tau( 158) = (  -0.3221231   0.7966882   0.9743154  )
       159        C      tau( 159) = (  -0.5143165   0.9893197   0.7817662  )
       160        C      tau( 160) = (  -0.7069076   1.1815693   0.5893245  )
       161        C      tau( 161) = (  -0.2873111   0.2126202   0.0668264  )
       162        C      tau( 162) = (  -0.4795724   0.4050963  -0.1258124  )
       163        C      tau( 163) = (  -0.6722585   0.5974415  -0.3186169  )
       164        C      tau( 164) = (  -0.1531055   0.4859362   0.2034707  )
       165        C      tau( 165) = (  -0.3470912   0.6784299  -0.0010871  )
       166        C      tau( 166) = (  -0.5361182   0.8697269  -0.1825569  )
       167        C      tau( 167) = (  -0.0139599   0.7572205   0.3396331  )
       168        C      tau( 168) = (  -0.2069484   0.9499763   0.1461136  )
       169        C      tau( 169) = (  -0.3999060   1.1420174  -0.0464730  )
       170        C      tau( 170) = (  -0.5232031   0.2117354   0.3025028  )
       171        C      tau( 171) = (  -0.7151413   0.4047863   0.1099862  )
       172        C      tau( 172) = (  -0.9076158   0.5971608  -0.0824962  )
       173        C      tau( 173) = (  -0.3871376   0.4831777   0.4396799  )
       174        C      tau( 174) = (  -0.5764674   0.6762513   0.2457921  )
       175        C      tau( 175) = (  -0.7715188   0.8693545   0.0534373  )
       176        C      tau( 176) = (  -0.2508050   0.7565207   0.5737466  )
       177        C      tau( 177) = (  -0.4429308   0.9493082   0.3813373  )
       178        C      tau( 178) = (  -0.6356259   1.1417292   0.1893666  )
       179        C      tau( 179) = (  -0.7587635   0.2126167   0.5381663  )
       180        C      tau( 180) = (  -0.9509378   0.4050782   0.3454200  )
       181        C      tau( 181) = (  -1.1434468   0.5974017   0.1529917  )
       182        C      tau( 182) = (  -0.6229700   0.4849193   0.6742340  )
       183        C      tau( 183) = (  -0.8149745   0.6772082   0.4816973  )
       184        C      tau( 184) = (  -1.0073032   0.8697010   0.2887795  )
       185        C      tau( 185) = (  -0.4863110   0.7568368   0.8099121  )
       186        C      tau( 186) = (  -0.6787146   0.9492409   0.6174806  )
       187        C      tau( 187) = (  -0.8711854   1.1417088   0.4250467  )
       188        C      tau( 188) = (  -0.1018668   0.3492211   0.0171315  )
       189        C      tau( 189) = (  -0.2941300   0.5412605  -0.1758802  )
       190        C      tau( 190) = (  -0.4863601   0.7336618  -0.3684939  )
       191        C      tau( 191) = (   0.0348638   0.6210878   0.1531135  )
       192        C      tau( 192) = (  -0.1580090   0.8131837  -0.0393025  )
       193        C      tau( 193) = (  -0.3501209   1.0059042  -0.2324920  )
       194        C      tau( 194) = (   0.1711232   0.8931940   0.2889894  )
       195        C      tau( 195) = (  -0.0212620   1.0856988   0.0963669  )
       196        C      tau( 196) = (  -0.2139361   1.2778908  -0.0961322  )
       197        C      tau( 197) = (  -0.3372622   0.3464143   0.2532080  )
       198        C      tau( 198) = (  -0.5276504   0.5410359   0.0608490  )
       199        C      tau( 199) = (  -0.7218921   0.7333584  -0.1324914  )
       200        C      tau( 200) = (  -0.2017208   0.6201197   0.3867787  )
       201        C      tau( 201) = (  -0.3950030   0.8214589   0.1956836  )
       202        C      tau( 202) = (  -0.5858029   1.0056916   0.0033637  )
       203        C      tau( 203) = (  -0.0647944   0.8927970   0.5246064  )
       204        C      tau( 204) = (  -0.2570626   1.0854574   0.3321040  )
       205        C      tau( 205) = (  -0.4497004   1.2779556   0.1396164  )
       206        C      tau( 206) = (  -0.5731013   0.3481516   0.4886256  )
       207        C      tau( 207) = (  -0.7647494   0.5408581   0.2957820  )
       208        C      tau( 208) = (  -0.9573863   0.7332664   0.1033780  )
       209        C      tau( 209) = (  -0.4366738   0.6204626   0.6238576  )
       210        C      tau( 210) = (  -0.6286751   0.8128959   0.4314334  )
       211        C      tau( 211) = (  -0.8212569   1.0055501   0.2392257  )
       212        C      tau( 212) = (  -0.3006313   0.8926219   0.7601330  )
       213        C      tau( 213) = (  -0.4928796   1.0852278   0.5676030  )
       214        C      tau( 214) = (  -0.6853668   1.2777273   0.3753382  )
       215        N      tau( 215) = (  -0.3686238   0.5704673   0.2302053  )

   Crystallographic axes

     site n.     atom                  positions (cryst. coord.)
         1        C      tau(   1) = (  0.0000674  0.0001516  0.0001516  )
         2        C      tau(   2) = (  0.0002298  0.0004095  0.3334255  )
         3        C      tau(   3) = ( -0.0000996  0.0002412  0.6668132  )
         4        C      tau(   4) = (  0.0002298  0.3334255  0.0004095  )
         5        C      tau(   5) = (  0.0010735  0.3339629  0.3339629  )
         6        C      tau(   6) = (  0.0001434  0.3336155  0.6669495  )
         7        C      tau(   7) = ( -0.0000996  0.6668132  0.0002412  )
         8        C      tau(   8) = (  0.0001434  0.6669495  0.3336155  )
         9        C      tau(   9) = (  0.0002250  0.6666935  0.6666935  )
        10        C      tau(  10) = (  0.3334385 -0.0000077 -0.0000077  )
        11        C      tau(  11) = (  0.3335069  0.0001030  0.3333481  )
        12        C      tau(  12) = (  0.3333629  0.0002829  0.6667122  )
        13        C      tau(  13) = (  0.3335069  0.3333481  0.0001030  )
        14        C      tau(  14) = (  0.3374921  0.3329116  0.3329115  )
        15        C      tau(  15) = (  0.3329522  0.3340727  0.6667241  )
        16        C      tau(  16) = (  0.3333629  0.6667122  0.0002828  )
        17        C      tau(  17) = (  0.3329522  0.6667241  0.3340726  )
        18        C      tau(  18) = (  0.3324144  0.6667755  0.6667755  )
        19        C      tau(  19) = (  0.6667762 -0.0000810 -0.0000810  )
        20        C      tau(  20) = (  0.6669722 -0.0003135  0.3332604  )
        21        C      tau(  21) = (  0.6666152  0.0000682  0.6666162  )
        22        C      tau(  22) = (  0.6669722  0.3332604 -0.0003135  )
        23        C      tau(  23) = (  0.6675341  0.3327972  0.3327972  )
        24        C      tau(  24) = (  0.6656099  0.3335623  0.6657189  )
        25        C      tau(  25) = (  0.6666152  0.6666162  0.0000682  )
        26        C      tau(  26) = (  0.6656099  0.6657189  0.3335623  )
        27        C      tau(  27) = (  0.6660620  0.6664894  0.6664894  )
        28        C      tau(  28) = (  0.1667788  0.1668014  0.0003166  )
        29        C      tau(  29) = (  0.1677496  0.1676846  0.3336265  )
        30        C      tau(  30) = (  0.1668500  0.1667621  0.6669944  )
        31        C      tau(  31) = (  0.1667836  0.5001212  0.0004067  )
        32        C      tau(  32) = (  0.1693877  0.5006382  0.3357027  )
        33        C      tau(  33) = (  0.1671848  0.5000575  0.6673147  )
        34        C      tau(  34) = (  0.1666196  0.8335662  0.0001873  )
        35        C      tau(  35) = (  0.1666116  0.8338837  0.3333381  )
        36        C      tau(  36) = (  0.1665452  0.8337610  0.6668557  )
        37        C      tau(  37) = (  0.5002779  0.1665109 -0.0002920  )
        38        C      tau(  38) = (  0.5007202  0.1657768  0.3327089  )
        39        C      tau(  39) = (  0.4999718  0.1674574  0.6658950  )
        40        C      tau(  40) = (  0.5001047  0.4999771 -0.0000160  )
        41        C      tau(  41) = (  0.4998808  0.4959880  0.3330178  )
        42        C      tau(  42) = (  0.4966559  0.4997268  0.6646078  )
        43        C      tau(  43) = (  0.5000764  0.8331687  0.0001775  )
        44        C      tau(  44) = (  0.4998171  0.8331318  0.3335554  )
        45        C      tau(  45) = (  0.4996620  0.8333815  0.6667774  )
        46        C      tau(  46) = (  0.8335400  0.1667360 -0.0000234  )
        47        C      tau(  47) = (  0.8339383  0.1667246  0.3333447  )
        48        C      tau(  48) = (  0.8332445  0.1669071  0.6666336  )
        49        C      tau(  49) = (  0.8333615  0.4999736  0.0000153  )
        50        C      tau(  50) = (  0.8335746  0.5000204  0.3335268  )
        51        C      tau(  51) = (  0.8331489  0.5000856  0.6665435  )
        52        C      tau(  52) = (  0.8333080  0.8333257  0.0000946  )
        53        C      tau(  53) = (  0.8331055  0.8331333  0.3334414  )
        54        C      tau(  54) = (  0.8331879  0.8333010  0.6667002  )
        55        C      tau(  55) = (  0.1667788  0.0003166  0.1668014  )
        56        C      tau(  56) = (  0.1667836  0.0004067  0.5001212  )
        57        C      tau(  57) = (  0.1666196  0.0001873  0.8335662  )
        58        C      tau(  58) = (  0.1677496  0.3336265  0.1676846  )
        59        C      tau(  59) = (  0.1693877  0.3357028  0.5006383  )
        60        C      tau(  60) = (  0.1666116  0.3333381  0.8338837  )
        61        C      tau(  61) = (  0.1668500  0.6669944  0.1667621  )
        62        C      tau(  62) = (  0.1671848  0.6673147  0.5000575  )
        63        C      tau(  63) = (  0.1665451  0.6668557  0.8337610  )
        64        C      tau(  64) = (  0.5002779 -0.0002920  0.1665109  )
        65        C      tau(  65) = (  0.5001047 -0.0000160  0.4999771  )
        66        C      tau(  66) = (  0.5000764  0.0001775  0.8331687  )
        67        C      tau(  67) = (  0.5007202  0.3327089  0.1657768  )
        68        C      tau(  68) = (  0.4998808  0.3330178  0.4959880  )
        69        C      tau(  69) = (  0.4998171  0.3335554  0.8331319  )
        70        C      tau(  70) = (  0.4999718  0.6658950  0.1674574  )
        71        C      tau(  71) = (  0.4966559  0.6646077  0.4997268  )
        72        C      tau(  72) = (  0.4996620  0.6667775  0.8333815  )
        73        C      tau(  73) = (  0.8335400 -0.0000234  0.1667360  )
        74        C      tau(  74) = (  0.8333615  0.0000153  0.4999736  )
        75        C      tau(  75) = (  0.8333080  0.0000947  0.8333257  )
        76        C      tau(  76) = (  0.8339383  0.3333448  0.1667246  )
        77        C      tau(  77) = (  0.8335746  0.3335268  0.5000204  )
        78        C      tau(  78) = (  0.8331055  0.3334414  0.8331333  )
        79        C      tau(  79) = (  0.8332445  0.6666337  0.1669071  )
        80        C      tau(  80) = (  0.8331489  0.6665435  0.5000856  )
        81        C      tau(  81) = (  0.8331879  0.6667002  0.8333010  )
        82        C      tau(  82) = (  0.0004795  0.1669726  0.1669726  )
        83        C      tau(  83) = (  0.0003726  0.1670282  0.5001418  )
        84        C      tau(  84) = ( -0.0000068  0.1668387  0.8334888  )
        85        C      tau(  85) = (  0.0003726  0.5001418  0.1670282  )
        86        C      tau(  86) = (  0.0006845  0.5003523  0.5003523  )
        87        C      tau(  87) = ( -0.0004162  0.5001144  0.8339744  )
        88        C      tau(  88) = ( -0.0000068  0.8334888  0.1668387  )
        89        C      tau(  89) = ( -0.0004162  0.8339743  0.5001144  )
        90        C      tau(  90) = ( -0.0000862  0.8334443  0.8334443  )
        91        C      tau(  91) = (  0.3338107  0.1660840  0.1660840  )
        92        C      tau(  92) = (  0.3336799  0.1669484  0.4999589  )
        93        C      tau(  93) = (  0.3333996  0.1664381  0.8337775  )
        94        C      tau(  94) = (  0.3336799  0.4999589  0.1669484  )
        95        C      tau(  95) = (  0.3331392  0.5001744  0.8335771  )
        96        C      tau(  96) = (  0.3333996  0.8337775  0.1664381  )
        97        C      tau(  97) = (  0.3331392  0.8335771  0.5001744  )
        98        C      tau(  98) = (  0.3331559  0.8337971  0.8337971  )
        99        C      tau(  99) = (  0.6671651  0.1664267  0.1664267  )
       100        C      tau( 100) = (  0.6672907  0.1661805  0.4996746  )
       101        C      tau( 101) = (  0.6666230  0.1668268  0.8330159  )
       102        C      tau( 102) = (  0.6672907  0.4996747  0.1661805  )
       103        C      tau( 103) = (  0.6660447  0.4998011  0.4998011  )
       104        C      tau( 104) = (  0.6662369  0.4999372  0.8329887  )
       105        C      tau( 105) = (  0.6666230  0.8330159  0.1668268  )
       106        C      tau( 106) = (  0.6662369  0.8329887  0.4999372  )
       107        C      tau( 107) = (  0.6665844  0.8333243  0.8333243  )
       108        C      tau( 108) = (  0.0835150  0.0835843  0.0835843  )
       109        C      tau( 109) = (  0.0838834  0.0839995  0.4168885  )
       110        C      tau( 110) = (  0.0832532  0.0834303  0.7502489  )
       111        C      tau( 111) = (  0.0838834  0.4168885  0.0839995  )
       112        C      tau( 112) = (  0.0849157  0.4176606  0.4176606  )
       113        C      tau( 113) = (  0.0824483  0.4168043  0.7514585  )
       114        C      tau( 114) = (  0.0832532  0.7502489  0.0834302  )
       115        C      tau( 115) = (  0.0824483  0.7514585  0.4168043  )
       116        C      tau( 116) = (  0.0832763  0.7501929  0.7501929  )
       117        C      tau( 117) = (  0.4169628  0.0829853  0.0829853  )
       118        C      tau( 118) = (  0.4170096  0.0832313  0.4165034  )
       119        C      tau( 119) = (  0.4166547  0.0837288  0.7497300  )
       120        C      tau( 120) = (  0.4170096  0.4165034  0.0832313  )
       121        C      tau( 121) = (  0.4160827  0.4167342  0.7501328  )
       122        C      tau( 122) = (  0.4166547  0.7497300  0.0837288  )
       123        C      tau( 123) = (  0.4160827  0.7501328  0.4167342  )
       124        C      tau( 124) = (  0.4164727  0.7510774  0.7510774  )
       125        C      tau( 125) = (  0.7502817  0.0832350  0.0832350  )
       126        C      tau( 126) = (  0.7504867  0.0831143  0.4165736  )
       127        C      tau( 127) = (  0.7499606  0.0834807  0.7498991  )
       128        C      tau( 128) = (  0.7504867  0.4165736  0.0831143  )
       129        C      tau( 129) = (  0.7501488  0.4165346  0.4165346  )
       130        C      tau( 130) = (  0.7494451  0.4168431  0.7494322  )
       131        C      tau( 131) = (  0.7499607  0.7498991  0.0834807  )
       132        C      tau( 132) = (  0.7494451  0.7494322  0.4168431  )
       133        C      tau( 133) = (  0.7498109  0.7500244  0.7500244  )
       134        C      tau( 134) = (  0.2504130  0.2500532  0.0835911  )
       135        C      tau( 135) = (  0.2521374  0.2514771  0.4173268  )
       136        C      tau( 136) = (  0.2500280  0.2491539  0.7512235  )
       137        C      tau( 137) = (  0.2501461  0.5834015  0.0836124  )
       138        C      tau( 138) = (  0.2446618  0.5927125  0.4117924  )
       139        C      tau( 139) = (  0.2496525  0.5835920  0.7508168  )
       140        C      tau( 140) = (  0.2500624  0.9170152  0.0832858  )
       141        C      tau( 141) = (  0.2500056  0.9170643  0.4167312  )
       142        C      tau( 142) = (  0.2499149  0.9170611  0.7502198  )
       143        C      tau( 143) = (  0.5838623  0.2496669  0.0827807  )
       144        C      tau( 144) = (  0.5846483  0.2486274  0.4159632  )
       145        C      tau( 145) = (  0.5830460  0.2503270  0.7495370  )
       146        C      tau( 146) = (  0.5834533  0.5830899  0.0834531  )
       147        C      tau( 147) = (  0.5814252  0.5813493  0.4171592  )
       148        C      tau( 148) = (  0.5828456  0.5836444  0.7499615  )
       149        C      tau( 149) = (  0.5834477  0.9164124  0.0833683  )
       150        C      tau( 150) = (  0.5833320  0.9165066  0.4166694  )
       151        C      tau( 151) = (  0.5833578  0.9168256  0.7500334  )
       152        C      tau( 152) = (  0.9170678  0.2501162  0.0835423  )
       153        C      tau( 153) = (  0.9172617  0.2503710  0.4168634  )
       154        C      tau( 154) = (  0.9165681  0.2501288  0.7500643  )
       155        C      tau( 155) = (  0.9166634  0.5834679  0.0835433  )
       156        C      tau( 156) = (  0.9168854  0.5834040  0.4168783  )
       157        C      tau( 157) = (  0.9165484  0.5833980  0.7500533  )
       158        C      tau( 158) = (  0.9167204  0.9167496  0.0834248  )
       159        C      tau( 159) = (  0.9164689  0.9169620  0.4167718  )
       160        C      tau( 160) = (  0.9165745  0.9167442  0.7500660  )
       161        C      tau( 161) = (  0.2504130  0.0835911  0.2500532  )
       162        C      tau( 162) = (  0.2501461  0.0836124  0.5834015  )
       163        C      tau( 163) = (  0.2500623  0.0832858  0.9170152  )
       164        C      tau( 164) = (  0.2521374  0.4173268  0.2514770  )
       165        C      tau( 165) = (  0.2446619  0.4117925  0.5927125  )
       166        C      tau( 166) = (  0.2500056  0.4167311  0.9170643  )
       167        C      tau( 167) = (  0.2500280  0.7512235  0.2491539  )
       168        C      tau( 168) = (  0.2496525  0.7508167  0.5835920  )
       169        C      tau( 169) = (  0.2499149  0.7502198  0.9170611  )
       170        C      tau( 170) = (  0.5838623  0.0827807  0.2496669  )
       171        C      tau( 171) = (  0.5834533  0.0834531  0.5830899  )
       172        C      tau( 172) = (  0.5834477  0.0833683  0.9164124  )
       173        C      tau( 173) = (  0.5846483  0.4159632  0.2486274  )
       174        C      tau( 174) = (  0.5814252  0.4171592  0.5813493  )
       175        C      tau( 175) = (  0.5833320  0.4166694  0.9165066  )
       176        C      tau( 176) = (  0.5830460  0.7495370  0.2503270  )
       177        C      tau( 177) = (  0.5828456  0.7499615  0.5836444  )
       178        C      tau( 178) = (  0.5833578  0.7500334  0.9168256  )
       179        C      tau( 179) = (  0.9170678  0.0835423  0.2501161  )
       180        C      tau( 180) = (  0.9166634  0.0835434  0.5834679  )
       181        C      tau( 181) = (  0.9167204  0.0834248  0.9167496  )
       182        C      tau( 182) = (  0.9172617  0.4168634  0.2503710  )
       183        C      tau( 183) = (  0.9168854  0.4168783  0.5834040  )
       184        C      tau( 184) = (  0.9164689  0.4167718  0.9169620  )
       185        C      tau( 185) = (  0.9165681  0.7500643  0.2501288  )
       186        C      tau( 186) = (  0.9165484  0.7500533  0.5833980  )
       187        C      tau( 187) = (  0.9165745  0.7500660  0.9167442  )
       188        C      tau( 188) = (  0.0841445  0.2505448  0.2505448  )
       189        C      tau( 189) = (  0.0836152  0.2500565  0.5838574  )
       190        C      tau( 190) = (  0.0833440  0.2500397  0.9171300  )
       191        C      tau( 191) = (  0.0836152  0.5838574  0.2500565  )
       192        C      tau( 192) = (  0.0839382  0.5834096  0.5834097  )
       193        C      tau( 193) = (  0.0831762  0.5834666  0.9171308  )
       194        C      tau( 194) = (  0.0833440  0.9171300  0.2500397  )
       195        C      tau( 195) = (  0.0831762  0.9171308  0.5834666  )
       196        C      tau( 196) = (  0.0832999  0.9168086  0.9168086  )
       197        C      tau( 197) = (  0.4175255  0.2485311  0.2485311  )
       198        C      tau( 198) = (  0.4161319  0.2511831  0.5818752  )
       199        C      tau( 199) = (  0.4167693  0.2499840  0.9166832  )
       200        C      tau( 200) = (  0.4161319  0.5818752  0.2511831  )
       201        C      tau( 201) = (  0.4176784  0.5893466  0.5893466  )
       202        C      tau( 202) = (  0.4166037  0.5833639  0.9169078  )
       203        C      tau( 203) = (  0.4167693  0.9166832  0.2499840  )
       204        C      tau( 204) = (  0.4166037  0.9169078  0.5833639  )
       205        C      tau( 205) = (  0.4167099  0.9168551  0.9168551  )
       206        C      tau( 206) = (  0.7507543  0.2497775  0.2497775  )
       207        C      tau( 207) = (  0.7499089  0.2501537  0.5830231  )
       208        C      tau( 208) = (  0.7500737  0.2500620  0.9164135  )
       209        C      tau( 209) = (  0.7499089  0.5830231  0.2501537  )
       210        C      tau( 210) = (  0.7496099  0.5832032  0.5832032  )
       211        C      tau( 211) = (  0.7498744  0.5834150  0.9165905  )
       212        C      tau( 212) = (  0.7500737  0.9164135  0.2500620  )
       213        C      tau( 213) = (  0.7498744  0.9165905  0.5834150  )
       214        C      tau( 214) = (  0.7500317  0.9166914  0.9166913  )
       215        N      tau( 215) = (  0.4234361  0.4092754  0.4092754  )

     number of k points=     1
                       cart. coord. in units 2pi/alat
        k(    1) = (   0.0000000   0.0000000   0.0000000), wk =   1.0000000

                       cryst. coord.
        k(    1) = (   0.0000000   0.0000000   0.0000000), wk =   1.0000000

     Dense  grid:   338755 G-vectors     FFT dimensions: (  90,  90,  90)

     Dynamical RAM for                 wfc:      15.45 MB

     Dynamical RAM for     wfc (w. buffer):      46.35 MB

     Dynamical RAM for           str. fact:       0.29 MB

     Dynamical RAM for           local pot:       0.00 MB

     Dynamical RAM for          nlocal pot:      30.86 MB

     Dynamical RAM for                qrad:       0.62 MB

     Dynamical RAM for          rho,v,vnew:       1.97 MB

     Dynamical RAM for               rhoin:       0.66 MB

     Dynamical RAM for            rho*nmix:       4.60 MB

     Dynamical RAM for           G-vectors:       0.61 MB

     Dynamical RAM for          h,s,v(r/c):       3.77 MB

     Dynamical RAM for          <psi|beta>:      22.60 MB

     Dynamical RAM for                 psi:      30.90 MB

     Dynamical RAM for                hpsi:      30.90 MB

     Dynamical RAM for                spsi:      30.90 MB

     Dynamical RAM for      wfcinit/wfcrot:      47.87 MB

     Dynamical RAM for           addusdens:      37.06 MB

     Dynamical RAM for          addusforce:      98.61 MB

     Dynamical RAM for         addusstress:       7.40 MB

     Estimated static dynamical RAM per process >      82.90 MB

     Estimated max dynamical RAM per process >     206.57 MB

     Estimated total dynamical RAM >       7.26 GB

     Check: negative core charge=   -0.000075
     Generating pointlists ...
     new r_m :   0.0569 (alat units)  1.1530 (a.u.) for type    1
     new r_m :   0.0569 (alat units)  1.1530 (a.u.) for type    2

     Initial potential from superposition of free atoms

     starting charge     860.9911, renormalised to     861.0000
     Starting wfcs are random
     Checking if some PAW data can be deallocated... 
       PAW data deallocated on   35 nodes for type:  2

     total cpu time spent up to now is        6.4 secs

     per-process dynamical memory:   193.0 Mb

     Self-consistent Calculation

     iteration #  1     ecut=    45.00 Ry     beta= 0.70
     Davidson diagonalization with overlap

---- Real-time Memory Report at c_bands before calling an iterative solver
           359 MiB given to the printing process from OS
           188 MiB allocation reported by mallinfo(arena+hblkhd)
        109404 MiB available memory on the node where the printing process lives
------------------
     ethr =  1.00E-02,  avg # of iterations =  9.0

     total cpu time spent up to now is       79.7 secs

     total energy              =   -3971.46019691 Ry
     estimated scf accuracy    <      12.53178719 Ry

     total magnetization       =     1.00 Bohr mag/cell
     absolute magnetization    =     1.20 Bohr mag/cell

     iteration #  2     ecut=    45.00 Ry     beta= 0.70
     Davidson diagonalization with overlap

---- Real-time Memory Report at c_bands before calling an iterative solver
           648 MiB given to the printing process from OS
           181 MiB allocation reported by mallinfo(arena+hblkhd)
        108525 MiB available memory on the node where the printing process lives
------------------
     ethr =  1.46E-03,  avg # of iterations =  2.0

     total cpu time spent up to now is       98.0 secs

     total energy              =   -3971.93975499 Ry
     estimated scf accuracy    <       0.94744213 Ry

     total magnetization       =     1.00 Bohr mag/cell
     absolute magnetization    =     1.13 Bohr mag/cell

     iteration #  3     ecut=    45.00 Ry     beta= 0.70
     Davidson diagonalization with overlap

---- Real-time Memory Report at c_bands before calling an iterative solver
           686 MiB given to the printing process from OS
           203 MiB allocation reported by mallinfo(arena+hblkhd)
        108101 MiB available memory on the node where the printing process lives
------------------
     ethr =  1.10E-04,  avg # of iterations = 17.0

     total cpu time spent up to now is      143.8 secs

     total energy              =   -3971.85039428 Ry
     estimated scf accuracy    <       4.96769971 Ry

     total magnetization       =     1.00 Bohr mag/cell
     absolute magnetization    =     1.11 Bohr mag/cell

     iteration #  4     ecut=    45.00 Ry     beta= 0.70
     Davidson diagonalization with overlap

---- Real-time Memory Report at c_bands before calling an iterative solver
           699 MiB given to the printing process from OS
           203 MiB allocation reported by mallinfo(arena+hblkhd)
        108082 MiB available memory on the node where the printing process lives
------------------
     ethr =  1.10E-04,  avg # of iterations =  9.0

     total cpu time spent up to now is      172.2 secs

     total energy              =   -3972.41508484 Ry
     estimated scf accuracy    <       0.23048244 Ry

     total magnetization       =     1.00 Bohr mag/cell
     absolute magnetization    =     1.17 Bohr mag/cell

     iteration #  5     ecut=    45.00 Ry     beta= 0.70
     Davidson diagonalization with overlap

---- Real-time Memory Report at c_bands before calling an iterative solver
           707 MiB given to the printing process from OS
           203 MiB allocation reported by mallinfo(arena+hblkhd)
        108088 MiB available memory on the node where the printing process lives
------------------
     ethr =  2.68E-05,  avg # of iterations =  5.0

     total cpu time spent up to now is      192.1 secs

     total energy              =   -3972.43639687 Ry
     estimated scf accuracy    <       0.04911334 Ry

     total magnetization       =     1.00 Bohr mag/cell
     absolute magnetization    =     1.25 Bohr mag/cell

     iteration #  6     ecut=    45.00 Ry     beta= 0.70
     Davidson diagonalization with overlap

---- Real-time Memory Report at c_bands before calling an iterative solver
           711 MiB given to the printing process from OS
           203 MiB allocation reported by mallinfo(arena+hblkhd)
        108097 MiB available memory on the node where the printing process lives
------------------
     ethr =  5.70E-06,  avg # of iterations =  6.5

     total cpu time spent up to now is      214.0 secs

     total energy              =   -3972.43889548 Ry
     estimated scf accuracy    <       0.03532174 Ry

     total magnetization       =     1.00 Bohr mag/cell
     absolute magnetization    =     1.35 Bohr mag/cell

     iteration #  7     ecut=    45.00 Ry     beta= 0.70
     Davidson diagonalization with overlap

---- Real-time Memory Report at c_bands before calling an iterative solver
           717 MiB given to the printing process from OS
           203 MiB allocation reported by mallinfo(arena+hblkhd)
        108091 MiB available memory on the node where the printing process lives
------------------
     ethr =  4.10E-06,  avg # of iterations =  5.0

     total cpu time spent up to now is      234.0 secs

     total energy              =   -3972.44243782 Ry
     estimated scf accuracy    <       0.05357802 Ry

     total magnetization       =     1.00 Bohr mag/cell
     absolute magnetization    =     1.30 Bohr mag/cell

     iteration #  8     ecut=    45.00 Ry     beta= 0.70
     Davidson diagonalization with overlap

---- Real-time Memory Report at c_bands before calling an iterative solver
           721 MiB given to the printing process from OS
           203 MiB allocation reported by mallinfo(arena+hblkhd)
        107928 MiB available memory on the node where the printing process lives
------------------
     ethr =  4.10E-06,  avg # of iterations =  4.0

     total cpu time spent up to now is      253.3 secs

     total energy              =   -3972.44773592 Ry
     estimated scf accuracy    <       0.00245878 Ry

     total magnetization       =     1.00 Bohr mag/cell
     absolute magnetization    =     1.54 Bohr mag/cell

     iteration #  9     ecut=    45.00 Ry     beta= 0.70
     Davidson diagonalization with overlap

---- Real-time Memory Report at c_bands before calling an iterative solver
           725 MiB given to the printing process from OS
           203 MiB allocation reported by mallinfo(arena+hblkhd)
        107921 MiB available memory on the node where the printing process lives
------------------
     ethr =  2.86E-07,  avg # of iterations =  9.0

     total cpu time spent up to now is      275.0 secs

     total energy              =   -3972.44885478 Ry
     estimated scf accuracy    <       0.00061362 Ry

     total magnetization       =     1.00 Bohr mag/cell
     absolute magnetization    =     1.62 Bohr mag/cell

     iteration # 10     ecut=    45.00 Ry     beta= 0.70
     Davidson diagonalization with overlap

---- Real-time Memory Report at c_bands before calling an iterative solver
           728 MiB given to the printing process from OS
           203 MiB allocation reported by mallinfo(arena+hblkhd)
        107721 MiB available memory on the node where the printing process lives
------------------
     ethr =  7.13E-08,  avg # of iterations =  2.0

     total cpu time spent up to now is      293.5 secs

     total energy              =   -3972.44956524 Ry
     estimated scf accuracy    <       0.00034217 Ry

     total magnetization       =     1.00 Bohr mag/cell
     absolute magnetization    =     1.69 Bohr mag/cell

     iteration # 11     ecut=    45.00 Ry     beta= 0.70
     Davidson diagonalization with overlap

---- Real-time Memory Report at c_bands before calling an iterative solver
           730 MiB given to the printing process from OS
           203 MiB allocation reported by mallinfo(arena+hblkhd)
        107712 MiB available memory on the node where the printing process lives
------------------
     ethr =  3.97E-08,  avg # of iterations =  2.5

     total cpu time spent up to now is      312.3 secs

     total energy              =   -3972.45008057 Ry
     estimated scf accuracy    <       0.00023066 Ry

     total magnetization       =     1.00 Bohr mag/cell
     absolute magnetization    =     1.77 Bohr mag/cell

     iteration # 12     ecut=    45.00 Ry     beta= 0.70
     Davidson diagonalization with overlap

---- Real-time Memory Report at c_bands before calling an iterative solver
           734 MiB given to the printing process from OS
           203 MiB allocation reported by mallinfo(arena+hblkhd)
        107632 MiB available memory on the node where the printing process lives
------------------
     ethr =  2.68E-08,  avg # of iterations =  3.0

     total cpu time spent up to now is      332.7 secs

     total energy              =   -3972.45046924 Ry
     estimated scf accuracy    <       0.00011279 Ry

     total magnetization       =     1.00 Bohr mag/cell
     absolute magnetization    =     1.90 Bohr mag/cell

     iteration # 13     ecut=    45.00 Ry     beta= 0.70
     Davidson diagonalization with overlap

---- Real-time Memory Report at c_bands before calling an iterative solver
           737 MiB given to the printing process from OS
           203 MiB allocation reported by mallinfo(arena+hblkhd)
        107627 MiB available memory on the node where the printing process lives
------------------
     ethr =  1.31E-08,  avg # of iterations =  3.0

     total cpu time spent up to now is      353.4 secs

     total energy              =   -3972.45069537 Ry
     estimated scf accuracy    <       0.00002257 Ry

     total magnetization       =     1.00 Bohr mag/cell
     absolute magnetization    =     1.99 Bohr mag/cell

     iteration # 14     ecut=    45.00 Ry     beta= 0.70
     Davidson diagonalization with overlap

---- Real-time Memory Report at c_bands before calling an iterative solver
           739 MiB given to the printing process from OS
           203 MiB allocation reported by mallinfo(arena+hblkhd)
        107627 MiB available memory on the node where the printing process lives
------------------
     ethr =  2.62E-09,  avg # of iterations =  2.5

     total cpu time spent up to now is      372.3 secs

     total energy              =   -3972.45070624 Ry
     estimated scf accuracy    <       0.00000852 Ry

     total magnetization       =     1.00 Bohr mag/cell
     absolute magnetization    =     2.01 Bohr mag/cell

     iteration # 15     ecut=    45.00 Ry     beta= 0.70
     Davidson diagonalization with overlap

---- Real-time Memory Report at c_bands before calling an iterative solver
           742 MiB given to the printing process from OS
           203 MiB allocation reported by mallinfo(arena+hblkhd)
        107627 MiB available memory on the node where the printing process lives
------------------
     ethr =  9.90E-10,  avg # of iterations =  2.5

     total cpu time spent up to now is      391.0 secs

     total energy              =   -3972.45070821 Ry
     estimated scf accuracy    <       0.00000497 Ry

     total magnetization       =     1.00 Bohr mag/cell
     absolute magnetization    =     2.01 Bohr mag/cell

     iteration # 16     ecut=    45.00 Ry     beta= 0.70
     Davidson diagonalization with overlap

---- Real-time Memory Report at c_bands before calling an iterative solver
           745 MiB given to the printing process from OS
           203 MiB allocation reported by mallinfo(arena+hblkhd)
        107622 MiB available memory on the node where the printing process lives
------------------
     ethr =  5.77E-10,  avg # of iterations =  2.0

     total cpu time spent up to now is      409.4 secs

     total energy              =   -3972.45070888 Ry
     estimated scf accuracy    <       0.00000057 Ry

     total magnetization       =     1.00 Bohr mag/cell
     absolute magnetization    =     2.01 Bohr mag/cell

     iteration # 17     ecut=    45.00 Ry     beta= 0.70
     Davidson diagonalization with overlap

---- Real-time Memory Report at c_bands before calling an iterative solver
           747 MiB given to the printing process from OS
           203 MiB allocation reported by mallinfo(arena+hblkhd)
        107621 MiB available memory on the node where the printing process lives
------------------
     ethr =  6.64E-11,  avg # of iterations =  3.0

     total cpu time spent up to now is      429.4 secs

     total energy              =   -3972.45070925 Ry
     estimated scf accuracy    <       0.00000028 Ry

     total magnetization       =     1.00 Bohr mag/cell
     absolute magnetization    =     2.02 Bohr mag/cell

     iteration # 18     ecut=    45.00 Ry     beta= 0.70
     Davidson diagonalization with overlap

---- Real-time Memory Report at c_bands before calling an iterative solver
           749 MiB given to the printing process from OS
           203 MiB allocation reported by mallinfo(arena+hblkhd)
        107616 MiB available memory on the node where the printing process lives
------------------
     ethr =  3.28E-11,  avg # of iterations =  2.0

     total cpu time spent up to now is      447.8 secs

     total energy              =   -3972.45070933 Ry
     estimated scf accuracy    <       0.00000011 Ry

     total magnetization       =     1.00 Bohr mag/cell
     absolute magnetization    =     2.02 Bohr mag/cell

     iteration # 19     ecut=    45.00 Ry     beta= 0.70
     Davidson diagonalization with overlap

---- Real-time Memory Report at c_bands before calling an iterative solver
           752 MiB given to the printing process from OS
           203 MiB allocation reported by mallinfo(arena+hblkhd)
        107606 MiB available memory on the node where the printing process lives
------------------
     ethr =  1.28E-11,  avg # of iterations =  2.0

     total cpu time spent up to now is      466.1 secs

     total energy              =   -3972.45070935 Ry
     estimated scf accuracy    <       0.00000004 Ry

     total magnetization       =     1.00 Bohr mag/cell
     absolute magnetization    =     2.02 Bohr mag/cell

     iteration # 20     ecut=    45.00 Ry     beta= 0.70
     Davidson diagonalization with overlap

---- Real-time Memory Report at c_bands before calling an iterative solver
           753 MiB given to the printing process from OS
           203 MiB allocation reported by mallinfo(arena+hblkhd)
        107613 MiB available memory on the node where the printing process lives
------------------
     ethr =  4.08E-12,  avg # of iterations =  2.0
 
     Magnetic moment per site  (integrated on atomic sphere of radius R)
     atom   1 (R=0.057)  charge=  1.8250  magn= -0.0000
     atom   2 (R=0.057)  charge=  1.8243  magn= -0.0001
     atom   3 (R=0.057)  charge=  1.8262  magn= -0.0001
     atom   4 (R=0.057)  charge=  1.8243  magn= -0.0001
     atom   5 (R=0.057)  charge=  1.8210  magn= -0.0008
     atom   6 (R=0.057)  charge=  1.8248  magn= -0.0011
     atom   7 (R=0.057)  charge=  1.8262  magn= -0.0001
     atom   8 (R=0.057)  charge=  1.8248  magn= -0.0011
     atom   9 (R=0.057)  charge=  1.8232  magn= -0.0007
     atom  10 (R=0.057)  charge=  1.8292  magn=  0.0007
     atom  11 (R=0.057)  charge=  1.8263  magn= -0.0001
     atom  12 (R=0.057)  charge=  1.8261  magn= -0.0000
     atom  13 (R=0.057)  charge=  1.8263  magn= -0.0001
     atom  14 (R=0.057)  charge=  1.7993  magn= -0.0015
     atom  15 (R=0.057)  charge=  1.8331  magn= -0.0025
     atom  16 (R=0.057)  charge=  1.8261  magn= -0.0000
     atom  17 (R=0.057)  charge=  1.8331  magn= -0.0025
     atom  18 (R=0.057)  charge=  1.8353  magn=  0.0011
     atom  19 (R=0.057)  charge=  1.8246  magn=  0.0000
     atom  20 (R=0.057)  charge=  1.8261  magn=  0.0000
     atom  21 (R=0.057)  charge=  1.8254  magn=  0.0000
     atom  22 (R=0.057)  charge=  1.8261  magn=  0.0000
     atom  23 (R=0.057)  charge=  1.8262  magn= -0.0000
     atom  24 (R=0.057)  charge=  1.8177  magn=  0.0003
     atom  25 (R=0.057)  charge=  1.8254  magn=  0.0000
     atom  26 (R=0.057)  charge=  1.8177  magn=  0.0003
     atom  27 (R=0.057)  charge=  1.8253  magn=  0.0007
     atom  28 (R=0.057)  charge=  1.8260  magn= -0.0001
     atom  29 (R=0.057)  charge=  1.8186  magn= -0.0003
     atom  30 (R=0.057)  charge=  1.8263  magn= -0.0011
     atom  31 (R=0.057)  charge=  1.8261  magn= -0.0001
     atom  32 (R=0.057)  charge=  1.8142  magn= -0.0061
     atom  33 (R=0.057)  charge=  1.8337  magn= -0.0046
     atom  34 (R=0.057)  charge=  1.8265  magn= -0.0001
     atom  35 (R=0.057)  charge=  1.8256  magn= -0.0011
     atom  36 (R=0.057)  charge=  1.8263  magn=  0.0000
     atom  37 (R=0.057)  charge=  1.8269  magn=  0.0000
     atom  38 (R=0.057)  charge=  1.8270  magn= -0.0000
     atom  39 (R=0.057)  charge=  1.8196  magn= -0.0003
     atom  40 (R=0.057)  charge=  1.8260  magn= -0.0000
     atom  41 (R=0.057)  charge=  1.7966  magn=  0.0012
     atom  42 (R=0.057)  charge=  1.8132  magn=  0.0042
     atom  43 (R=0.057)  charge=  1.8247  magn=  0.0000
     atom  44 (R=0.057)  charge=  1.8252  magn= -0.0000
     atom  45 (R=0.057)  charge=  1.8257  magn=  0.0007
     atom  46 (R=0.057)  charge=  1.8243  magn=  0.0000
     atom  47 (R=0.057)  charge=  1.8254  magn= -0.0001
     atom  48 (R=0.057)  charge=  1.8252  magn= -0.0000
     atom  49 (R=0.057)  charge=  1.8265  magn=  0.0007
     atom  50 (R=0.057)  charge=  1.8254  magn= -0.0001
     atom  51 (R=0.057)  charge=  1.8250  magn= -0.0000
     atom  52 (R=0.057)  charge=  1.8250  magn=  0.0000
     atom  53 (R=0.057)  charge=  1.8238  magn= -0.0000
     atom  54 (R=0.057)  charge=  1.8254  magn= -0.0000
     atom  55 (R=0.057)  charge=  1.8260  magn= -0.0001
     atom  56 (R=0.057)  charge=  1.8261  magn= -0.0001
     atom  57 (R=0.057)  charge=  1.8265  magn= -0.0001
     atom  58 (R=0.057)  charge=  1.8186  magn= -0.0003
     atom  59 (R=0.057)  charge=  1.8142  magn= -0.0061
     atom  60 (R=0.057)  charge=  1.8256  magn= -0.0011
     atom  61 (R=0.057)  charge=  1.8263  magn= -0.0011
     atom  62 (R=0.057)  charge=  1.8337  magn= -0.0046
     atom  63 (R=0.057)  charge=  1.8263  magn=  0.0000
     atom  64 (R=0.057)  charge=  1.8269  magn=  0.0000
     atom  65 (R=0.057)  charge=  1.8260  magn= -0.0000
     atom  66 (R=0.057)  charge=  1.8247  magn=  0.0000
     atom  67 (R=0.057)  charge=  1.8270  magn= -0.0000
     atom  68 (R=0.057)  charge=  1.7966  magn=  0.0012
     atom  69 (R=0.057)  charge=  1.8252  magn= -0.0000
     atom  70 (R=0.057)  charge=  1.8196  magn= -0.0003
     atom  71 (R=0.057)  charge=  1.8132  magn=  0.0042
     atom  72 (R=0.057)  charge=  1.8257  magn=  0.0007
     atom  73 (R=0.057)  charge=  1.8243  magn=  0.0000
     atom  74 (R=0.057)  charge=  1.8265  magn=  0.0007
     atom  75 (R=0.057)  charge=  1.8250  magn=  0.0000
     atom  76 (R=0.057)  charge=  1.8254  magn= -0.0001
     atom  77 (R=0.057)  charge=  1.8254  magn= -0.0001
     atom  78 (R=0.057)  charge=  1.8238  magn= -0.0000
     atom  79 (R=0.057)  charge=  1.8252  magn= -0.0000
     atom  80 (R=0.057)  charge=  1.8250  magn= -0.0000
     atom  81 (R=0.057)  charge=  1.8254  magn= -0.0000
     atom  82 (R=0.057)  charge=  1.8244  magn= -0.0001
     atom  83 (R=0.057)  charge=  1.8249  magn=  0.0023
     atom  84 (R=0.057)  charge=  1.8251  magn= -0.0000
     atom  85 (R=0.057)  charge=  1.8249  magn=  0.0023
     atom  86 (R=0.057)  charge=  1.8257  magn= -0.0008
     atom  87 (R=0.057)  charge=  1.8288  magn=  0.0028
     atom  88 (R=0.057)  charge=  1.8251  magn= -0.0000
     atom  89 (R=0.057)  charge=  1.8288  magn=  0.0028
     atom  90 (R=0.057)  charge=  1.8255  magn=  0.0000
     atom  91 (R=0.057)  charge=  1.8305  magn= -0.0005
     atom  92 (R=0.057)  charge=  1.8293  magn= -0.0005
     atom  93 (R=0.057)  charge=  1.8296  magn=  0.0035
     atom  94 (R=0.057)  charge=  1.8293  magn= -0.0005
     atom  95 (R=0.057)  charge=  1.8265  magn= -0.0002
     atom  96 (R=0.057)  charge=  1.8296  magn=  0.0035
     atom  97 (R=0.057)  charge=  1.8265  magn= -0.0002
     atom  98 (R=0.057)  charge=  1.8286  magn= -0.0020
     atom  99 (R=0.057)  charge=  1.8255  magn=  0.0000
     atom 100 (R=0.057)  charge=  1.8296  magn=  0.0005
     atom 101 (R=0.057)  charge=  1.8246  magn=  0.0001
     atom 102 (R=0.057)  charge=  1.8296  magn=  0.0005
     atom 103 (R=0.057)  charge=  1.8279  magn=  0.0001
     atom 104 (R=0.057)  charge=  1.8240  magn= -0.0012
     atom 105 (R=0.057)  charge=  1.8246  magn=  0.0001
     atom 106 (R=0.057)  charge=  1.8240  magn= -0.0012
     atom 107 (R=0.057)  charge=  1.8254  magn=  0.0000
     atom 108 (R=0.057)  charge=  1.8244  magn=  0.0002
     atom 109 (R=0.057)  charge=  1.8205  magn=  0.0000
     atom 110 (R=0.057)  charge=  1.8235  magn=  0.0015
     atom 111 (R=0.057)  charge=  1.8205  magn=  0.0000
     atom 112 (R=0.057)  charge=  1.8209  magn=  0.0055
     atom 113 (R=0.057)  charge=  1.8209  magn=  0.0190
     atom 114 (R=0.057)  charge=  1.8235  magn=  0.0015
     atom 115 (R=0.057)  charge=  1.8209  magn=  0.0190
     atom 116 (R=0.057)  charge=  1.8230  magn=  0.0002
     atom 117 (R=0.057)  charge=  1.8258  magn= -0.0003
     atom 118 (R=0.057)  charge=  1.8236  magn=  0.0007
     atom 119 (R=0.057)  charge=  1.8211  magn= -0.0000
     atom 120 (R=0.057)  charge=  1.8236  magn=  0.0007
     atom 121 (R=0.057)  charge=  1.8259  magn=  0.0015
     atom 122 (R=0.057)  charge=  1.8211  magn= -0.0000
     atom 123 (R=0.057)  charge=  1.8259  magn=  0.0015
     atom 124 (R=0.057)  charge=  1.8194  magn= -0.0125
     atom 125 (R=0.057)  charge=  1.8243  magn=  0.0001
     atom 126 (R=0.057)  charge=  1.8253  magn=  0.0004
     atom 127 (R=0.057)  charge=  1.8236  magn=  0.0000
     atom 128 (R=0.057)  charge=  1.8253  magn=  0.0004
     atom 129 (R=0.057)  charge=  1.8225  magn= -0.0001
     atom 130 (R=0.057)  charge=  1.8201  magn=  0.0001
     atom 131 (R=0.057)  charge=  1.8236  magn=  0.0000
     atom 132 (R=0.057)  charge=  1.8201  magn=  0.0001
     atom 133 (R=0.057)  charge=  1.8219  magn= -0.0013
     atom 134 (R=0.057)  charge=  1.8231  magn=  0.0001
     atom 135 (R=0.057)  charge=  1.8171  magn=  0.0035
     atom 136 (R=0.057)  charge=  1.8205  magn=  0.0197
     atom 137 (R=0.057)  charge=  1.8234  magn=  0.0008
     atom 138 (R=0.057)  charge=  1.8088  magn=  0.2444
     atom 139 (R=0.057)  charge=  1.8246  magn=  0.0019
     atom 140 (R=0.057)  charge=  1.8248  magn=  0.0020
     atom 141 (R=0.057)  charge=  1.8236  magn=  0.0005
     atom 142 (R=0.057)  charge=  1.8235  magn=  0.0002
     atom 143 (R=0.057)  charge=  1.8256  magn=  0.0001
     atom 144 (R=0.057)  charge=  1.8305  magn=  0.0007
     atom 145 (R=0.057)  charge=  1.8237  magn=  0.0002
     atom 146 (R=0.057)  charge=  1.8230  magn=  0.0001
     atom 147 (R=0.057)  charge=  1.8156  magn= -0.0012
     atom 148 (R=0.057)  charge=  1.8125  magn= -0.0116
     atom 149 (R=0.057)  charge=  1.8242  magn= -0.0001
     atom 150 (R=0.057)  charge=  1.8237  magn=  0.0001
     atom 151 (R=0.057)  charge=  1.8230  magn= -0.0011
     atom 152 (R=0.057)  charge=  1.8244  magn=  0.0001
     atom 153 (R=0.057)  charge=  1.8220  magn= -0.0000
     atom 154 (R=0.057)  charge=  1.8231  magn=  0.0015
     atom 155 (R=0.057)  charge=  1.8219  magn=  0.0013
     atom 156 (R=0.057)  charge=  1.8223  magn=  0.0013
     atom 157 (R=0.057)  charge=  1.8220  magn= -0.0000
     atom 158 (R=0.057)  charge=  1.8238  magn=  0.0005
     atom 159 (R=0.057)  charge=  1.8238  magn=  0.0016
     atom 160 (R=0.057)  charge=  1.8232  magn=  0.0000
     atom 161 (R=0.057)  charge=  1.8231  magn=  0.0001
     atom 162 (R=0.057)  charge=  1.8234  magn=  0.0008
     atom 163 (R=0.057)  charge=  1.8248  magn=  0.0020
     atom 164 (R=0.057)  charge=  1.8171  magn=  0.0035
     atom 165 (R=0.057)  charge=  1.8088  magn=  0.2443
     atom 166 (R=0.057)  charge=  1.8236  magn=  0.0005
     atom 167 (R=0.057)  charge=  1.8205  magn=  0.0198
     atom 168 (R=0.057)  charge=  1.8246  magn=  0.0019
     atom 169 (R=0.057)  charge=  1.8235  magn=  0.0002
     atom 170 (R=0.057)  charge=  1.8256  magn=  0.0001
     atom 171 (R=0.057)  charge=  1.8230  magn=  0.0001
     atom 172 (R=0.057)  charge=  1.8242  magn= -0.0001
     atom 173 (R=0.057)  charge=  1.8305  magn=  0.0007
     atom 174 (R=0.057)  charge=  1.8156  magn= -0.0012
     atom 175 (R=0.057)  charge=  1.8237  magn=  0.0001
     atom 176 (R=0.057)  charge=  1.8237  magn=  0.0002
     atom 177 (R=0.057)  charge=  1.8125  magn= -0.0116
     atom 178 (R=0.057)  charge=  1.8230  magn= -0.0011
     atom 179 (R=0.057)  charge=  1.8244  magn=  0.0001
     atom 180 (R=0.057)  charge=  1.8219  magn=  0.0013
     atom 181 (R=0.057)  charge=  1.8238  magn=  0.0005
     atom 182 (R=0.057)  charge=  1.8220  magn= -0.0000
     atom 183 (R=0.057)  charge=  1.8223  magn=  0.0013
     atom 184 (R=0.057)  charge=  1.8238  magn=  0.0016
     atom 185 (R=0.057)  charge=  1.8231  magn=  0.0015
     atom 186 (R=0.057)  charge=  1.8220  magn= -0.0000
     atom 187 (R=0.057)  charge=  1.8232  magn=  0.0000
     atom 188 (R=0.057)  charge=  1.8228  magn=  0.0001
     atom 189 (R=0.057)  charge=  1.8143  magn=  0.0180
     atom 190 (R=0.057)  charge=  1.8242  magn=  0.0014
     atom 191 (R=0.057)  charge=  1.8143  magn=  0.0180
     atom 192 (R=0.057)  charge=  1.8203  magn=  0.0057
     atom 193 (R=0.057)  charge=  1.8232  magn=  0.0000
     atom 194 (R=0.057)  charge=  1.8242  magn=  0.0014
     atom 195 (R=0.057)  charge=  1.8232  magn=  0.0000
     atom 196 (R=0.057)  charge=  1.8238  magn=  0.0002
     atom 197 (R=0.057)  charge=  1.8317  magn=  0.0004
     atom 198 (R=0.057)  charge=  1.8166  magn=  0.0031
     atom 199 (R=0.057)  charge=  1.8236  magn= -0.0000
     atom 200 (R=0.057)  charge=  1.8166  magn=  0.0031
     atom 201 (R=0.057)  charge=  1.7809  magn= -0.1404
     atom 202 (R=0.057)  charge=  1.8236  magn=  0.0002
     atom 203 (R=0.057)  charge=  1.8236  magn= -0.0000
     atom 204 (R=0.057)  charge=  1.8236  magn=  0.0002
     atom 205 (R=0.057)  charge=  1.8236  magn= -0.0012
     atom 206 (R=0.057)  charge=  1.8252  magn=  0.0000
     atom 207 (R=0.057)  charge=  1.8222  magn=  0.0001
     atom 208 (R=0.057)  charge=  1.8242  magn=  0.0002
     atom 209 (R=0.057)  charge=  1.8222  magn=  0.0001
     atom 210 (R=0.057)  charge=  1.8223  magn= -0.0003
     atom 211 (R=0.057)  charge=  1.8214  magn= -0.0008
     atom 212 (R=0.057)  charge=  1.8242  magn=  0.0002
     atom 213 (R=0.057)  charge=  1.8214  magn= -0.0008
     atom 214 (R=0.057)  charge=  1.8235  magn= -0.0002
     atom 215 (R=0.057)  charge=  2.9078  magn=  0.0107

     total cpu time spent up to now is      484.4 secs

     End of self-consistent calculation

 ------ SPIN UP ------------


          k = 0.0000 0.0000 0.0000 ( 42379 PWs)   bands (ev):

    -8.2615  -7.4657  -7.2361  -7.2356  -7.2248  -7.2202  -7.1506  -6.6074
    -6.2367  -6.2366  -6.2331  -6.2328  -6.2307  -6.2305  -6.2205  -6.2057
    -6.2027  -6.1886  -6.0330  -5.4796  -5.2516  -5.2430  -5.2429  -5.2315
    -5.2290  -5.2218  -5.0922  -4.4739  -4.2479  -4.2441  -4.2294  -4.2236
    -4.1497  -3.8574  -3.3613  -3.3583  -3.3307  -3.3275  -3.3220  -3.3218
    -3.3177  -3.3165  -3.3159  -3.3133  -3.3111  -3.3078  -3.3063  -3.3038
    -3.3024  -3.3005  -3.2949  -3.2928  -3.2809  -3.2647  -3.2321  -3.2192
    -2.9968  -2.8035  -2.5656  -2.5648  -2.5424  -2.5387  -2.5357  -2.5324
    -2.5319  -2.5252  -2.5244  -2.5222  -2.5161  -2.5143  -2.5128  -2.5109
    -2.5062  -2.5036  -2.5011  -2.4908  -2.4836  -2.4750  -2.4318  -2.4304
    -1.7416  -1.0564  -0.8890  -0.8842  -0.8602  -0.8586  -0.8557  -0.8513
    -0.8418  -0.8397  -0.8133  -0.8087  -0.4975   0.3387   0.4204   0.4207
     0.4508   0.4538   0.5119   0.6969   0.8699   0.8718   0.9446   0.9482
     0.9580   0.9584   0.9618   0.9669   0.9685   0.9695   0.9707   0.9719
     0.9751   0.9776   0.9783   0.9839   0.9906   0.9967   1.0007   1.0010
     1.0034   1.0141   1.0966   1.1419   1.1568   1.1569   1.1742   1.1800
     1.1809   1.1827   1.1848   1.1886   1.1905   1.1905   1.1929   1.1967
     1.1982   1.1994   1.2001   1.2036   1.2064   1.2091   1.2105   1.3709
     1.4820   1.5113   1.9657   2.2031   2.2036   2.2055   2.2445   2.2534
     2.2608   2.2660   2.2751   2.2755   2.3623   2.3680   3.3181   3.7360
     3.7373   3.7419   3.7993   3.8201   3.8229   3.8241   3.8266   3.8270
     3.8300   3.8318   3.8355   3.8357   3.8378   3.8515   3.8520   3.9789
     3.9871   3.9911   4.0074   4.3744   4.3751   4.3898   4.4635   4.4703
     4.4706   4.4754   4.4821   4.4835   4.4920   4.4930   4.4942   4.4947
     4.4971   4.4973   4.4989   4.5006   4.5119   4.5119   4.5146   4.5312
     4.6861   4.6920   5.2531   5.2561   5.2984   5.3688   5.3708   5.3789
     5.3817   5.3820   5.3824   5.3828   5.3847   5.3874   5.3899   5.3920
     5.3989   5.3995   5.4056   5.4084   5.4210   5.4408   5.4439   5.5461
     5.5568   5.5669   5.6087   5.7760   5.7797   5.8290   5.8668   5.8691
     5.8704   5.8709   5.8729   5.8745   5.8784   5.8806   5.8812   5.8895
     5.8909   5.8930   5.9007   5.9033   5.9191   5.9213   5.9282   5.9305
     5.9375   5.9564   5.9594   6.0032   6.0109   6.2794   6.3126   6.3366
     6.8582   6.8585   6.9115   6.9298   6.9340   6.9436   7.0121   7.3901
     7.3966   7.4488   7.4757   7.4781   7.4834   7.4857   7.4930   7.5024
     7.5615   7.5626   7.7374   7.7412   7.8286   7.8546   7.8599   7.8702
     7.8717   7.8806   7.8825   7.9062   7.9318   7.9321   7.9375   8.0491
     8.0563   8.1230   8.1557   8.1566   8.1752   8.1811   8.1811   8.1833
     8.1840   8.1913   8.1921   8.1934   8.1948   8.1991   8.2123   8.2130
     8.2164   8.2191   8.2264   8.2430   8.2526   8.2528   8.2791   8.2849
     8.3156   8.3336   8.3423   8.3491   8.3515   8.3516   8.3594   8.3613
     8.3695   8.3707   8.3722   8.3723   8.3752   8.3764   8.3803   8.3803
     8.3809   8.3826   8.3858   8.3865   8.3871   8.3900   8.3906   8.3911
     8.3948   8.4013   8.4034   8.4047   8.4171   8.4512   8.4542   8.4687
     8.4693   8.4763   8.4769   8.4794   8.4836   8.5103   8.5161   8.5223
     8.5371   8.5465   8.5763   8.9408   8.9546   8.9625   9.1141   9.1171
     9.1740   9.1760   9.1869   9.2015   9.2016   9.2052   9.2061   9.2078
     9.2094   9.2125   9.2180   9.2203   9.2251   9.2307   9.2330   9.2413
     9.2606   9.2612   9.3060   9.9520  10.0427  10.0827  10.3570  10.5398
    10.5411  10.5769  10.5904  10.5938  10.5947  10.6053  10.6106  10.6212
    10.6893  10.6990  10.7036  10.7810  10.7816  10.8305  10.8315  10.8425
    10.8428  10.8471  10.8603  10.8633  10.8661  10.8689  10.8703  10.8946
    10.9009  10.9095  10.9117  10.9222  10.9365  11.5052  11.5508  11.5574
    11.6311  11.7548  11.7554  11.7807  11.7870  11.7885  11.7902  11.8018
    11.8040  11.8233  12.8508  12.9878  13.0273  13.6152  14.3342  14.9809
    17.3292  17.3398  17.3457  17.3919  17.3929  17.4165  17.8827  17.9564
    17.9577  17.9745  17.9809  18.0210  18.0977  18.1129  18.1369  18.2144
    18.2162  18.2315  18.8048  18.8069  18.8364  19.3929  19.5019  19.5055
    19.5112  19.5388  19.5443  19.5631  19.5702  19.5775  19.5880  19.5973
    19.6429  20.0294  20.2053  20.2141  20.2388  20.2450  20.2500  20.2545
    20.2560  20.2577  20.2607  20.2663  20.2664  20.2705  20.2860  20.2863
    20.2930  20.2961  20.2995  20.3559  20.3562  20.3746  20.3944  20.4030
    20.4167  20.6581  20.6719  20.6839  20.7528  20.7829  20.7841  20.7846
    20.7913  20.7916  20.7941  20.7961  20.8000  20.8218  20.8221  20.8330
    20.8357  20.8368  20.8377  20.8410  20.8417  20.8461  20.8536  20.8581
    20.8588  20.8647  20.8665  20.8666  20.8785  20.8830  20.9058  20.9063
    20.9222  20.9233  20.9314  20.9336  20.9505  21.0319  21.0366  21.0488
    21.0962  21.0970  21.1223  21.2289  21.2940  21.2998  21.3309  21.3569
    21.3607  21.3656  21.3666  21.3724  21.3785  21.3792  21.3803  21.3820
    21.3882  21.3915  21.3926  21.4015  21.4063  21.4133  21.4251  21.4262
    21.4302  21.4408  21.4414  21.4486  21.4487  21.4503  21.4595  21.4642
    21.4649  21.4708  21.4767  21.4794  21.4851  21.4892  21.6145  21.6160
    21.6297  21.6681  21.6858  21.6974  21.7009  21.7033  21.7036  21.7247
    21.7252  21.7303  21.7445  21.7695  21.7762  21.7825  21.7887  21.8207
    21.8260  21.9365  21.9575  21.9936  21.9959  22.0292  22.1402  22.1457
    22.1509  22.1825  22.1951  22.2073  22.2212  22.2248  22.2392  22.3474
    22.3640  22.3670  22.4173  22.4757  22.4769  22.4833  22.4988  22.4993
    22.6187  22.6195  22.6345  22.7148  22.8826  22.8962  22.9188  23.1305
    23.1314  23.1410  23.1475  23.1493  23.1563  23.1637  23.1659  23.1694
    23.1701  23.1737  23.1754  23.1775  23.1847  23.1866  23.1931  23.2518
    23.2934  23.3017  23.3539  23.3569  23.4122  23.4266  23.4436  23.7654
    23.8007  23.8116  23.8119  23.8362  23.8369  23.8401  23.8548  23.8615
    23.8619  23.8634  23.8673  23.8747  23.8933  23.8967  23.9050  23.9326
    23.9567  23.9665  23.9666  24.1080  24.1146  24.1707  24.1864  24.2431
    24.2518  24.2754  24.2827  24.3270  24.3274  24.3301  24.3327  24.3369
    24.3513  24.3520  24.3531  24.3587  24.3877  24.3877  24.4015  24.4024
    24.4199  24.4215  24.4281  24.4536  24.4637  24.4707  24.4902  24.5056
    24.5118  24.5148  24.5240  24.5269  24.5308  24.5421  24.5474  24.5498
    24.5571  24.5681  24.5690  24.5725  24.5841  24.6020  24.6193  24.6387
    24.6527  24.7718  24.8203  25.4026  25.4299  25.4601  25.5185  25.7980
    25.8041  25.8084  25.8264  25.8329  25.9919  26.0209  26.0230  26.0242
    26.0663  26.0723  26.1382  26.1422  26.1443  26.1487  26.2273  26.2604
    26.2673  26.4633  26.5947  26.5982  26.5989  26.6518  26.6592  26.6608
    26.6740  26.7082  26.7104  26.7189  26.7213  26.7357  26.7556  26.7623
    26.7807  26.7895  26.8107  26.8243  26.8555  26.8580  26.8644  26.9149
    26.9219  27.0862  27.0883  27.1167  27.1240  27.1466  27.1516  27.1603
    27.1797  27.1838  27.1907  27.1927  27.1956  27.1963  27.2008  27.2149
    27.2358  27.2540  27.2546  27.2609  27.2614  27.2677  27.2722  27.2748
    27.2841  27.2877  27.2904  27.3000  27.3030  27.3037  27.3212  27.3260
    27.3264  27.3377  27.3438  27.3450  27.3530  27.3698  27.3795  27.3901
    27.3917  27.3987  27.4049  27.4049  27.4145  27.4152  27.4234  27.4333
    27.4398  27.4475  27.4736  27.4749  27.4798  27.5055  27.5056  27.5286
    27.5324  27.5428  27.5539  27.5553  27.5592  27.5660  27.5814  27.5823
    27.5956  27.6051  27.6128  27.6144  27.6185  27.6198  27.6278  27.6535
    27.6563  27.6634  27.6972  27.7139  27.7268  27.7387  27.7936  27.9038
    27.9043  27.9197  27.9203  27.9890  28.0377  28.0448  28.0623  28.0659
    28.1142  28.1168  28.1313  28.2220  28.2270  28.2860  28.3103  28.3432
    28.3483  28.3503  28.3533  28.4276  28.4394  28.4593  29.5806  29.7943
    29.8046  29.8071  29.9156  29.9162  29.9484

     occupation numbers 
     1.0000   1.0000   1.0000   1.0000   1.0000   1.0000   1.0000   1.0000
     1.0000   1.0000   1.0000   1.0000   1.0000   1.0000   1.0000   1.0000
     1.0000   1.0000   1.0000   1.0000   1.0000   1.0000   1.0000   1.0000
     1.0000   1.0000   1.0000   1.0000   1.0000   1.0000   1.0000   1.0000
     1.0000   1.0000   1.0000   1.0000   1.0000   1.0000   1.0000   1.0000
     1.0000   1.0000   1.0000   1.0000   1.0000   1.0000   1.0000   1.0000
     1.0000   1.0000   1.0000   1.0000   1.0000   1.0000   1.0000   1.0000
     1.0000   1.0000   1.0000   1.0000   1.0000   1.0000   1.0000   1.0000
     1.0000   1.0000   1.0000   1.0000   1.0000   1.0000   1.0000   1.0000
     1.0000   1.0000   1.0000   1.0000   1.0000   1.0000   1.0000   1.0000
     1.0000   1.0000   1.0000   1.0000   1.0000   1.0000   1.0000   1.0000
     1.0000   1.0000   1.0000   1.0000   1.0000   1.0000   1.0000   1.0000
     1.0000   1.0000   1.0000   1.0000   1.0000   1.0000   1.0000   1.0000
     1.0000   1.0000   1.0000   1.0000   1.0000   1.0000   1.0000   1.0000
     1.0000   1.0000   1.0000   1.0000   1.0000   1.0000   1.0000   1.0000
     1.0000   1.0000   1.0000   1.0000   1.0000   1.0000   1.0000   1.0000
     1.0000   1.0000   1.0000   1.0000   1.0000   1.0000   1.0000   1.0000
     1.0000   1.0000   1.0000   1.0000   1.0000   1.0000   1.0000   1.0000
     1.0000   1.0000   1.0000   1.0000   1.0000   1.0000   1.0000   1.0000
     1.0000   1.0000   1.0000   1.0000   1.0000   1.0000   1.0000   1.0000
     1.0000   1.0000   1.0000   1.0000   1.0000   1.0000   1.0000   1.0000
     1.0000   1.0000   1.0000   1.0000   1.0000   1.0000   1.0000   1.0000
     1.0000   1.0000   1.0000   1.0000   1.0000   1.0000   1.0000   1.0000
     1.0000   1.0000   1.0000   1.0000   1.0000   1.0000   1.0000   1.0000
     1.0000   1.0000   1.0000   1.0000   1.0000   1.0000   1.0000   1.0000
     1.0000   1.0000   1.0000   1.0000   1.0000   1.0000   1.0000   1.0000
     1.0000   1.0000   1.0000   1.0000   1.0000   1.0000   1.0000   1.0000
     1.0000   1.0000   1.0000   1.0000   1.0000   1.0000   1.0000   1.0000
     1.0000   1.0000   1.0000   1.0000   1.0000   1.0000   1.0000   1.0000
     1.0000   1.0000   1.0000   1.0000   1.0000   1.0000   1.0000   1.0000
     1.0000   1.0000   1.0000   1.0000   1.0000   1.0000   1.0000   1.0000
     1.0000   1.0000   1.0000   1.0000   1.0000   1.0000   1.0000   1.0000
     1.0000   1.0000   1.0000   1.0000   1.0000   1.0000   1.0000   1.0000
     1.0000   1.0000   1.0000   1.0000   1.0000   1.0000   1.0000   1.0000
     1.0000   1.0000   1.0000   1.0000   1.0000   1.0000   1.0000   1.0000
     1.0000   1.0000   1.0000   1.0000   1.0000   1.0000   1.0000   1.0000
     1.0000   1.0000   1.0000   1.0000   1.0000   1.0000   1.0000   1.0000
     1.0000   1.0000   1.0000   1.0000   1.0000   1.0000   1.0000   1.0000
     1.0000   1.0000   1.0000   1.0000   1.0000   1.0000   1.0000   1.0000
     1.0000   1.0000   1.0000   1.0000   1.0000   1.0000   1.0000   1.0000
     1.0000   1.0000   1.0000   1.0000   1.0000   1.0000   1.0000   1.0000
     1.0000   1.0000   1.0000   1.0000   1.0000   1.0000   1.0000   1.0000
     1.0000   1.0000   1.0000   1.0000   1.0000   1.0000   1.0000   1.0000
     1.0000   1.0000   1.0000   1.0000   1.0000   1.0000   1.0000   1.0000
     1.0000   1.0000   1.0000   1.0000   1.0000   1.0000   1.0000   1.0000
     1.0000   1.0000   1.0000   1.0000   1.0000   1.0000   1.0000   1.0000
     1.0000   1.0000   1.0000   1.0000   1.0000   1.0000   1.0000   1.0000
     1.0000   1.0000   1.0000   1.0000   1.0000   1.0000   1.0000   1.0000
     1.0000   1.0000   1.0000   1.0000   1.0000   1.0000   1.0000   1.0000
     1.0000   1.0000   1.0000   1.0000   1.0000   1.0000   1.0000   1.0000
     1.0000   1.0000   1.0000   1.0000   1.0000   1.0000   1.0000   1.0000
     1.0000   1.0000   1.0000   1.0000   1.0000   1.0000   1.0000   1.0000
     1.0000   1.0000   1.0000   1.0000   1.0000   1.0000   1.0000   1.0000
     1.0000   1.0000   1.0000   1.0000   1.0000   1.0000   1.0000   0.0000
     0.0000   0.0000   0.0000   0.0000   0.0000   0.0000   0.0000   0.0000
     0.0000   0.0000   0.0000   0.0000   0.0000   0.0000   0.0000   0.0000
     0.0000   0.0000   0.0000   0.0000   0.0000   0.0000   0.0000   0.0000
     0.0000   0.0000   0.0000   0.0000   0.0000   0.0000   0.0000   0.0000
     0.0000   0.0000   0.0000   0.0000   0.0000   0.0000   0.0000   0.0000
     0.0000   0.0000   0.0000   0.0000   0.0000   0.0000   0.0000   0.0000
     0.0000   0.0000   0.0000   0.0000   0.0000   0.0000   0.0000   0.0000
     0.0000   0.0000   0.0000   0.0000   0.0000   0.0000   0.0000   0.0000
     0.0000   0.0000   0.0000   0.0000   0.0000   0.0000   0.0000   0.0000
     0.0000   0.0000   0.0000   0.0000   0.0000   0.0000   0.0000   0.0000
     0.0000   0.0000   0.0000   0.0000   0.0000   0.0000   0.0000   0.0000
     0.0000   0.0000   0.0000   0.0000   0.0000   0.0000   0.0000   0.0000
     0.0000   0.0000   0.0000   0.0000   0.0000   0.0000   0.0000   0.0000
     0.0000   0.0000   0.0000   0.0000   0.0000   0.0000   0.0000   0.0000
     0.0000   0.0000   0.0000   0.0000   0.0000   0.0000   0.0000   0.0000
     0.0000   0.0000   0.0000   0.0000   0.0000   0.0000   0.0000   0.0000
     0.0000   0.0000   0.0000   0.0000   0.0000   0.0000   0.0000   0.0000
     0.0000   0.0000   0.0000   0.0000   0.0000   0.0000   0.0000   0.0000
     0.0000   0.0000   0.0000   0.0000   0.0000   0.0000   0.0000   0.0000
     0.0000   0.0000   0.0000   0.0000   0.0000   0.0000   0.0000   0.0000
     0.0000   0.0000   0.0000   0.0000   0.0000   0.0000   0.0000   0.0000
     0.0000   0.0000   0.0000   0.0000   0.0000   0.0000   0.0000   0.0000
     0.0000   0.0000   0.0000   0.0000   0.0000   0.0000   0.0000   0.0000
     0.0000   0.0000   0.0000   0.0000   0.0000   0.0000   0.0000   0.0000
     0.0000   0.0000   0.0000   0.0000   0.0000   0.0000   0.0000   0.0000
     0.0000   0.0000   0.0000   0.0000   0.0000   0.0000   0.0000   0.0000
     0.0000   0.0000   0.0000   0.0000   0.0000   0.0000   0.0000   0.0000
     0.0000   0.0000   0.0000   0.0000   0.0000   0.0000   0.0000   0.0000
     0.0000   0.0000   0.0000   0.0000   0.0000   0.0000   0.0000   0.0000
     0.0000   0.0000   0.0000   0.0000   0.0000   0.0000   0.0000   0.0000
     0.0000   0.0000   0.0000   0.0000   0.0000   0.0000   0.0000   0.0000
     0.0000   0.0000   0.0000   0.0000   0.0000   0.0000   0.0000   0.0000
     0.0000   0.0000   0.0000   0.0000   0.0000   0.0000   0.0000   0.0000
     0.0000   0.0000   0.0000   0.0000   0.0000   0.0000   0.0000   0.0000
     0.0000   0.0000   0.0000   0.0000   0.0000   0.0000   0.0000   0.0000
     0.0000   0.0000   0.0000   0.0000   0.0000   0.0000   0.0000   0.0000
     0.0000   0.0000   0.0000   0.0000   0.0000   0.0000   0.0000   0.0000
     0.0000   0.0000   0.0000   0.0000   0.0000   0.0000   0.0000   0.0000
     0.0000   0.0000   0.0000   0.0000   0.0000   0.0000   0.0000   0.0000
     0.0000   0.0000   0.0000   0.0000   0.0000   0.0000   0.0000   0.0000
     0.0000   0.0000   0.0000   0.0000   0.0000   0.0000   0.0000   0.0000
     0.0000   0.0000   0.0000   0.0000   0.0000   0.0000   0.0000   0.0000
     0.0000   0.0000   0.0000   0.0000   0.0000   0.0000   0.0000   0.0000
     0.0000   0.0000   0.0000   0.0000   0.0000   0.0000   0.0000   0.0000
     0.0000   0.0000   0.0000   0.0000   0.0000   0.0000   0.0000   0.0000
     0.0000   0.0000   0.0000   0.0000   0.0000   0.0000   0.0000   0.0000
     0.0000   0.0000   0.0000   0.0000   0.0000   0.0000   0.0000   0.0000
     0.0000   0.0000   0.0000   0.0000   0.0000   0.0000   0.0000   0.0000
     0.0000   0.0000   0.0000   0.0000   0.0000   0.0000   0.0000   0.0000
     0.0000   0.0000   0.0000   0.0000   0.0000   0.0000   0.0000   0.0000
     0.0000   0.0000   0.0000   0.0000   0.0000   0.0000   0.0000   0.0000
     0.0000   0.0000   0.0000   0.0000   0.0000   0.0000   0.0000   0.0000
     0.0000   0.0000   0.0000   0.0000   0.0000   0.0000   0.0000   0.0000
     0.0000   0.0000   0.0000   0.0000   0.0000

 ------ SPIN DOWN ----------


          k = 0.0000 0.0000 0.0000 ( 42379 PWs)   bands (ev):

    -8.2575  -7.4614  -7.2350  -7.2342  -7.2215  -7.2145  -7.1413  -6.6032
    -6.2368  -6.2342  -6.2335  -6.2309  -6.2301  -6.2228  -6.2131  -6.2032
    -6.1891  -6.1887  -6.0166  -5.4756  -5.2456  -5.2423  -5.2371  -5.2272
    -5.2211  -5.2179  -5.0801  -4.4665  -4.2443  -4.2408  -4.2235  -4.2160
    -4.1455  -3.8502  -3.3574  -3.3538  -3.3300  -3.3214  -3.3213  -3.3167
    -3.3160  -3.3140  -3.3133  -3.3113  -3.3074  -3.3061  -3.3030  -3.3005
    -3.2995  -3.2972  -3.2930  -3.2875  -3.2742  -3.2617  -3.2205  -3.2017
    -2.9895  -2.8011  -2.5647  -2.5599  -2.5414  -2.5332  -2.5320  -2.5274
    -2.5273  -2.5239  -2.5212  -2.5203  -2.5129  -2.5119  -2.5115  -2.5098
    -2.5034  -2.4996  -2.4971  -2.4865  -2.4790  -2.4705  -2.4344  -2.3758
    -1.7028  -1.0516  -0.8853  -0.8831  -0.8586  -0.8524  -0.8502  -0.8466
    -0.8375  -0.8361  -0.8075  -0.7888  -0.4682   0.3475   0.4223   0.4245
     0.4540   0.4617   0.5149   0.7049   0.8728   0.8732   0.9456   0.9541
     0.9592   0.9597   0.9626   0.9680   0.9701   0.9717   0.9719   0.9730
     0.9764   0.9808   0.9831   0.9885   0.9938   1.0024   1.0049   1.0082
     1.0094   1.0369   1.1070   1.1483   1.1582   1.1590   1.1780   1.1797
     1.1829   1.1847   1.1875   1.1903   1.1929   1.1933   1.1956   1.1995
     1.2013   1.2029   1.2061   1.2077   1.2110   1.2121   1.2122   1.3801
     1.5144   1.5412   1.9772   2.2034   2.2083   2.2146   2.2495   2.2545
     2.2634   2.2668   2.2785   2.2791   2.3700   2.4123   3.3571   3.7382
     3.7442   3.7485   3.8046   3.8230   3.8262   3.8275   3.8283   3.8314
     3.8317   3.8334   3.8370   3.8387   3.8416   3.8549   3.8571   3.9904
     3.9912   3.9962   4.0193   4.3772   4.3801   4.3982   4.4641   4.4771
     4.4772   4.4794   4.4840   4.4898   4.4949   4.4952   4.4963   4.4972
     4.4995   4.5002   4.5020   4.5030   4.5151   4.5168   4.5187   4.5352
     4.6928   4.7439   5.2573   5.2590   5.3091   5.3718   5.3719   5.3794
     5.3827   5.3827   5.3835   5.3851   5.3867   5.3900   5.3918   5.3939
     5.4037   5.4039   5.4087   5.4137   5.4240   5.4424   5.4585   5.5496
     5.5676   5.5677   5.6284   5.7774   5.7859   5.8345   5.8706   5.8716
     5.8719   5.8738   5.8768   5.8777   5.8824   5.8837   5.8853   5.8925
     5.8927   5.8984   5.9017   5.9057   5.9229   5.9297   5.9334   5.9392
     5.9461   5.9652   5.9661   6.0079   6.0143   6.2908   6.3419   6.3591
     6.8600   6.8638   6.9171   6.9331   6.9448   6.9485   7.0549   7.3976
     7.4057   7.4552   7.4772   7.4810   7.4874   7.4892   7.4970   7.5071
     7.5642   7.5757   7.7422   7.7434   7.8413   7.8623   7.8693   7.8741
     7.8764   7.8838   7.8854   7.9105   7.9365   7.9395   7.9395   8.0520
     8.0652   8.1256   8.1584   8.1649   8.1770   8.1832   8.1855   8.1856
     8.1884   8.1935   8.1957   8.1971   8.1977   8.1995   8.2128   8.2207
     8.2207   8.2239   8.2304   8.2454   8.2534   8.2581   8.2835   8.2867
     8.3232   8.3408   8.3436   8.3505   8.3552   8.3621   8.3632   8.3677
     8.3709   8.3720   8.3741   8.3757   8.3782   8.3783   8.3813   8.3815
     8.3842   8.3850   8.3872   8.3878   8.3890   8.3922   8.3932   8.3933
     8.3965   8.4035   8.4108   8.4136   8.4250   8.4548   8.4574   8.4711
     8.4714   8.4792   8.4801   8.4836   8.4873   8.5120   8.5223   8.5286
     8.5496   8.5601   8.6002   8.9499   8.9621   8.9747   9.1176   9.1213
     9.1757   9.1858   9.1921   9.2044   9.2047   9.2063   9.2071   9.2088
     9.2124   9.2173   9.2201   9.2227   9.2265   9.2315   9.2397   9.2449
     9.2619   9.2795   9.3224   9.9672  10.0724  10.1247  10.4533  10.5493
    10.5561  10.5883  10.5944  10.5990  10.6010  10.6089  10.6131  10.6227
    10.6929  10.7035  10.7049  10.7841  10.7867  10.8311  10.8390  10.8461
    10.8477  10.8500  10.8649  10.8675  10.8704  10.8728  10.8747  10.9010
    10.9044  10.9140  10.9152  10.9245  10.9422  11.5139  11.5555  11.5827
    11.7545  11.7610  11.7707  11.7851  11.7881  11.7927  11.7936  11.8056
    11.8060  11.8321  12.8948  13.0336  13.0481  13.6973  15.0991  15.6147
    17.3318  17.3421  17.3526  17.3969  17.3985  17.4221  17.8857  17.9585
    17.9657  17.9782  17.9836  18.0257  18.1004  18.1154  18.1520  18.2207
    18.2244  18.2364  18.8108  18.8140  18.8423  19.3990  19.5044  19.5073
    19.5122  19.5461  19.5485  19.5660  19.5773  19.5795  19.5911  19.5998
    19.6468  20.0327  20.2060  20.2179  20.2438  20.2450  20.2520  20.2561
    20.2599  20.2609  20.2617  20.2680  20.2691  20.2729  20.2890  20.2911
    20.2937  20.3061  20.3068  20.3582  20.3612  20.3775  20.3990  20.4075
    20.4210  20.6609  20.6780  20.6856  20.7543  20.7842  20.7857  20.7868
    20.7923  20.7926  20.7954  20.7991  20.8026  20.8255  20.8265  20.8345
    20.8378  20.8393  20.8416  20.8433  20.8441  20.8490  20.8588  20.8598
    20.8622  20.8668  20.8682  20.8756  20.8797  20.8924  20.9074  20.9133
    20.9242  20.9306  20.9356  20.9411  20.9574  21.0383  21.0441  21.0521
    21.0993  21.1010  21.1258  21.2322  21.2974  21.3038  21.3343  21.3576
    21.3638  21.3673  21.3693  21.3733  21.3797  21.3817  21.3819  21.3847
    21.3914  21.3961  21.3993  21.4056  21.4086  21.4172  21.4250  21.4300
    21.4346  21.4444  21.4501  21.4522  21.4527  21.4545  21.4625  21.4669
    21.4731  21.4747  21.4816  21.4918  21.4999  21.5064  21.6167  21.6255
    21.6338  21.6715  21.6924  21.6994  21.7017  21.7073  21.7083  21.7245
    21.7287  21.7313  21.7521  21.7726  21.7803  21.7858  21.7930  21.8252
    21.8602  21.9519  21.9606  22.0005  22.0016  22.0388  22.1418  22.1464
    22.1530  22.1919  22.1952  22.2115  22.2239  22.2364  22.2469  22.3542
    22.3688  22.3728  22.4223  22.4756  22.4831  22.4882  22.5008  22.5012
    22.6117  22.6544  22.6551  22.7536  22.8906  22.9140  22.9315  23.1325
    23.1340  23.1431  23.1489  23.1521  23.1574  23.1664  23.1676  23.1699
    23.1723  23.1774  23.1790  23.1796  23.1920  23.1998  23.2079  23.2649
    23.3045  23.3284  23.3657  23.3657  23.4112  23.4563  23.4714  23.7713
    23.8014  23.8187  23.8230  23.8388  23.8394  23.8420  23.8557  23.8622
    23.8632  23.8650  23.8752  23.8762  23.8961  23.8990  23.9090  23.9388
    23.9603  23.9718  23.9839  24.1217  24.1238  24.1943  24.2031  24.2456
    24.2557  24.2785  24.2861  24.3298  24.3306  24.3319  24.3347  24.3385
    24.3516  24.3580  24.3587  24.3637  24.3891  24.3936  24.4050  24.4221
    24.4247  24.4316  24.4328  24.4535  24.4757  24.4773  24.5032  24.5085
    24.5215  24.5248  24.5273  24.5285  24.5357  24.5433  24.5516  24.5530
    24.5625  24.5687  24.5724  24.5786  24.5993  24.6054  24.6407  24.6704
    24.7254  24.8051  24.8456  25.4331  25.4508  25.4888  25.5433  25.7941
    25.8104  25.8221  25.8379  25.8381  25.9949  26.0241  26.0247  26.0265
    26.0691  26.0790  26.1436  26.1492  26.1522  26.1590  26.2372  26.2773
    26.2792  26.4724  26.5989  26.6040  26.6082  26.6554  26.6621  26.6643
    26.6775  26.7120  26.7140  26.7229  26.7264  26.7422  26.7601  26.7701
    26.7834  26.8007  26.8124  26.8284  26.8590  26.8627  26.8733  26.9146
    26.9486  27.0874  27.0936  27.1265  27.1278  27.1519  27.1526  27.1627
    27.1822  27.1872  27.1919  27.1951  27.1972  27.1998  27.2068  27.2189
    27.2379  27.2552  27.2585  27.2617  27.2648  27.2721  27.2738  27.2793
    27.2866  27.2900  27.2918  27.3068  27.3077  27.3099  27.3226  27.3279
    27.3287  27.3427  27.3444  27.3585  27.3715  27.3820  27.3830  27.3927
    27.3936  27.4086  27.4102  27.4116  27.4165  27.4199  27.4292  27.4356
    27.4515  27.4535  27.4745  27.4780  27.4889  27.5073  27.5105  27.5326
    27.5384  27.5487  27.5554  27.5584  27.5623  27.5705  27.5852  27.5854
    27.5987  27.6080  27.6187  27.6203  27.6214  27.6274  27.6311  27.6504
    27.6789  27.6808  27.7060  27.7297  27.7473  27.7662  27.8303  27.9109
    27.9268  27.9332  27.9374  27.9971  28.0508  28.0636  28.0704  28.0729
    28.1221  28.1233  28.1437  28.2214  28.2731  28.3014  28.3326  28.3451
    28.3492  28.3691  28.3744  28.4484  28.4787  28.5552  29.6584  29.8128
    29.8139  29.8160  29.9196  29.9267  29.9688

     occupation numbers 
     1.0000   1.0000   1.0000   1.0000   1.0000   1.0000   1.0000   1.0000
     1.0000   1.0000   1.0000   1.0000   1.0000   1.0000   1.0000   1.0000
     1.0000   1.0000   1.0000   1.0000   1.0000   1.0000   1.0000   1.0000
     1.0000   1.0000   1.0000   1.0000   1.0000   1.0000   1.0000   1.0000
     1.0000   1.0000   1.0000   1.0000   1.0000   1.0000   1.0000   1.0000
     1.0000   1.0000   1.0000   1.0000   1.0000   1.0000   1.0000   1.0000
     1.0000   1.0000   1.0000   1.0000   1.0000   1.0000   1.0000   1.0000
     1.0000   1.0000   1.0000   1.0000   1.0000   1.0000   1.0000   1.0000
     1.0000   1.0000   1.0000   1.0000   1.0000   1.0000   1.0000   1.0000
     1.0000   1.0000   1.0000   1.0000   1.0000   1.0000   1.0000   1.0000
     1.0000   1.0000   1.0000   1.0000   1.0000   1.0000   1.0000   1.0000
     1.0000   1.0000   1.0000   1.0000   1.0000   1.0000   1.0000   1.0000
     1.0000   1.0000   1.0000   1.0000   1.0000   1.0000   1.0000   1.0000
     1.0000   1.0000   1.0000   1.0000   1.0000   1.0000   1.0000   1.0000
     1.0000   1.0000   1.0000   1.0000   1.0000   1.0000   1.0000   1.0000
     1.0000   1.0000   1.0000   1.0000   1.0000   1.0000   1.0000   1.0000
     1.0000   1.0000   1.0000   1.0000   1.0000   1.0000   1.0000   1.0000
     1.0000   1.0000   1.0000   1.0000   1.0000   1.0000   1.0000   1.0000
     1.0000   1.0000   1.0000   1.0000   1.0000   1.0000   1.0000   1.0000
     1.0000   1.0000   1.0000   1.0000   1.0000   1.0000   1.0000   1.0000
     1.0000   1.0000   1.0000   1.0000   1.0000   1.0000   1.0000   1.0000
     1.0000   1.0000   1.0000   1.0000   1.0000   1.0000   1.0000   1.0000
     1.0000   1.0000   1.0000   1.0000   1.0000   1.0000   1.0000   1.0000
     1.0000   1.0000   1.0000   1.0000   1.0000   1.0000   1.0000   1.0000
     1.0000   1.0000   1.0000   1.0000   1.0000   1.0000   1.0000   1.0000
     1.0000   1.0000   1.0000   1.0000   1.0000   1.0000   1.0000   1.0000
     1.0000   1.0000   1.0000   1.0000   1.0000   1.0000   1.0000   1.0000
     1.0000   1.0000   1.0000   1.0000   1.0000   1.0000   1.0000   1.0000
     1.0000   1.0000   1.0000   1.0000   1.0000   1.0000   1.0000   1.0000
     1.0000   1.0000   1.0000   1.0000   1.0000   1.0000   1.0000   1.0000
     1.0000   1.0000   1.0000   1.0000   1.0000   1.0000   1.0000   1.0000
     1.0000   1.0000   1.0000   1.0000   1.0000   1.0000   1.0000   1.0000
     1.0000   1.0000   1.0000   1.0000   1.0000   1.0000   1.0000   1.0000
     1.0000   1.0000   1.0000   1.0000   1.0000   1.0000   1.0000   1.0000
     1.0000   1.0000   1.0000   1.0000   1.0000   1.0000   1.0000   1.0000
     1.0000   1.0000   1.0000   1.0000   1.0000   1.0000   1.0000   1.0000
     1.0000   1.0000   1.0000   1.0000   1.0000   1.0000   1.0000   1.0000
     1.0000   1.0000   1.0000   1.0000   1.0000   1.0000   1.0000   1.0000
     1.0000   1.0000   1.0000   1.0000   1.0000   1.0000   1.0000   1.0000
     1.0000   1.0000   1.0000   1.0000   1.0000   1.0000   1.0000   1.0000
     1.0000   1.0000   1.0000   1.0000   1.0000   1.0000   1.0000   1.0000
     1.0000   1.0000   1.0000   1.0000   1.0000   1.0000   1.0000   1.0000
     1.0000   1.0000   1.0000   1.0000   1.0000   1.0000   1.0000   1.0000
     1.0000   1.0000   1.0000   1.0000   1.0000   1.0000   1.0000   1.0000
     1.0000   1.0000   1.0000   1.0000   1.0000   1.0000   1.0000   1.0000
     1.0000   1.0000   1.0000   1.0000   1.0000   1.0000   1.0000   1.0000
     1.0000   1.0000   1.0000   1.0000   1.0000   1.0000   1.0000   1.0000
     1.0000   1.0000   1.0000   1.0000   1.0000   1.0000   1.0000   1.0000
     1.0000   1.0000   1.0000   1.0000   1.0000   1.0000   1.0000   1.0000
     1.0000   1.0000   1.0000   1.0000   1.0000   1.0000   1.0000   1.0000
     1.0000   1.0000   1.0000   1.0000   1.0000   1.0000   1.0000   1.0000
     1.0000   1.0000   1.0000   1.0000   1.0000   1.0000   1.0000   1.0000
     1.0000   1.0000   1.0000   1.0000   1.0000   1.0000   1.0000   1.0000
     1.0000   1.0000   1.0000   1.0000   1.0000   1.0000   0.0000   0.0000
     0.0000   0.0000   0.0000   0.0000   0.0000   0.0000   0.0000   0.0000
     0.0000   0.0000   0.0000   0.0000   0.0000   0.0000   0.0000   0.0000
     0.0000   0.0000   0.0000   0.0000   0.0000   0.0000   0.0000   0.0000
     0.0000   0.0000   0.0000   0.0000   0.0000   0.0000   0.0000   0.0000
     0.0000   0.0000   0.0000   0.0000   0.0000   0.0000   0.0000   0.0000
     0.0000   0.0000   0.0000   0.0000   0.0000   0.0000   0.0000   0.0000
     0.0000   0.0000   0.0000   0.0000   0.0000   0.0000   0.0000   0.0000
     0.0000   0.0000   0.0000   0.0000   0.0000   0.0000   0.0000   0.0000
     0.0000   0.0000   0.0000   0.0000   0.0000   0.0000   0.0000   0.0000
     0.0000   0.0000   0.0000   0.0000   0.0000   0.0000   0.0000   0.0000
     0.0000   0.0000   0.0000   0.0000   0.0000   0.0000   0.0000   0.0000
     0.0000   0.0000   0.0000   0.0000   0.0000   0.0000   0.0000   0.0000
     0.0000   0.0000   0.0000   0.0000   0.0000   0.0000   0.0000   0.0000
     0.0000   0.0000   0.0000   0.0000   0.0000   0.0000   0.0000   0.0000
     0.0000   0.0000   0.0000   0.0000   0.0000   0.0000   0.0000   0.0000
     0.0000   0.0000   0.0000   0.0000   0.0000   0.0000   0.0000   0.0000
     0.0000   0.0000   0.0000   0.0000   0.0000   0.0000   0.0000   0.0000
     0.0000   0.0000   0.0000   0.0000   0.0000   0.0000   0.0000   0.0000
     0.0000   0.0000   0.0000   0.0000   0.0000   0.0000   0.0000   0.0000
     0.0000   0.0000   0.0000   0.0000   0.0000   0.0000   0.0000   0.0000
     0.0000   0.0000   0.0000   0.0000   0.0000   0.0000   0.0000   0.0000
     0.0000   0.0000   0.0000   0.0000   0.0000   0.0000   0.0000   0.0000
     0.0000   0.0000   0.0000   0.0000   0.0000   0.0000   0.0000   0.0000
     0.0000   0.0000   0.0000   0.0000   0.0000   0.0000   0.0000   0.0000
     0.0000   0.0000   0.0000   0.0000   0.0000   0.0000   0.0000   0.0000
     0.0000   0.0000   0.0000   0.0000   0.0000   0.0000   0.0000   0.0000
     0.0000   0.0000   0.0000   0.0000   0.0000   0.0000   0.0000   0.0000
     0.0000   0.0000   0.0000   0.0000   0.0000   0.0000   0.0000   0.0000
     0.0000   0.0000   0.0000   0.0000   0.0000   0.0000   0.0000   0.0000
     0.0000   0.0000   0.0000   0.0000   0.0000   0.0000   0.0000   0.0000
     0.0000   0.0000   0.0000   0.0000   0.0000   0.0000   0.0000   0.0000
     0.0000   0.0000   0.0000   0.0000   0.0000   0.0000   0.0000   0.0000
     0.0000   0.0000   0.0000   0.0000   0.0000   0.0000   0.0000   0.0000
     0.0000   0.0000   0.0000   0.0000   0.0000   0.0000   0.0000   0.0000
     0.0000   0.0000   0.0000   0.0000   0.0000   0.0000   0.0000   0.0000
     0.0000   0.0000   0.0000   0.0000   0.0000   0.0000   0.0000   0.0000
     0.0000   0.0000   0.0000   0.0000   0.0000   0.0000   0.0000   0.0000
     0.0000   0.0000   0.0000   0.0000   0.0000   0.0000   0.0000   0.0000
     0.0000   0.0000   0.0000   0.0000   0.0000   0.0000   0.0000   0.0000
     0.0000   0.0000   0.0000   0.0000   0.0000   0.0000   0.0000   0.0000
     0.0000   0.0000   0.0000   0.0000   0.0000   0.0000   0.0000   0.0000
     0.0000   0.0000   0.0000   0.0000   0.0000   0.0000   0.0000   0.0000
     0.0000   0.0000   0.0000   0.0000   0.0000   0.0000   0.0000   0.0000
     0.0000   0.0000   0.0000   0.0000   0.0000   0.0000   0.0000   0.0000
     0.0000   0.0000   0.0000   0.0000   0.0000   0.0000   0.0000   0.0000
     0.0000   0.0000   0.0000   0.0000   0.0000   0.0000   0.0000   0.0000
     0.0000   0.0000   0.0000   0.0000   0.0000   0.0000   0.0000   0.0000
     0.0000   0.0000   0.0000   0.0000   0.0000   0.0000   0.0000   0.0000
     0.0000   0.0000   0.0000   0.0000   0.0000   0.0000   0.0000   0.0000
     0.0000   0.0000   0.0000   0.0000   0.0000   0.0000   0.0000   0.0000
     0.0000   0.0000   0.0000   0.0000   0.0000   0.0000   0.0000   0.0000
     0.0000   0.0000   0.0000   0.0000   0.0000   0.0000   0.0000   0.0000
     0.0000   0.0000   0.0000   0.0000   0.0000   0.0000   0.0000   0.0000
     0.0000   0.0000   0.0000   0.0000   0.0000

     highest occupied, lowest unoccupied level (ev):    14.33419585   14.98088920

!    total energy              =   -3972.45070936 Ry
     total all-electron energy =    -16415.266312 Ry
     estimated scf accuracy    <          4.0E-09 Ry

     The total energy is the sum of the following terms:
     one-electron contribution =     883.62071170 Ry
     hartree contribution      =     218.11534605 Ry
     xc contribution           =   -1007.93543049 Ry
     ewald contribution        =   -2739.49214874 Ry
     one-center paw contrib.   =   -1326.75918788 Ry
      -> PAW hartree energy AE =      53.75399228 Ry
      -> PAW hartree energy PS =     -53.70511978 Ry
      -> PAW xc energy AE      =     -63.23326678 Ry
      -> PAW xc energy PS      =      26.20956371 Ry
      -> total E_H with PAW    =     218.16421856 Ry
      -> total E_XC with PAW   =   -1044.95913356 Ry

     total magnetization       =     1.00 Bohr mag/cell
     absolute magnetization    =     2.02 Bohr mag/cell

     convergence has been achieved in  20 iterations

     Forces acting on atoms (cartesian axes, Ry/au):

     atom    1 type  1   force =     0.00006694   -0.00003578   -0.00005813
     atom    2 type  1   force =    -0.00019545   -0.00001682    0.00004538
     atom    3 type  1   force =    -0.00007097    0.00007602    0.00002889
     atom    4 type  1   force =    -0.00004573    0.00001972    0.00019560
     atom    5 type  1   force =    -0.00012726    0.00001715    0.00012261
     atom    6 type  1   force =     0.00010946    0.00010178    0.00030987
     atom    7 type  1   force =    -0.00004754    0.00008185    0.00005188
     atom    8 type  1   force =    -0.00032023   -0.00000271   -0.00012153
     atom    9 type  1   force =    -0.00003621   -0.00004254    0.00004572
     atom   10 type  1   force =     0.00001425   -0.00002152   -0.00000889
     atom   11 type  1   force =    -0.00013495    0.00006700   -0.00008980
     atom   12 type  1   force =     0.00014789   -0.00010847   -0.00007855
     atom   13 type  1   force =     0.00006750    0.00011595    0.00011278
     atom   14 type  1   force =     0.00005002   -0.00017014   -0.00000816
     atom   15 type  1   force =    -0.00005266   -0.00003201   -0.00005304
     atom   16 type  1   force =     0.00010613   -0.00011881   -0.00012052
     atom   17 type  1   force =     0.00005838   -0.00000464    0.00006592
     atom   18 type  1   force =     0.00009500    0.00020377   -0.00014425
     atom   19 type  1   force =    -0.00008304   -0.00009861    0.00010690
     atom   20 type  1   force =     0.00011533    0.00004976    0.00006938
     atom   21 type  1   force =     0.00011714   -0.00012531   -0.00012319
     atom   22 type  1   force =    -0.00007575    0.00000346   -0.00012183
     atom   23 type  1   force =    -0.00004068    0.00019194   -0.00000571
     atom   24 type  1   force =     0.00021310    0.00000039   -0.00001398
     atom   25 type  1   force =     0.00015251   -0.00011666   -0.00008771
     atom   26 type  1   force =     0.00001951   -0.00004671   -0.00020740
     atom   27 type  1   force =     0.00015377   -0.00017765   -0.00011049
     atom   28 type  1   force =     0.00007199    0.00005634    0.00017406
     atom   29 type  1   force =    -0.00011060    0.00025865    0.00010070
     atom   30 type  1   force =     0.00011578    0.00011120    0.00018342
     atom   31 type  1   force =     0.00004944    0.00008105    0.00014568
     atom   32 type  1   force =     0.00014963    0.00000084   -0.00005357
     atom   33 type  1   force =     0.00016278    0.00022604   -0.00023674
     atom   34 type  1   force =    -0.00002062   -0.00002095   -0.00010492
     atom   35 type  1   force =    -0.00033819   -0.00000377   -0.00013668
     atom   36 type  1   force =    -0.00000557   -0.00004074   -0.00018376
     atom   37 type  1   force =    -0.00010602    0.00007897   -0.00001505
     atom   38 type  1   force =    -0.00001313    0.00012243   -0.00010501
     atom   39 type  1   force =     0.00024589   -0.00002969    0.00007240
     atom   40 type  1   force =     0.00011572   -0.00004972   -0.00012191
     atom   41 type  1   force =    -0.00001940   -0.00001774    0.00024126
     atom   42 type  1   force =    -0.00010246    0.00003772    0.00006643
     atom   43 type  1   force =     0.00005891   -0.00020039   -0.00007677
     atom   44 type  1   force =    -0.00010860   -0.00017708    0.00007707
     atom   45 type  1   force =     0.00019199   -0.00031802   -0.00012598
     atom   46 type  1   force =    -0.00006212   -0.00009499   -0.00002016
     atom   47 type  1   force =     0.00013298   -0.00003866   -0.00007178
     atom   48 type  1   force =    -0.00010704    0.00006203    0.00006147
     atom   49 type  1   force =    -0.00000473   -0.00001346    0.00000442
     atom   50 type  1   force =    -0.00000355    0.00006185   -0.00002425
     atom   51 type  1   force =    -0.00000227    0.00006792    0.00003276
     atom   52 type  1   force =     0.00008353    0.00001708    0.00006593
     atom   53 type  1   force =    -0.00006429   -0.00006468    0.00009014
     atom   54 type  1   force =     0.00001762   -0.00000570   -0.00011179
     atom   55 type  1   force =    -0.00017993   -0.00000485   -0.00007836
     atom   56 type  1   force =    -0.00015926    0.00003074   -0.00006287
     atom   57 type  1   force =     0.00010614    0.00000986    0.00002237
     atom   58 type  1   force =    -0.00016216    0.00024592    0.00004947
     atom   59 type  1   force =     0.00005464   -0.00001687   -0.00014147
     atom   60 type  1   force =     0.00012463    0.00010822    0.00032710
     atom   61 type  1   force =    -0.00019960    0.00003419   -0.00013282
     atom   62 type  1   force =     0.00018244    0.00023647   -0.00022227
     atom   63 type  1   force =     0.00018814    0.00000563    0.00000948
     atom   64 type  1   force =    -0.00000711    0.00010300    0.00008393
     atom   65 type  1   force =     0.00013325   -0.00004531   -0.00010446
     atom   66 type  1   force =     0.00012349   -0.00018472   -0.00001225
     atom   67 type  1   force =     0.00007292    0.00014338   -0.00001895
     atom   68 type  1   force =    -0.00022975   -0.00006822    0.00003021
     atom   69 type  1   force =    -0.00003579   -0.00015985    0.00014931
     atom   70 type  1   force =    -0.00005662   -0.00010345   -0.00022954
     atom   71 type  1   force =    -0.00007306    0.00004046    0.00009412
     atom   72 type  1   force =     0.00020306   -0.00031543   -0.00011498
     atom   73 type  1   force =     0.00004029   -0.00007015    0.00008214
     atom   74 type  1   force =    -0.00000077   -0.00001299    0.00000842
     atom   75 type  1   force =    -0.00006568   -0.00001919   -0.00008312
     atom   76 type  1   force =     0.00008259   -0.00005078   -0.00012218
     atom   77 type  1   force =     0.00000860    0.00006488   -0.00001188
     atom   78 type  1   force =    -0.00007391   -0.00006694    0.00008065
     atom   79 type  1   force =    -0.00007703    0.00006949    0.00009133
     atom   80 type  1   force =    -0.00004806    0.00005674   -0.00001318
     atom   81 type  1   force =     0.00011043    0.00001688   -0.00001904
     atom   82 type  1   force =     0.00009298   -0.00021901   -0.00003988
     atom   83 type  1   force =     0.00004656   -0.00003115    0.00017447
     atom   84 type  1   force =     0.00003606    0.00004685    0.00028045
     atom   85 type  1   force =    -0.00015953   -0.00008093   -0.00003251
     atom   86 type  1   force =    -0.00007022   -0.00005210    0.00008175
     atom   87 type  1   force =     0.00013106    0.00022267    0.00008174
     atom   88 type  1   force =    -0.00028166   -0.00003026   -0.00003799
     atom   89 type  1   force =    -0.00012727    0.00015987   -0.00017738
     atom   90 type  1   force =     0.00009797    0.00015281   -0.00013510
     atom   91 type  1   force =     0.00001770    0.00000559   -0.00001900
     atom   92 type  1   force =     0.00014679    0.00020269    0.00002343
     atom   93 type  1   force =    -0.00009696   -0.00004975    0.00010731
     atom   94 type  1   force =    -0.00006657    0.00015018   -0.00018919
     atom   95 type  1   force =     0.00011258   -0.00010911    0.00014860
     atom   96 type  1   force =    -0.00009465   -0.00004932    0.00010927
     atom   97 type  1   force =    -0.00011570   -0.00016332   -0.00007898
     atom   98 type  1   force =     0.00017206    0.00001399   -0.00017541
     atom   99 type  1   force =     0.00009328    0.00020690   -0.00014355
     atom  100 type  1   force =    -0.00008781    0.00002897   -0.00009738
     atom  101 type  1   force =    -0.00025756   -0.00011688   -0.00002861
     atom  102 type  1   force =     0.00008537    0.00007112    0.00007574
     atom  103 type  1   force =     0.00008683    0.00010531   -0.00011239
     atom  104 type  1   force =    -0.00001687   -0.00020992   -0.00010908
     atom  105 type  1   force =     0.00004791   -0.00004268    0.00027692
     atom  106 type  1   force =     0.00015551   -0.00016887    0.00006288
     atom  107 type  1   force =     0.00019630   -0.00026769   -0.00013125
     atom  108 type  1   force =     0.00003195   -0.00010122   -0.00000745
     atom  109 type  1   force =    -0.00013083    0.00008598    0.00017352
     atom  110 type  1   force =     0.00010299    0.00010451    0.00025310
     atom  111 type  1   force =    -0.00019253    0.00007106    0.00011156
     atom  112 type  1   force =    -0.00007709    0.00003796    0.00006785
     atom  113 type  1   force =     0.00013964    0.00021888    0.00009886
     atom  114 type  1   force =    -0.00026816    0.00001429   -0.00011755
     atom  115 type  1   force =    -0.00014527    0.00014988   -0.00018552
     atom  116 type  1   force =     0.00009742   -0.00001240   -0.00009431
     atom  117 type  1   force =     0.00001568    0.00010949   -0.00004235
     atom  118 type  1   force =     0.00005293    0.00016872   -0.00011549
     atom  119 type  1   force =     0.00017402   -0.00006451    0.00017600
     atom  120 type  1   force =     0.00007425    0.00017418   -0.00009448
     atom  121 type  1   force =    -0.00006565   -0.00009691    0.00013729
     atom  122 type  1   force =    -0.00015083   -0.00014310   -0.00014872
     atom  123 type  1   force =    -0.00011254   -0.00010866    0.00009066
     atom  124 type  1   force =     0.00017701   -0.00008939   -0.00015618
     atom  125 type  1   force =    -0.00001538    0.00010103   -0.00000939
     atom  126 type  1   force =     0.00003874    0.00008315   -0.00006177
     atom  127 type  1   force =    -0.00018087   -0.00006791   -0.00004102
     atom  128 type  1   force =     0.00004140    0.00008377   -0.00005900
     atom  129 type  1   force =    -0.00000324    0.00020429   -0.00004612
     atom  130 type  1   force =     0.00005982   -0.00014491   -0.00003103
     atom  131 type  1   force =     0.00005056   -0.00001180    0.00019025
     atom  132 type  1   force =     0.00006601   -0.00014342   -0.00002475
     atom  133 type  1   force =     0.00018479   -0.00019461   -0.00013765
     atom  134 type  1   force =     0.00000330    0.00023001    0.00005228
     atom  135 type  1   force =     0.00001198    0.00017068    0.00007141
     atom  136 type  1   force =    -0.00009313    0.00007986    0.00016927
     atom  137 type  1   force =    -0.00005680    0.00006852   -0.00012711
     atom  138 type  1   force =    -0.00010953    0.00003744   -0.00001350
     atom  139 type  1   force =     0.00009189    0.00009455   -0.00005394
     atom  140 type  1   force =    -0.00016430    0.00000670    0.00002262
     atom  141 type  1   force =    -0.00024043   -0.00000519   -0.00006421
     atom  142 type  1   force =     0.00016440   -0.00008212   -0.00013529
     atom  143 type  1   force =     0.00000123    0.00019812   -0.00011686
     atom  144 type  1   force =    -0.00019052    0.00001703    0.00007030
     atom  145 type  1   force =    -0.00001909   -0.00012844    0.00010154
     atom  146 type  1   force =     0.00006787    0.00001281   -0.00020910
     atom  147 type  1   force =    -0.00000391    0.00000505   -0.00006626
     atom  148 type  1   force =     0.00006907   -0.00035101   -0.00011931
     atom  149 type  1   force =     0.00002654    0.00000526    0.00017476
     atom  150 type  1   force =     0.00016448   -0.00011573    0.00008970
     atom  151 type  1   force =     0.00023902   -0.00032972   -0.00009842
     atom  152 type  1   force =     0.00008610   -0.00013260    0.00000537
     atom  153 type  1   force =     0.00008878   -0.00005112    0.00009741
     atom  154 type  1   force =    -0.00001712    0.00003923    0.00034560
     atom  155 type  1   force =    -0.00018633   -0.00003392    0.00001458
     atom  156 type  1   force =    -0.00009822   -0.00001699   -0.00005176
     atom  157 type  1   force =     0.00002940    0.00008618    0.00012263
     atom  158 type  1   force =    -0.00008281    0.00002784   -0.00002389
     atom  159 type  1   force =    -0.00015714    0.00006314   -0.00000878
     atom  160 type  1   force =     0.00003711    0.00016448   -0.00008333
     atom  161 type  1   force =    -0.00010518    0.00020379   -0.00005580
     atom  162 type  1   force =     0.00010572    0.00010757    0.00003568
     atom  163 type  1   force =    -0.00002800    0.00003968    0.00015842
     atom  164 type  1   force =    -0.00010948    0.00014138   -0.00005058
     atom  165 type  1   force =    -0.00000452    0.00007309    0.00009904
     atom  166 type  1   force =     0.00005664    0.00006728    0.00023296
     atom  167 type  1   force =    -0.00018773    0.00005677    0.00007643
     atom  168 type  1   force =     0.00003277    0.00007962   -0.00011366
     atom  169 type  1   force =     0.00015521   -0.00008421   -0.00014404
     atom  170 type  1   force =     0.00006666    0.00021396   -0.00005145
     atom  171 type  1   force =     0.00020239    0.00004511   -0.00007480
     atom  172 type  1   force =    -0.00017038   -0.00004255   -0.00002223
     atom  173 type  1   force =    -0.00007814    0.00004450    0.00018290
     atom  174 type  1   force =     0.00006346    0.00002099    0.00000058
     atom  175 type  1   force =    -0.00005502   -0.00016877   -0.00012987
     atom  176 type  1   force =    -0.00006888   -0.00014051    0.00005165
     atom  177 type  1   force =     0.00019939   -0.00031910    0.00001047
     atom  178 type  1   force =     0.00018003   -0.00034401   -0.00015751
     atom  179 type  1   force =     0.00002833   -0.00014648   -0.00005240
     atom  180 type  1   force =    -0.00001207    0.00000898    0.00018907
     atom  181 type  1   force =     0.00001399    0.00005134    0.00007291
     atom  182 type  1   force =    -0.00008003   -0.00009194   -0.00007121
     atom  183 type  1   force =     0.00005211    0.00001944    0.00009849
     atom  184 type  1   force =    -0.00001113    0.00009833    0.00013729
     atom  185 type  1   force =    -0.00034603   -0.00004062    0.00001678
     atom  186 type  1   force =    -0.00013848    0.00004525   -0.00004501
     atom  187 type  1   force =     0.00004308    0.00016581   -0.00007734
     atom  188 type  1   force =    -0.00002269   -0.00003159    0.00003051
     atom  189 type  1   force =     0.00016294    0.00004158    0.00023071
     atom  190 type  1   force =     0.00004906    0.00010187    0.00037929
     atom  191 type  1   force =    -0.00023078   -0.00005592   -0.00016309
     atom  192 type  1   force =     0.00005451    0.00006016   -0.00006864
     atom  193 type  1   force =     0.00008922    0.00011187    0.00012996
     atom  194 type  1   force =    -0.00039173   -0.00000491   -0.00006097
     atom  195 type  1   force =    -0.00015014    0.00005361   -0.00010939
     atom  196 type  1   force =     0.00009327    0.00013243   -0.00012551
     atom  197 type  1   force =    -0.00003096   -0.00010690    0.00005632
     atom  198 type  1   force =    -0.00000211    0.00007747    0.00011834
     atom  199 type  1   force =    -0.00012187    0.00003774    0.00018262
     atom  200 type  1   force =    -0.00013322    0.00004621   -0.00001256
     atom  201 type  1   force =     0.00016597   -0.00025590   -0.00011567
     atom  202 type  1   force =     0.00009252   -0.00018979   -0.00006825
     atom  203 type  1   force =    -0.00018995    0.00002114    0.00011475
     atom  204 type  1   force =     0.00011410   -0.00018508   -0.00004703
     atom  205 type  1   force =     0.00011974   -0.00004977   -0.00010770
     atom  206 type  1   force =     0.00010044    0.00014001   -0.00013458
     atom  207 type  1   force =     0.00004251    0.00010394   -0.00007724
     atom  208 type  1   force =    -0.00024608   -0.00003538   -0.00005470
     atom  209 type  1   force =     0.00005175    0.00010634   -0.00006795
     atom  210 type  1   force =     0.00003586    0.00003895   -0.00004506
     atom  211 type  1   force =     0.00004832   -0.00016086   -0.00008889
     atom  212 type  1   force =     0.00005438    0.00003751    0.00024552
     atom  213 type  1   force =     0.00012537   -0.00014190   -0.00001192
     atom  214 type  1   force =     0.00005393   -0.00011780   -0.00002561
     atom  215 type  2   force =    -0.00015589   -0.00010815    0.00018285
     The non-local contrib.  to forces
     atom    1 type  1   force =     0.00028207    0.00137716   -0.00061349
     atom    2 type  1   force =    -0.00244100    0.00223940   -0.00157633
     atom    3 type  1   force =     0.00040200    0.00176755   -0.00172227
     atom    4 type  1   force =     0.00093414    0.00305546    0.00179903
     atom    5 type  1   force =     0.00466485   -0.00583590   -0.00325059
     atom    6 type  1   force =     0.00272203   -0.00331461   -0.00819339
     atom    7 type  1   force =     0.00126920    0.00197584   -0.00085508
     atom    8 type  1   force =     0.00882024   -0.00183441   -0.00210138
     atom    9 type  1   force =     0.00571003    0.00777497   -0.00759742
     atom   10 type  1   force =    -0.00071977    0.00081045    0.00052468
     atom   11 type  1   force =     0.00063865   -0.00028138    0.00165066
     atom   12 type  1   force =    -0.00096767   -0.00015017   -0.00028450
     atom   13 type  1   force =    -0.00151771   -0.00080680   -0.00050636
     atom   14 type  1   force =    -0.10352243    0.17859874    0.06018359
     atom   15 type  1   force =    -0.05081324   -0.02083841   -0.01412165
     atom   16 type  1   force =     0.00028494    0.00015238    0.00096862
     atom   17 type  1   force =     0.01717618   -0.00433902    0.05388226
     atom   18 type  1   force =    -0.00079435    0.03760965   -0.00833369
     atom   19 type  1   force =     0.00057946    0.00023307   -0.00063442
     atom   20 type  1   force =    -0.00064807    0.00106035   -0.00181089
     atom   21 type  1   force =    -0.00020490   -0.00055749   -0.00132871
     atom   22 type  1   force =     0.00149029    0.00157691    0.00032832
     atom   23 type  1   force =    -0.00059308    0.00377077   -0.00032288
     atom   24 type  1   force =     0.00997769    0.00486001    0.00688405
     atom   25 type  1   force =     0.00141724   -0.00016542    0.00029244
     atom   26 type  1   force =    -0.00754835    0.00060816   -0.01064196
     atom   27 type  1   force =    -0.00285329    0.00496589    0.00164983
     atom   28 type  1   force =    -0.00116312    0.00021306    0.00101105
     atom   29 type  1   force =    -0.00819593    0.00445817   -0.00138168
     atom   30 type  1   force =    -0.00253404   -0.00630257   -0.00579759
     atom   31 type  1   force =     0.00078939    0.00057648   -0.00067731
     atom   32 type  1   force =     0.04475384   -0.03205938    0.00460145
     atom   33 type  1   force =     0.01367849    0.03706508   -0.03686827
     atom   34 type  1   force =     0.00044421    0.00067832   -0.00039256
     atom   35 type  1   force =     0.00538617    0.00406004    0.00440804
     atom   36 type  1   force =     0.00299305    0.00835372   -0.00317756
     atom   37 type  1   force =    -0.00006620   -0.00031391   -0.00099548
     atom   38 type  1   force =    -0.00025153    0.00127898   -0.00356090
     atom   39 type  1   force =     0.00710998   -0.00285037   -0.00374895
     atom   40 type  1   force =    -0.00074544    0.00022227    0.00126597
     atom   41 type  1   force =    -0.03136881   -0.01966809   -0.21055756
     atom   42 type  1   force =    -0.03672827    0.01602158    0.01944868
     atom   43 type  1   force =     0.00161061   -0.00112242   -0.00046798
     atom   44 type  1   force =     0.00116192    0.00053570    0.00693164
     atom   45 type  1   force =    -0.00465271    0.00311418    0.00334722
     atom   46 type  1   force =     0.00061104    0.00133378   -0.00017313
     atom   47 type  1   force =    -0.00050132    0.00086469   -0.00212124
     atom   48 type  1   force =     0.00083868   -0.00047489   -0.00062304
     atom   49 type  1   force =     0.00199483    0.00405923    0.00086426
     atom   50 type  1   force =     0.00289301   -0.00147399   -0.00090615
     atom   51 type  1   force =     0.00205997    0.00162647   -0.00232823
     atom   52 type  1   force =     0.00119957    0.00157572   -0.00079055
     atom   53 type  1   force =    -0.00156899    0.00128874   -0.00351472
     atom   54 type  1   force =     0.00120679    0.00264079   -0.00313954
     atom   55 type  1   force =    -0.00106420    0.00023804    0.00111019
     atom   56 type  1   force =     0.00054432    0.00052077   -0.00092262
     atom   57 type  1   force =     0.00023640    0.00062830   -0.00060068
     atom   58 type  1   force =     0.00005779    0.00645705    0.00687015
     atom   59 type  1   force =     0.00435464   -0.04184518   -0.03578138
     atom   60 type  1   force =    -0.00508240    0.00151551   -0.00606051
     atom   61 type  1   force =     0.00704730   -0.00398092    0.00378461
     atom   62 type  1   force =     0.02747012    0.04042347   -0.02308888
     atom   63 type  1   force =     0.00120316    0.00791612   -0.00496568
     atom   64 type  1   force =     0.00104016   -0.00004466    0.00011041
     atom   65 type  1   force =    -0.00130397    0.00008902    0.00070764
     atom   66 type  1   force =     0.00076620   -0.00132716   -0.00131176
     atom   67 type  1   force =     0.00315002    0.00210321   -0.00015900
     atom   68 type  1   force =     0.20827475    0.03847933    0.02908310
     atom   69 type  1   force =    -0.00682365   -0.00140424   -0.00105634
     atom   70 type  1   force =     0.00451714   -0.00347977   -0.00633902
     atom   71 type  1   force =    -0.02372068    0.01917609    0.03245390
     atom   72 type  1   force =    -0.00411728    0.00324366    0.00388107
     atom   73 type  1   force =    -0.00012703    0.00115563   -0.00091210
     atom   74 type  1   force =    -0.00174026    0.00315601   -0.00287088
     atom   75 type  1   force =     0.00043224    0.00138994   -0.00155697
     atom   76 type  1   force =     0.00184240    0.00143157    0.00022244
     atom   77 type  1   force =     0.00130839   -0.00185763   -0.00249000
     atom   78 type  1   force =     0.00306477    0.00241070    0.00112039
     atom   79 type  1   force =     0.00074161   -0.00049931   -0.00072148
     atom   80 type  1   force =     0.00193642    0.00159796   -0.00245252
     atom   81 type  1   force =     0.00246287    0.00294402   -0.00188342
     atom   82 type  1   force =    -0.00058907    0.00129924    0.00027488
     atom   83 type  1   force =     0.00044799   -0.00329203   -0.00038775
     atom   84 type  1   force =    -0.00003332    0.00066147   -0.00060858
     atom   85 type  1   force =     0.00116858   -0.00312413    0.00032744
     atom   86 type  1   force =     0.00791812   -0.00284071   -0.00723175
     atom   87 type  1   force =     0.00442508    0.00950853   -0.00128993
     atom   88 type  1   force =     0.00043598    0.00077593   -0.00013999
     atom   89 type  1   force =    -0.00086027    0.00823123   -0.00657935
     atom   90 type  1   force =     0.00149111    0.00395806   -0.00244945
     atom   91 type  1   force =     0.00304790   -0.00013860   -0.00301386
     atom   92 type  1   force =    -0.00090004   -0.00153440    0.00172894
     atom   93 type  1   force =    -0.00901432   -0.00244998    0.00286029
     atom   94 type  1   force =    -0.00134353   -0.00164523    0.00128636
     atom   95 type  1   force =    -0.00669923    0.00321293   -0.00276740
     atom   96 type  1   force =    -0.00245697   -0.00085803    0.00942087
     atom   97 type  1   force =     0.00173885    0.00526401    0.00567165
     atom   98 type  1   force =     0.00164230    0.00042662   -0.00174464
     atom   99 type  1   force =     0.00055696    0.00103965   -0.00080867
     atom  100 type  1   force =    -0.00269161    0.00273024   -0.00336084
     atom  101 type  1   force =     0.00104399    0.00035229   -0.00047884
     atom  102 type  1   force =     0.00254367    0.00399888    0.00187468
     atom  103 type  1   force =     0.00176152   -0.00124560   -0.00146063
     atom  104 type  1   force =     0.00329032    0.00106235    0.00215314
     atom  105 type  1   force =     0.00041307    0.00019987   -0.00111117
     atom  106 type  1   force =    -0.00224869   -0.00027989   -0.00338758
     atom  107 type  1   force =     0.00073193    0.00046979   -0.00084434
     atom  108 type  1   force =     0.00095360   -0.00170424   -0.00053872
     atom  109 type  1   force =     0.00345868   -0.00293183    0.00346716
     atom  110 type  1   force =    -0.00006039    0.00098087    0.00046979
     atom  111 type  1   force =    -0.00257809   -0.00440006   -0.00256878
     atom  112 type  1   force =     0.01486433   -0.00990482   -0.01247085
     atom  113 type  1   force =    -0.00785101   -0.01241936   -0.00891978
     atom  114 type  1   force =    -0.00068598    0.00082809   -0.00015739
     atom  115 type  1   force =     0.01136975   -0.00775389    0.01029772
     atom  116 type  1   force =     0.00037365    0.00379079   -0.00129302
     atom  117 type  1   force =    -0.00251724   -0.00068186    0.00268394
     atom  118 type  1   force =     0.00022345    0.00142690   -0.00051484
     atom  119 type  1   force =    -0.00313069   -0.00012623    0.00419056
     atom  120 type  1   force =     0.00016985    0.00141101   -0.00056752
     atom  121 type  1   force =    -0.01354372    0.01820972   -0.00601570
     atom  122 type  1   force =    -0.00412989   -0.00036954    0.00319184
     atom  123 type  1   force =     0.00115785    0.02178156    0.00869305
     atom  124 type  1   force =     0.00124189   -0.01418976    0.00220147
     atom  125 type  1   force =    -0.00019753   -0.00244120    0.00079151
     atom  126 type  1   force =     0.00269417   -0.00312083    0.00238605
     atom  127 type  1   force =    -0.00074376   -0.00144133   -0.00090032
     atom  128 type  1   force =    -0.00150525   -0.00414182   -0.00181387
     atom  129 type  1   force =     0.00199730    0.00340187   -0.00282436
     atom  130 type  1   force =    -0.00095899   -0.00320362   -0.00487341
     atom  131 type  1   force =     0.00119408   -0.00097162    0.00103707
     atom  132 type  1   force =     0.00546157   -0.00164372    0.00154557
     atom  133 type  1   force =     0.00428268   -0.00405846   -0.00329706
     atom  134 type  1   force =     0.00147009    0.00051552   -0.00164269
     atom  135 type  1   force =     0.00390711   -0.02370972    0.00759568
     atom  136 type  1   force =     0.01012078    0.00211830   -0.00960938
     atom  137 type  1   force =    -0.00129774    0.00023143    0.00045709
     atom  138 type  1   force =     0.21407373    0.01103385    0.03138555
     atom  139 type  1   force =    -0.01904989    0.01621207   -0.00114299
     atom  140 type  1   force =     0.00097116    0.00067090   -0.00216285
     atom  141 type  1   force =     0.00079155    0.00158285    0.00155133
     atom  142 type  1   force =    -0.00336812    0.00213737    0.00209657
     atom  143 type  1   force =    -0.00257659   -0.00262557    0.00125563
     atom  144 type  1   force =     0.00100916   -0.02906755    0.02252317
     atom  145 type  1   force =    -0.00410480   -0.00146263    0.00153732
     atom  146 type  1   force =     0.00129436    0.00180481    0.00076187
     atom  147 type  1   force =     0.00536719   -0.00372365    0.01541913
     atom  148 type  1   force =     0.01183792   -0.00908983   -0.00428572
     atom  149 type  1   force =    -0.00030752   -0.00187806    0.00262002
     atom  150 type  1   force =    -0.00165650    0.00157681    0.00127112
     atom  151 type  1   force =     0.00168928   -0.00520459   -0.00206089
     atom  152 type  1   force =     0.00030007   -0.00392679   -0.00071550
     atom  153 type  1   force =     0.00197403   -0.00255253   -0.00217692
     atom  154 type  1   force =    -0.00115095   -0.00025877   -0.00132000
     atom  155 type  1   force =    -0.00039345    0.00079276   -0.00043805
     atom  156 type  1   force =     0.00532005    0.00061667   -0.00061809
     atom  157 type  1   force =     0.00110958    0.00001036   -0.00407017
     atom  158 type  1   force =     0.00011467   -0.00119314    0.00023381
     atom  159 type  1   force =     0.00469428   -0.00359408    0.00388219
     atom  160 type  1   force =     0.00151475    0.00010048   -0.00103999
     atom  161 type  1   force =     0.00151659    0.00052854   -0.00159647
     atom  162 type  1   force =    -0.00053510    0.00041967    0.00121890
     atom  163 type  1   force =     0.00197272    0.00091363   -0.00116073
     atom  164 type  1   force =    -0.00168229   -0.02507068    0.00201245
     atom  165 type  1   force =    -0.02697419   -0.04744634   -0.20966651
     atom  166 type  1   force =    -0.00185621    0.00093675   -0.00109726
     atom  167 type  1   force =     0.00912827    0.00187758   -0.01060410
     atom  168 type  1   force =    -0.00326093    0.02004766    0.01465096
     atom  169 type  1   force =    -0.00263549    0.00231375    0.00282915
     atom  170 type  1   force =    -0.00067443   -0.00216310    0.00315801
     atom  171 type  1   force =    -0.00112895    0.00121851   -0.00166178
     atom  172 type  1   force =    -0.00210955   -0.00231570    0.00081793
     atom  173 type  1   force =    -0.01500022   -0.03295348    0.00651463
     atom  174 type  1   force =    -0.01394767   -0.00841167   -0.00389562
     atom  175 type  1   force =    -0.00165376    0.00157505    0.00127287
     atom  176 type  1   force =    -0.00126640   -0.00077312    0.00437500
     atom  177 type  1   force =     0.00664397   -0.01035025   -0.00948196
     atom  178 type  1   force =     0.00327830   -0.00481959   -0.00047190
     atom  179 type  1   force =     0.00162932   -0.00360262    0.00061409
     atom  180 type  1   force =     0.00022683    0.00094627    0.00018447
     atom  181 type  1   force =     0.00005924   -0.00120702    0.00017822
     atom  182 type  1   force =     0.00277132   -0.00236018   -0.00138070
     atom  183 type  1   force =     0.00060376   -0.00052786   -0.00533287
     atom  184 type  1   force =    -0.00278968   -0.00541294   -0.00359982
     atom  185 type  1   force =     0.00131311    0.00033958    0.00114118
     atom  186 type  1   force =     0.00398226    0.00070869   -0.00119834
     atom  187 type  1   force =     0.00103112   -0.00001809   -0.00152325
     atom  188 type  1   force =     0.00116009   -0.00521532    0.00010465
     atom  189 type  1   force =    -0.00538000    0.00649021   -0.00663745
     atom  190 type  1   force =     0.00021040   -0.00111989   -0.00033650
     atom  191 type  1   force =     0.00476876    0.00894905    0.00350561
     atom  192 type  1   force =     0.01126253    0.00338306   -0.01209239
     atom  193 type  1   force =    -0.00190183    0.00048539   -0.00172550
     atom  194 type  1   force =     0.00059979   -0.00102374    0.00005111
     atom  195 type  1   force =     0.00150710    0.00131590    0.00168370
     atom  196 type  1   force =     0.00013660    0.00102734   -0.00038402
     atom  197 type  1   force =    -0.02018163   -0.02182299    0.02547619
     atom  198 type  1   force =    -0.01607764   -0.01142581    0.01084130
     atom  199 type  1   force =    -0.00144309    0.00110185   -0.00039075
     atom  200 type  1   force =    -0.00830112   -0.00954330    0.01862341
     atom  201 type  1   force =    -0.05884616    0.06712875    0.04254771
     atom  202 type  1   force =    -0.00173470    0.00316478    0.00354083
     atom  203 type  1   force =     0.00007823    0.00147296    0.00113147
     atom  204 type  1   force =    -0.00423630    0.00256081    0.00104072
     atom  205 type  1   force =    -0.00220292   -0.00303245    0.00294060
     atom  206 type  1   force =     0.00046763   -0.00403796    0.00051176
     atom  207 type  1   force =    -0.00097619    0.00274474   -0.00326402
     atom  208 type  1   force =    -0.00226638   -0.00242783   -0.00061193
     atom  209 type  1   force =     0.00249542    0.00358650    0.00020626
     atom  210 type  1   force =     0.00303269    0.00141746   -0.00337774
     atom  211 type  1   force =     0.00360628   -0.00267326   -0.00225245
     atom  212 type  1   force =     0.00110237   -0.00160888    0.00275640
     atom  213 type  1   force =     0.00292155   -0.00283797   -0.00293843
     atom  214 type  1   force =     0.00134512   -0.00294519   -0.00062822
     atom  215 type  2   force =    -0.40216898   -1.04033490    0.65459830
     The ionic contribution  to forces
     atom    1 type  1   force =    -0.01462169    0.00006239    0.01460697
     atom    2 type  1   force =    -0.10694358    0.06460836   -0.00526179
     atom    3 type  1   force =    -0.00925456   -0.03181372    0.05650355
     atom    4 type  1   force =    -0.01317507    0.08735928    0.08850645
     atom    5 type  1   force =    -0.23408431    0.27999887    0.16614466
     atom    6 type  1   force =     0.03713614    0.01642710    0.29805423
     atom    7 type  1   force =    -0.04765279   -0.04113020    0.01810425
     atom    8 type  1   force =    -0.29234149   -0.06351616   -0.03142386
     atom    9 type  1   force =    -0.12899260   -0.22500523    0.18358917
     atom   10 type  1   force =     0.01501288   -0.04628317   -0.00378226
     atom   11 type  1   force =    -0.06021746    0.00310444   -0.12661581
     atom   12 type  1   force =     0.03355031   -0.07237557    0.02903583
     atom   13 type  1   force =     0.12054086    0.04696318    0.05414289
     atom   14 type  1   force =     0.82669329    0.44525090   -0.93472979
     atom   15 type  1   force =     0.52383874    0.15413973    0.94712135
     atom   16 type  1   force =    -0.01018651   -0.08298698   -0.01470113
     atom   17 type  1   force =    -0.94139309   -0.20138227   -0.51810794
     atom   18 type  1   force =     0.33112867   -1.05401244   -0.07538030
     atom   19 type  1   force =     0.02066467   -0.02881049   -0.01367380
     atom   20 type  1   force =    -0.06798327   -0.01722842   -0.09780303
     atom   21 type  1   force =     0.05008154   -0.04017796   -0.02679717
     atom   22 type  1   force =     0.09712189    0.02283241    0.06730320
     atom   23 type  1   force =    -0.08412818    0.17101587    0.04263255
     atom   24 type  1   force =     0.31594100    0.13570085    0.00861080
     atom   25 type  1   force =     0.03693314   -0.04336754   -0.03994533
     atom   26 type  1   force =    -0.03131544    0.05144317   -0.33864640
     atom   27 type  1   force =     0.14530863   -0.20271740   -0.09612002
     atom   28 type  1   force =     0.03039656    0.06471798    0.04615472
     atom   29 type  1   force =    -0.07490308    0.33574547    0.01699850
     atom   30 type  1   force =     0.10499991    0.06044326    0.23343271
     atom   31 type  1   force =    -0.01842413    0.00541894    0.04786718
     atom   32 type  1   force =    -1.12158928    0.33804031   -0.07272537
     atom   33 type  1   force =     0.15373666   -0.22359548    1.16642521
     atom   34 type  1   force =    -0.03852414   -0.07453466   -0.01375367
     atom   35 type  1   force =    -0.25666173   -0.09169491   -0.09650440
     atom   36 type  1   force =    -0.09723383   -0.27015363    0.03764174
     atom   37 type  1   force =     0.08793870   -0.00694372    0.03631387
     atom   38 type  1   force =    -0.03181424    0.01385602   -0.15481417
     atom   39 type  1   force =     0.26738355    0.12535494    0.02730243
     atom   40 type  1   force =     0.12790946   -0.00406620    0.02773001
     atom   41 type  1   force =     0.52021384    1.18464189    0.07363206
     atom   42 type  1   force =     0.93512475   -0.54979731   -0.11250594
     atom   43 type  1   force =     0.00117281   -0.08825427   -0.07046972
     atom   44 type  1   force =    -0.13554063   -0.13106097   -0.28221364
     atom   45 type  1   force =     0.07253443   -0.27585811   -0.07467351
     atom   46 type  1   force =     0.01907061    0.03601072    0.04687684
     atom   47 type  1   force =    -0.08982159    0.10707464    0.03638476
     atom   48 type  1   force =     0.05363331    0.04878849    0.06737539
     atom   49 type  1   force =     0.02740727    0.02973082    0.05730479
     atom   50 type  1   force =    -0.10945584    0.11181226    0.01794009
     atom   51 type  1   force =     0.05016533   -0.03182921    0.06756884
     atom   52 type  1   force =    -0.01681375   -0.04092998   -0.01865396
     atom   53 type  1   force =    -0.09957103   -0.03189253   -0.11213647
     atom   54 type  1   force =    -0.01203819   -0.10632815   -0.00836556
     atom   55 type  1   force =    -0.05922016    0.04297391   -0.04346206
     atom   56 type  1   force =    -0.04830267   -0.00183049    0.01798902
     atom   57 type  1   force =     0.02982765   -0.05795090    0.05459835
     atom   58 type  1   force =    -0.09779032    0.33019070   -0.00589081
     atom   59 type  1   force =    -0.04110483    0.60020990    1.00775869
     atom   60 type  1   force =     0.10801854   -0.00321043    0.26817540
     atom   61 type  1   force =    -0.23800198   -0.02278168   -0.10956856
     atom   62 type  1   force =    -1.07597483   -0.52197366   -0.06328233
     atom   63 type  1   force =     0.02433104   -0.24065739    0.15920690
     atom   64 type  1   force =    -0.03112473   -0.03583268   -0.08274997
     atom   65 type  1   force =    -0.02232125   -0.04051835   -0.12250116
     atom   66 type  1   force =     0.08929042   -0.06687417    0.01764801
     atom   67 type  1   force =     0.14621038    0.05705240    0.02321111
     atom   68 type  1   force =    -0.33587482    0.97691956   -0.78245558
     atom   69 type  1   force =     0.30115836   -0.02510111    0.15448666
     atom   70 type  1   force =    -0.04842252    0.04872951   -0.28850275
     atom   71 type  1   force =     0.26561901   -0.71224686   -0.78201532
     atom   72 type  1   force =     0.13963363   -0.25957703   -0.00757431
     atom   73 type  1   force =    -0.05347861    0.01840759   -0.02567260
     atom   74 type  1   force =    -0.06189054    0.00806446   -0.03199284
     atom   75 type  1   force =     0.02728764   -0.03022964    0.02544761
     atom   76 type  1   force =    -0.06315089    0.11354569    0.06305500
     atom   77 type  1   force =    -0.04691217    0.12698766    0.08048435
     atom   78 type  1   force =     0.11359959    0.01982990    0.10103474
     atom   79 type  1   force =    -0.07541441    0.01747717   -0.06167280
     atom   80 type  1   force =    -0.05669949   -0.05775814   -0.03929646
     atom   81 type  1   force =     0.03284479   -0.09543766    0.03651751
     atom   82 type  1   force =    -0.07373541    0.14170597    0.03935129
     atom   83 type  1   force =    -0.04327616    0.13513027    0.16392513
     atom   84 type  1   force =     0.04876812    0.01999702    0.10308279
     atom   85 type  1   force =    -0.19232582    0.09896320    0.01487411
     atom   86 type  1   force =    -0.32866625   -0.00660859    0.33026863
     atom   87 type  1   force =     0.04855764   -0.02577071    0.17992434
     atom   88 type  1   force =    -0.10345340   -0.01693688   -0.04913902
     atom   89 type  1   force =    -0.16731635   -0.07814938   -0.03594970
     atom   90 type  1   force =    -0.01837268   -0.10977702    0.04501027
     atom   91 type  1   force =     0.09304792    0.06520495   -0.10887035
     atom   92 type  1   force =     0.12619122    0.26677657   -0.07703819
     atom   93 type  1   force =     0.09177029    0.00079756    0.15953262
     atom   94 type  1   force =     0.01556181    0.23993451   -0.18766646
     atom   95 type  1   force =     0.27910193   -0.25783004    0.30593158
     atom   96 type  1   force =    -0.15253487   -0.05847916   -0.08477141
     atom   97 type  1   force =    -0.22843171   -0.38097747   -0.20160168
     atom   98 type  1   force =     0.05684444   -0.19362785   -0.00986126
     atom   99 type  1   force =    -0.01265656    0.02922740    0.00556430
     atom  100 type  1   force =    -0.04543967    0.12563158   -0.07593343
     atom  101 type  1   force =     0.13598062    0.01387995    0.05186956
     atom  102 type  1   force =     0.04285043    0.14705492    0.01235660
     atom  103 type  1   force =     0.13273025    0.21888886   -0.18584185
     atom  104 type  1   force =     0.21109974   -0.08896715    0.03808822
     atom  105 type  1   force =    -0.04976930   -0.03118948   -0.13388150
     atom  106 type  1   force =    -0.00999303   -0.14261198   -0.18300540
     atom  107 type  1   force =     0.04678672   -0.10837237   -0.02049010
     atom  108 type  1   force =    -0.00450254    0.04129220   -0.00551706
     atom  109 type  1   force =    -0.01650036    0.11687814    0.11171261
     atom  110 type  1   force =     0.04420143   -0.01470362    0.10820758
     atom  111 type  1   force =    -0.13653856    0.08775138   -0.00832614
     atom  112 type  1   force =    -0.54371892    0.32927738    0.46382096
     atom  113 type  1   force =     0.07890358   -0.03783595    0.39733447
     atom  114 type  1   force =    -0.10038310   -0.04978489   -0.03637718
     atom  115 type  1   force =    -0.37479937   -0.14792148   -0.05636705
     atom  116 type  1   force =    -0.06869393   -0.25447888    0.13044217
     atom  117 type  1   force =     0.00094442   -0.02197801    0.00438784
     atom  118 type  1   force =     0.01038618    0.09405882   -0.15126493
     atom  119 type  1   force =     0.11356621    0.01396865    0.13099960
     atom  120 type  1   force =     0.12506622    0.12188500   -0.03658476
     atom  121 type  1   force =     0.64125237   -0.17791395    0.40381513
     atom  122 type  1   force =    -0.12729832   -0.04447365   -0.10986446
     atom  123 type  1   force =    -0.33199734   -0.41406303   -0.56943481
     atom  124 type  1   force =     0.14271075   -0.42308127   -0.04005260
     atom  125 type  1   force =    -0.01635837   -0.02909009    0.02341632
     atom  126 type  1   force =    -0.03566169    0.00236515    0.00815607
     atom  127 type  1   force =     0.05112166   -0.01088689    0.02855736
     atom  128 type  1   force =    -0.00950080    0.00871236    0.03431726
     atom  129 type  1   force =    -0.02476658    0.19793591   -0.02326081
     atom  130 type  1   force =     0.16808652   -0.05438358    0.01261168
     atom  131 type  1   force =    -0.02371271   -0.02904406   -0.04627708
     atom  132 type  1   force =     0.00537379   -0.09386306   -0.15010106
     atom  133 type  1   force =     0.06244936   -0.16048013   -0.02350947
     atom  134 type  1   force =     0.07141956    0.14795757   -0.03639982
     atom  135 type  1   force =     0.26058093    0.74946554    0.03895059
     atom  136 type  1   force =     0.17718976    0.06641537    0.35854118
     atom  137 type  1   force =    -0.13179295    0.04315246   -0.09592116
     atom  138 type  1   force =    -3.63473995   -0.55687675   -0.80500184
     atom  139 type  1   force =     0.20147536   -0.63138524    0.53864064
     atom  140 type  1   force =    -0.03742528   -0.03239351   -0.05854995
     atom  141 type  1   force =    -0.15265286   -0.08947085   -0.09414146
     atom  142 type  1   force =     0.00309130   -0.17533787    0.05427107
     atom  143 type  1   force =     0.03597556   -0.02333989    0.05708664
     atom  144 type  1   force =    -0.19160789    0.10636473   -0.08490316
     atom  145 type  1   force =     0.22280257    0.07034176    0.05415803
     atom  146 type  1   force =     0.05859454    0.07124924   -0.07439363
     atom  147 type  1   force =     0.36068659    0.28408033   -0.59317386
     atom  148 type  1   force =     0.31619481   -0.40700963   -0.11403188
     atom  149 type  1   force =    -0.03659729   -0.06120701   -0.03914179
     atom  150 type  1   force =    -0.04762200   -0.10161603   -0.16334890
     atom  151 type  1   force =     0.05957618   -0.12629356   -0.01738353
     atom  152 type  1   force =    -0.03812702    0.03669324    0.04088617
     atom  153 type  1   force =    -0.08156021    0.13762393    0.14916901
     atom  154 type  1   force =     0.05407516    0.01445737    0.12522715
     atom  155 type  1   force =    -0.09146073    0.00046821   -0.00595478
     atom  156 type  1   force =    -0.21858250   -0.00842066    0.05139909
     atom  157 type  1   force =     0.00368484   -0.11785929    0.14322119
     atom  158 type  1   force =    -0.03537496   -0.03238510   -0.00890570
     atom  159 type  1   force =    -0.04770088   -0.05681131    0.00651646
     atom  160 type  1   force =    -0.00551465   -0.08985423    0.03318908
     atom  161 type  1   force =     0.00252643    0.13124291   -0.10529318
     atom  162 type  1   force =     0.07923904    0.09435684    0.11511093
     atom  163 type  1   force =     0.06344113   -0.00792004    0.04231687
     atom  164 type  1   force =    -0.20703879    0.63600368   -0.42866600
     atom  165 type  1   force =     0.80930370    0.52142622    3.63904455
     atom  166 type  1   force =     0.10817329   -0.02618513    0.16668400
     atom  167 type  1   force =    -0.35887567   -0.06365405   -0.17752485
     atom  168 type  1   force =    -0.36865800   -0.76972377   -0.03148980
     atom  169 type  1   force =    -0.01130243   -0.17883036    0.03987772
     atom  170 type  1   force =    -0.04892492   -0.04393954   -0.02781413
     atom  171 type  1   force =     0.05714877    0.07089814   -0.07584040
     atom  172 type  1   force =     0.05140268   -0.03985532    0.04885822
     atom  173 type  1   force =     0.05192478    0.16545626    0.15862969
     atom  174 type  1   force =     0.51956832    0.32263008   -0.43429221
     atom  175 type  1   force =     0.18126765   -0.04607910    0.06554069
     atom  176 type  1   force =    -0.06281768    0.00104013   -0.23146198
     atom  177 type  1   force =     0.21574743   -0.43138255   -0.21447941
     atom  178 type  1   force =     0.04835825   -0.12901499   -0.02860106
     atom  179 type  1   force =    -0.04945689    0.03394488    0.02955653
     atom  180 type  1   force =     0.00305907    0.02340187    0.08856596
     atom  181 type  1   force =     0.01527271   -0.02009654    0.04174158
     atom  182 type  1   force =    -0.17967551    0.11381758    0.05105423
     atom  183 type  1   force =    -0.05419480    0.03146582    0.21578753
     atom  184 type  1   force =     0.00569641   -0.04385614    0.05991353
     atom  185 type  1   force =    -0.12350776   -0.02863018   -0.05235601
     atom  186 type  1   force =    -0.11124039   -0.14574421    0.02829618
     atom  187 type  1   force =    -0.01121817   -0.09123805    0.02748547
     atom  188 type  1   force =    -0.08257325    0.23861743    0.02467412
     atom  189 type  1   force =     0.10196933    0.12375750    0.46871180
     atom  190 type  1   force =     0.04098216    0.02623296    0.08615225
     atom  191 type  1   force =    -0.48156228   -0.01782900   -0.11482052
     atom  192 type  1   force =    -0.53543712   -0.35751040    0.62218343
     atom  193 type  1   force =    -0.02111085   -0.10025881    0.11905789
     atom  194 type  1   force =    -0.08870080   -0.00523191   -0.04353011
     atom  195 type  1   force =    -0.09262566   -0.11761038    0.04754334
     atom  196 type  1   force =    -0.00257202   -0.07970642    0.02191268
     atom  197 type  1   force =     0.14004138   -0.06039800   -0.12538784
     atom  198 type  1   force =     0.41811595    0.66389649    0.09292858
     atom  199 type  1   force =     0.15871551    0.01417831    0.12839225
     atom  200 type  1   force =    -0.23479798    0.50547374   -0.55998575
     atom  201 type  1   force =     1.85837607   -3.03276644   -1.12249967
     atom  202 type  1   force =     0.12791688   -0.15515821    0.06117970
     atom  203 type  1   force =    -0.12352532   -0.05430328   -0.15384747
     atom  204 type  1   force =    -0.01919969   -0.19085563   -0.08593799
     atom  205 type  1   force =    -0.00722164   -0.09945255    0.03135357
     atom  206 type  1   force =    -0.06272820    0.03417741    0.05443434
     atom  207 type  1   force =     0.05452552    0.14696159    0.00335770
     atom  208 type  1   force =     0.06039720   -0.01977550    0.05904422
     atom  209 type  1   force =    -0.03634191    0.12491453   -0.08751049
     atom  210 type  1   force =     0.11978310   -0.05755872   -0.10581620
     atom  211 type  1   force =     0.07250329   -0.08735142    0.00742791
     atom  212 type  1   force =    -0.05096801   -0.04679607   -0.05232121
     atom  213 type  1   force =     0.01544763   -0.10119600   -0.04962805
     atom  214 type  1   force =     0.01188692   -0.06947400    0.00497063
     atom  215 type  2   force =     1.64285301    4.37223855   -2.70373517
     The local contribution  to forces
     atom    1 type  1   force =     0.01439626   -0.00139208   -0.01405312
     atom    2 type  1   force =     0.10907154   -0.06676194    0.00679382
     atom    3 type  1   force =     0.00877909    0.03017651   -0.05479966
     atom    4 type  1   force =     0.01225734   -0.09025849   -0.09002087
     atom    5 type  1   force =     0.22936407   -0.27417384   -0.16284516
     atom    6 type  1   force =    -0.03969327   -0.01308562   -0.28963814
     atom    7 type  1   force =     0.04637202    0.03929304   -0.01720449
     atom    8 type  1   force =     0.28331780    0.06528746    0.03335232
     atom    9 type  1   force =     0.12335349    0.21730983   -0.17608775
     atom   10 type  1   force =    -0.01429274    0.04549323    0.00325875
     atom   11 type  1   force =     0.05942561   -0.00275240    0.12489194
     atom   12 type  1   force =    -0.03247783    0.07239056   -0.02884860
     atom   13 type  1   force =    -0.11896966   -0.04604509   -0.05350367
     atom   14 type  1   force =    -0.72484521   -0.62016729    0.87531350
     atom   15 type  1   force =    -0.47468029   -0.13396272   -0.93311015
     atom   16 type  1   force =     0.01003485    0.08269912    0.01366411
     atom   17 type  1   force =     0.92442624    0.20552128    0.46603448
     atom   18 type  1   force =    -0.32991363    1.01780013    0.08294515
     atom   19 type  1   force =    -0.02129168    0.02854119    0.01437413
     atom   20 type  1   force =     0.06870811    0.01632591    0.09960903
     atom   21 type  1   force =    -0.04977036    0.04062740    0.02798804
     atom   22 type  1   force =    -0.09864235   -0.02428627   -0.06774205
     atom   23 type  1   force =     0.08471392   -0.17437730   -0.04240531
     atom   24 type  1   force =    -0.32544272   -0.14036210   -0.01526764
     atom   25 type  1   force =    -0.03818495    0.04343273    0.03957242
     atom   26 type  1   force =     0.03860502   -0.05202771    0.34878113
     atom   27 type  1   force =    -0.14244593    0.19770477    0.09447374
     atom   28 type  1   force =    -0.02919248   -0.06484764   -0.04693461
     atom   29 type  1   force =     0.08270568   -0.33976467   -0.01559203
     atom   30 type  1   force =    -0.10238359   -0.05414558   -0.22751461
     atom   31 type  1   force =     0.01773773   -0.00592383   -0.04700914
     atom   32 type  1   force =     1.07773431   -0.30674347    0.06811562
     atom   33 type  1   force =    -0.16661372    0.18797581   -1.13051178
     atom   34 type  1   force =     0.03805985    0.07386432    0.01404401
     atom   35 type  1   force =     0.25092065    0.08767188    0.09202067
     atom   36 type  1   force =     0.09427912    0.26192981   -0.03472923
     atom   37 type  1   force =    -0.08796635    0.00738865   -0.03538228
     atom   38 type  1   force =     0.03208487   -0.01483731    0.15814413
     atom   39 type  1   force =    -0.27402328   -0.12260348   -0.02362502
     atom   40 type  1   force =    -0.12706105    0.00381438   -0.02907938
     atom   41 type  1   force =    -0.48919233   -1.16483938    0.13282332
     atom   42 type  1   force =    -0.89947539    0.53379690    0.09360103
     atom   43 type  1   force =    -0.00265124    0.08917417    0.07082697
     atom   44 type  1   force =     0.13427202    0.13037549    0.27550710
     atom   45 type  1   force =    -0.06778520    0.27250088    0.07130667
     atom   46 type  1   force =    -0.01971801   -0.03732374   -0.04671744
     atom   47 type  1   force =     0.09043028   -0.10787071   -0.03442835
     atom   48 type  1   force =    -0.05455905   -0.04823226   -0.06669844
     atom   49 type  1   force =    -0.02933509   -0.03363087   -0.05811265
     atom   50 type  1   force =     0.10660877   -0.11027360   -0.01708916
     atom   51 type  1   force =    -0.05222640    0.03032227   -0.06520914
     atom   52 type  1   force =     0.01571360    0.03944201    0.01948448
     atom   53 type  1   force =     0.10097495    0.03063195    0.11563045
     atom   54 type  1   force =     0.01084897    0.10376828    0.01134666
     atom   55 type  1   force =     0.06004574   -0.04319295    0.04230348
     atom   56 type  1   force =     0.04756868    0.00132533   -0.01717880
     atom   57 type  1   force =    -0.02996060    0.05736128   -0.05397639
     atom   58 type  1   force =     0.09759264   -0.33615713   -0.00070158
     atom   59 type  1   force =     0.03692321   -0.55925752   -0.97267758
     atom   60 type  1   force =    -0.10286959    0.00181730   -0.26176224
     atom   61 type  1   force =     0.23085886    0.02670087    0.10572018
     atom   62 type  1   force =     1.04910620    0.48298839    0.08518446
     atom   63 type  1   force =    -0.02530436    0.23290739   -0.15431425
     atom   64 type  1   force =     0.03011807    0.03604238    0.08270101
     atom   65 type  1   force =     0.02371297    0.04040548    0.12169540
     atom   66 type  1   force =    -0.08989251    0.06800751   -0.01641289
     atom   67 type  1   force =    -0.14920683   -0.05883081   -0.02314670
     atom   68 type  1   force =     0.13154292   -1.01421903    0.75354513
     atom   69 type  1   force =    -0.29451583    0.02632649   -0.15328574
     atom   70 type  1   force =     0.04401085   -0.04544167    0.29441093
     atom   71 type  1   force =    -0.24247463    0.69322213    0.75062093
     atom   72 type  1   force =    -0.13543256    0.25608249    0.00365815
     atom   73 type  1   force =     0.05361792   -0.01952628    0.02662020
     atom   74 type  1   force =     0.06353749   -0.01108908    0.03475996
     atom   75 type  1   force =    -0.02776859    0.02889282   -0.02399959
     atom   76 type  1   force =     0.06145564   -0.11490509   -0.06340334
     atom   77 type  1   force =     0.04563418   -0.12506610   -0.07806040
     atom   78 type  1   force =    -0.11665604   -0.02217885   -0.10200084
     atom   79 type  1   force =     0.07459906   -0.01689631    0.06245979
     atom   80 type  1   force =     0.05470129    0.05626950    0.04171471
     atom   81 type  1   force =    -0.03516935    0.09259785   -0.03467068
     atom   82 type  1   force =     0.07439628   -0.14313227   -0.03966408
     atom   83 type  1   force =     0.04287192   -0.13191960   -0.16341895
     atom   84 type  1   force =    -0.04869051   -0.02055336   -0.10218614
     atom   85 type  1   force =     0.19106738   -0.09596771   -0.01522568
     atom   86 type  1   force =     0.32087516    0.00930959   -0.32315102
     atom   87 type  1   force =    -0.05271088    0.01675735   -0.17851167
     atom   88 type  1   force =     0.10271945    0.01618584    0.04922462
     atom   89 type  1   force =     0.16795143    0.07030805    0.04214572
     atom   90 type  1   force =     0.01699863    0.10607447   -0.04273305
     atom   91 type  1   force =    -0.09595476   -0.06502288    0.11173462
     atom   92 type  1   force =    -0.12524151   -0.26520725    0.07524696
     atom   93 type  1   force =    -0.08310722    0.00155332   -0.16216835
     atom   94 type  1   force =    -0.01416614   -0.23827370    0.18632993
     atom   95 type  1   force =    -0.27243561    0.25454194   -0.30303555
     atom   96 type  1   force =     0.15479418    0.05927836    0.07573261
     atom   97 type  1   force =     0.22657837    0.37564339    0.19598821
     atom   98 type  1   force =    -0.05823503    0.19325208    0.01134771
     atom   99 type  1   force =     0.01222081   -0.02992513   -0.00495593
     atom  100 type  1   force =     0.04794105   -0.12817128    0.07906932
     atom  101 type  1   force =    -0.13724541   -0.01428730   -0.05142690
     atom  102 type  1   force =    -0.04522811   -0.15078389   -0.01410067
     atom  103 type  1   force =    -0.13455601   -0.21750521    0.18732697
     atom  104 type  1   force =    -0.21438857    0.08778205   -0.04025421
     atom  105 type  1   force =     0.04940163    0.03100176    0.13521998
     atom  106 type  1   force =     0.01228120    0.14278682    0.18641548
     atom  107 type  1   force =    -0.04730936    0.10768016    0.02118720
     atom  108 type  1   force =     0.00367939   -0.03986500    0.00599808
     atom  109 type  1   force =     0.01311296   -0.11418035   -0.11507406
     atom  110 type  1   force =    -0.04401160    0.01378017   -0.10831360
     atom  111 type  1   force =     0.13907258   -0.08362652    0.01088340
     atom  112 type  1   force =     0.52950458   -0.32005305   -0.45186180
     atom  113 type  1   force =    -0.07102906    0.04987915   -0.38781780
     atom  114 type  1   force =     0.10071212    0.04889281    0.03641223
     atom  115 type  1   force =     0.36295258    0.15519555    0.04614107
     atom  116 type  1   force =     0.06839798    0.25063500   -0.12921182
     atom  117 type  1   force =     0.00154924    0.02294986   -0.00711388
     atom  118 type  1   force =    -0.01047270   -0.09513141    0.15152847
     atom  119 type  1   force =    -0.11047547   -0.01392544   -0.13495594
     atom  120 type  1   force =    -0.12507164   -0.12294475    0.03692992
     atom  121 type  1   force =    -0.62818876    0.15994250   -0.39759646
     atom  122 type  1   force =     0.13122370    0.04471785    0.10674391
     atom  123 type  1   force =     0.33055863    0.39258926    0.56117130
     atom  124 type  1   force =    -0.14367449    0.43620387    0.03783347
     atom  125 type  1   force =     0.01659229    0.03163393   -0.02426150
     atom  126 type  1   force =     0.03323261    0.00085349   -0.01062236
     atom  127 type  1   force =    -0.05064607    0.01220578   -0.02773061
     atom  128 type  1   force =     0.01106754   -0.00453178   -0.03278728
     atom  129 type  1   force =     0.02284939   -0.20091811    0.02589694
     atom  130 type  1   force =    -0.16742220    0.05738983   -0.00788731
     atom  131 type  1   force =     0.02261473    0.02997900    0.04552936
     atom  132 type  1   force =    -0.01065564    0.09543219    0.14887811
     atom  133 type  1   force =    -0.06649147    0.16419978    0.02665254
     atom  134 type  1   force =    -0.07267569   -0.14824971    0.03798542
     atom  135 type  1   force =    -0.26383583   -0.72645203   -0.04683685
     atom  136 type  1   force =    -0.18673961   -0.06833107   -0.34840170
     atom  137 type  1   force =     0.13305164   -0.04336966    0.09534356
     atom  138 type  1   force =     3.41951589    0.54501275    0.77312663
     atom  139 type  1   force =    -0.18265467    0.61524782   -0.53724640
     atom  140 type  1   force =     0.03626376    0.03167593    0.06060798
     atom  141 type  1   force =     0.15155516    0.08780473    0.09250959
     atom  142 type  1   force =     0.00031879    0.17296619   -0.05641495
     atom  143 type  1   force =    -0.03342661    0.02633263   -0.05862062
     atom  144 type  1   force =     0.19072298   -0.07744867    0.06275153
     atom  145 type  1   force =    -0.21910368   -0.06898431   -0.05565557
     atom  146 type  1   force =    -0.05970671   -0.07290707    0.07345477
     atom  147 type  1   force =    -0.36584157   -0.27992824    0.57876592
     atom  148 type  1   force =    -0.32782983    0.41520277    0.11807044
     atom  149 type  1   force =     0.03698457    0.06313969    0.03681354
     atom  150 type  1   force =     0.04944765    0.10003060    0.16223123
     atom  151 type  1   force =    -0.06101126    0.13097221    0.01929245
     atom  152 type  1   force =     0.03806000   -0.03310308   -0.04028138
     atom  153 type  1   force =     0.07990061   -0.13531398   -0.14708187
     atom  154 type  1   force =    -0.05301083   -0.01421385   -0.12352097
     atom  155 type  1   force =     0.09164952   -0.00139880    0.00639334
     atom  156 type  1   force =     0.21331749    0.00774186   -0.05087981
     atom  157 type  1   force =    -0.00480043    0.11788110   -0.13902216
     atom  158 type  1   force =     0.03518899    0.03352226    0.00866262
     atom  159 type  1   force =     0.04290355    0.06024409   -0.01024222
     atom  160 type  1   force =     0.00404936    0.08986911   -0.03220524
     atom  161 type  1   force =    -0.00403355   -0.13159283    0.10662907
     atom  162 type  1   force =    -0.07858770   -0.09471001   -0.11629678
     atom  163 type  1   force =    -0.06529902    0.00703200   -0.04095691
     atom  164 type  1   force =     0.20917863   -0.61169902    0.42616943
     atom  165 type  1   force =    -0.78171196   -0.47437521   -3.42808714
     atom  166 type  1   force =    -0.10622046    0.02524541   -0.16526608
     atom  167 type  1   force =     0.34921690    0.06171481    0.18756172
     atom  168 type  1   force =     0.37164014    0.74976213    0.01704223
     atom  169 type  1   force =     0.01404469    0.17629476   -0.04268827
     atom  170 type  1   force =     0.04978453    0.04652618    0.02458896
     atom  171 type  1   force =    -0.05587970   -0.07197289    0.07728393
     atom  172 type  1   force =    -0.04958192    0.04213482   -0.04975015
     atom  173 type  1   force =    -0.03725134   -0.13276834   -0.16522082
     atom  174 type  1   force =    -0.50669995   -0.31410789    0.43789969
     atom  175 type  1   force =    -0.17975684    0.04440975   -0.06697188
     atom  176 type  1   force =     0.06405773   -0.00027670    0.22750688
     atom  177 type  1   force =    -0.22193645    0.44090209    0.22396658
     atom  178 type  1   force =    -0.05135106    0.13331266    0.02895015
     atom  179 type  1   force =     0.04802225   -0.03068247   -0.03031864
     atom  180 type  1   force =    -0.00326274   -0.02442082   -0.08852055
     atom  181 type  1   force =    -0.01530348    0.02126986   -0.04183133
     atom  182 type  1   force =     0.17705552   -0.11174657   -0.04993045
     atom  183 type  1   force =     0.05368964   -0.03098951   -0.21049777
     atom  184 type  1   force =    -0.00302388    0.04909198   -0.05616958
     atom  185 type  1   force =     0.12182303    0.02820880    0.05131145
     atom  186 type  1   force =     0.10712479    0.14504433   -0.02710057
     atom  187 type  1   force =     0.01022125    0.09136379   -0.02603223
     atom  188 type  1   force =     0.08172175   -0.23385085   -0.02498046
     atom  189 type  1   force =    -0.09626081   -0.13016108   -0.46165297
     atom  190 type  1   force =    -0.04102914   -0.02515792   -0.08533069
     atom  191 type  1   force =     0.47639056    0.00876777    0.11097934
     atom  192 type  1   force =     0.52446265    0.35422359   -0.61042667
     atom  193 type  1   force =     0.02307782    0.09971679   -0.11707074
     atom  194 type  1   force =     0.08764914    0.00606940    0.04334887
     atom  195 type  1   force =     0.09088022    0.11617694   -0.04927137
     atom  196 type  1   force =     0.00252679    0.07875988   -0.02163186
     atom  197 type  1   force =    -0.12026794    0.08221628    0.10031802
     atom  198 type  1   force =    -0.40300289   -0.65236484   -0.10371951
     atom  199 type  1   force =    -0.15738411   -0.01517119   -0.12779988
     atom  200 type  1   force =     0.24298962   -0.49562770    0.54229275
     atom  201 type  1   force =    -1.79870076    2.96349782    1.07961659
     atom  202 type  1   force =    -0.12610447    0.15180786   -0.06464736
     atom  203 type  1   force =     0.12322480    0.05291959    0.15280889
     atom  204 type  1   force =     0.02340939    0.18809361    0.08486897
     atom  205 type  1   force =     0.00946874    0.10228288   -0.03428227
     atom  206 type  1   force =     0.06255316   -0.02998070   -0.05527759
     atom  207 type  1   force =    -0.05364842   -0.14945739   -0.00030292
     atom  208 type  1   force =    -0.05851964    0.02214441   -0.05858420
     atom  209 type  1   force =     0.03398489   -0.12819753    0.08733079
     atom  210 type  1   force =    -0.12281998    0.05628075    0.10916056
     atom  211 type  1   force =    -0.07608237    0.08975664   -0.00532901
     atom  212 type  1   force =     0.05001730    0.04848440    0.04995208
     atom  213 type  1   force =    -0.01815713    0.10382040    0.05259720
     atom  214 type  1   force =    -0.01314887    0.07220590   -0.00436369
     atom  215 type  2   force =    -1.24742368   -3.34882919    2.05995749
     The core correction contribution to forces
     atom    1 type  1   force =     0.00000460   -0.00005471    0.00000863
     atom    2 type  1   force =     0.00010685   -0.00007197    0.00009587
     atom    3 type  1   force =    -0.00000663   -0.00003225    0.00005609
     atom    4 type  1   force =    -0.00007311   -0.00011559   -0.00008411
     atom    5 type  1   force =    -0.00008845    0.00005344    0.00007551
     atom    6 type  1   force =    -0.00006808    0.00009946    0.00010775
     atom    7 type  1   force =    -0.00004711   -0.00004204    0.00001562
     atom    8 type  1   force =    -0.00013007    0.00008440    0.00004585
     atom    9 type  1   force =    -0.00012172   -0.00010617    0.00014749
     atom   10 type  1   force =     0.00000007   -0.00002090    0.00000498
     atom   11 type  1   force =    -0.00000379    0.00002692   -0.00000954
     atom   12 type  1   force =     0.00002705    0.00004607    0.00003446
     atom   13 type  1   force =     0.00000279    0.00002856   -0.00000294
     atom   14 type  1   force =     0.00170250   -0.00382163   -0.00077516
     atom   15 type  1   force =     0.00161721    0.00065721    0.00007334
     atom   16 type  1   force =    -0.00004358    0.00002895   -0.00003618
     atom   17 type  1   force =    -0.00017991    0.00022112   -0.00172398
     atom   18 type  1   force =    -0.00034818   -0.00118386    0.00063547
     atom   19 type  1   force =    -0.00004363   -0.00003854    0.00005296
     atom   20 type  1   force =     0.00002301   -0.00007982    0.00007452
     atom   21 type  1   force =     0.00000385    0.00000320    0.00001952
     atom   22 type  1   force =    -0.00005291   -0.00009821   -0.00000141
     atom   23 type  1   force =    -0.00004841   -0.00018494    0.00009330
     atom   24 type  1   force =    -0.00026881   -0.00017336   -0.00023230
     atom   25 type  1   force =    -0.00001963   -0.00000247   -0.00000394
     atom   26 type  1   force =     0.00025885   -0.00004534    0.00029535
     atom   27 type  1   force =     0.00013701   -0.00011561   -0.00010899
     atom   28 type  1   force =     0.00002151    0.00000172   -0.00004812
     atom   29 type  1   force =     0.00026776   -0.00014618    0.00008343
     atom   30 type  1   force =     0.00002772    0.00014966    0.00008900
     atom   31 type  1   force =    -0.00006790    0.00002283   -0.00002116
     atom   32 type  1   force =    -0.00077767    0.00077532   -0.00005183
     atom   33 type  1   force =    -0.00066835   -0.00122665    0.00073899
     atom   34 type  1   force =    -0.00001186   -0.00001199    0.00001146
     atom   35 type  1   force =    -0.00000219   -0.00000828   -0.00005370
     atom   36 type  1   force =    -0.00006187   -0.00015046    0.00009250
     atom   37 type  1   force =    -0.00002306   -0.00002514    0.00006535
     atom   38 type  1   force =    -0.00004967   -0.00014189    0.00013427
     atom   39 type  1   force =    -0.00023223    0.00009796    0.00015937
     atom   40 type  1   force =     0.00000026   -0.00000309   -0.00002663
     atom   41 type  1   force =     0.00030222   -0.00012595    0.00435261
     atom   42 type  1   force =     0.00096833    0.00003254   -0.00047010
     atom   43 type  1   force =    -0.00008527    0.00001608    0.00004659
     atom   44 type  1   force =    -0.00002752   -0.00000111   -0.00014377
     atom   45 type  1   force =     0.00007970   -0.00005769   -0.00009502
     atom   46 type  1   force =    -0.00003425   -0.00008968    0.00000191
     atom   47 type  1   force =     0.00001606   -0.00007607    0.00009849
     atom   48 type  1   force =    -0.00002198    0.00000871    0.00001381
     atom   49 type  1   force =    -0.00007988   -0.00015777   -0.00005033
     atom   50 type  1   force =    -0.00006121    0.00002205    0.00002137
     atom   51 type  1   force =    -0.00000467   -0.00003579    0.00000270
     atom   52 type  1   force =    -0.00002209   -0.00004832    0.00003260
     atom   53 type  1   force =     0.00008926   -0.00006713    0.00010522
     atom   54 type  1   force =    -0.00000445   -0.00006945    0.00004747
     atom   55 type  1   force =     0.00004692    0.00000788   -0.00002270
     atom   56 type  1   force =     0.00001323    0.00004245    0.00005998
     atom   57 type  1   force =    -0.00000869   -0.00001123    0.00001464
     atom   58 type  1   force =    -0.00003895   -0.00022053   -0.00022324
     atom   59 type  1   force =    -0.00015444    0.00092626    0.00057110
     atom   60 type  1   force =     0.00005403    0.00000543    0.00000252
     atom   61 type  1   force =    -0.00012096    0.00011363   -0.00005970
     atom   62 type  1   force =    -0.00044789   -0.00117333    0.00095965
     atom   63 type  1   force =    -0.00005615   -0.00014901    0.00009817
     atom   64 type  1   force =    -0.00005823   -0.00003369    0.00003019
     atom   65 type  1   force =     0.00002660    0.00000326   -0.00000028
     atom   66 type  1   force =    -0.00005150    0.00002427    0.00008035
     atom   67 type  1   force =    -0.00009839   -0.00015369    0.00008554
     atom   68 type  1   force =    -0.00418980   -0.00121590   -0.00013936
     atom   69 type  1   force =     0.00013907    0.00003934    0.00002287
     atom   70 type  1   force =    -0.00018455    0.00010953    0.00020699
     atom   71 type  1   force =     0.00047670   -0.00008671   -0.00096167
     atom   72 type  1   force =     0.00010816   -0.00005077   -0.00006653
     atom   73 type  1   force =     0.00001827   -0.00007695    0.00005446
     atom   74 type  1   force =     0.00008382   -0.00011810    0.00011336
     atom   75 type  1   force =    -0.00002093   -0.00004804    0.00003374
     atom   76 type  1   force =    -0.00007728   -0.00009869    0.00000514
     atom   77 type  1   force =    -0.00002768    0.00003018    0.00005490
     atom   78 type  1   force =    -0.00008382   -0.00010908   -0.00006789
     atom   79 type  1   force =    -0.00001611    0.00001015    0.00001971
     atom   80 type  1   force =     0.00000569   -0.00003330    0.00001307
     atom   81 type  1   force =    -0.00002989   -0.00007560    0.00002203
     atom   82 type  1   force =     0.00001187   -0.00006321    0.00000345
     atom   83 type  1   force =    -0.00000856    0.00008232    0.00006667
     atom   84 type  1   force =    -0.00001312   -0.00003223    0.00000122
     atom   85 type  1   force =    -0.00008446    0.00006402   -0.00000914
     atom   86 type  1   force =    -0.00022130    0.00010765    0.00019521
     atom   87 type  1   force =    -0.00015197   -0.00026077   -0.00002765
     atom   88 type  1   force =     0.00000600   -0.00002760    0.00002036
     atom   89 type  1   force =     0.00008395   -0.00020362    0.00020835
     atom   90 type  1   force =    -0.00002823   -0.00008541    0.00004892
     atom   91 type  1   force =    -0.00013982   -0.00000584    0.00014123
     atom   92 type  1   force =     0.00008413    0.00020753    0.00009581
     atom   93 type  1   force =     0.00024873    0.00007470   -0.00009361
     atom   94 type  1   force =    -0.00013958    0.00015329   -0.00012790
     atom   95 type  1   force =     0.00013723   -0.00002596    0.00003648
     atom   96 type  1   force =     0.00008041    0.00003384   -0.00026200
     atom   97 type  1   force =    -0.00002539   -0.00006546   -0.00012614
     atom   98 type  1   force =    -0.00009383   -0.00002361    0.00009954
     atom   99 type  1   force =    -0.00004031   -0.00010427    0.00006561
     atom  100 type  1   force =     0.00009372   -0.00012867    0.00013395
     atom  101 type  1   force =    -0.00004036   -0.00003655    0.00002179
     atom  102 type  1   force =    -0.00009710   -0.00017494   -0.00005688
     atom  103 type  1   force =     0.00013592   -0.00000852   -0.00013382
     atom  104 type  1   force =    -0.00002347   -0.00007422   -0.00008813
     atom  105 type  1   force =    -0.00001373   -0.00003010    0.00004845
     atom  106 type  1   force =     0.00010245   -0.00004370    0.00003781
     atom  107 type  1   force =    -0.00001520   -0.00003270    0.00002312
     atom  108 type  1   force =    -0.00010610    0.00020710    0.00005583
     atom  109 type  1   force =    -0.00021547    0.00035103    0.00007678
     atom  110 type  1   force =    -0.00003336    0.00007046   -0.00009694
     atom  111 type  1   force =    -0.00016349    0.00036370    0.00012875
     atom  112 type  1   force =    -0.00076025    0.00074614    0.00057936
     atom  113 type  1   force =     0.00010241    0.00060683   -0.00046985
     atom  114 type  1   force =     0.00007654    0.00009714    0.00001301
     atom  115 type  1   force =     0.00031631    0.00065871   -0.00025594
     atom  116 type  1   force =     0.00000463    0.00005739   -0.00001856
     atom  117 type  1   force =     0.00002424   -0.00015155    0.00001251
     atom  118 type  1   force =    -0.00010315   -0.00015434    0.00014324
     atom  119 type  1   force =     0.00020335    0.00003962   -0.00003892
     atom  120 type  1   force =    -0.00010571   -0.00015491    0.00014066
     atom  121 type  1   force =     0.00041428   -0.00032231   -0.00005404
     atom  122 type  1   force =     0.00003428   -0.00000139   -0.00020800
     atom  123 type  1   force =     0.00014041   -0.00038884   -0.00032800
     atom  124 type  1   force =    -0.00011651    0.00099251   -0.00012432
     atom  125 type  1   force =    -0.00006182    0.00002670    0.00005532
     atom  126 type  1   force =    -0.00023634    0.00001681    0.00002121
     atom  127 type  1   force =     0.00008432    0.00007990    0.00004074
     atom  128 type  1   force =    -0.00003133    0.00006659    0.00022623
     atom  129 type  1   force =    -0.00009469   -0.00018641    0.00013995
     atom  130 type  1   force =     0.00035391    0.00006921    0.00012253
     atom  131 type  1   force =    -0.00005602    0.00004586   -0.00009959
     atom  132 type  1   force =    -0.00012522   -0.00004708   -0.00035657
     atom  133 type  1   force =    -0.00005762    0.00015676    0.00001958
     atom  134 type  1   force =    -0.00022473    0.00003516    0.00011935
     atom  135 type  1   force =    -0.00066041    0.00091151    0.00036605
     atom  136 type  1   force =    -0.00066109   -0.00009398   -0.00032785
     atom  137 type  1   force =    -0.00003679    0.00006837    0.00000620
     atom  138 type  1   force =     0.00101270    0.00089207    0.00047453
     atom  139 type  1   force =     0.00030466    0.00002135   -0.00029068
     atom  140 type  1   force =     0.00001184    0.00007714    0.00014003
     atom  141 type  1   force =     0.00004383    0.00010794    0.00002501
     atom  142 type  1   force =     0.00010587    0.00016691   -0.00007348
     atom  143 type  1   force =     0.00001729   -0.00014139    0.00017262
     atom  144 type  1   force =    -0.00033209    0.00020103   -0.00029345
     atom  145 type  1   force =     0.00038162    0.00000319    0.00007871
     atom  146 type  1   force =    -0.00012943   -0.00011599   -0.00002810
     atom  147 type  1   force =    -0.00024036   -0.00039628   -0.00107133
     atom  148 type  1   force =    -0.00014350    0.00056097    0.00013852
     atom  149 type  1   force =    -0.00006653   -0.00002672   -0.00010948
     atom  150 type  1   force =    -0.00002503   -0.00008336   -0.00006389
     atom  151 type  1   force =    -0.00002350    0.00021106    0.00006286
     atom  152 type  1   force =    -0.00015819    0.00022865    0.00012054
     atom  153 type  1   force =    -0.00023531    0.00022115    0.00019100
     atom  154 type  1   force =     0.00006625    0.00007922   -0.00003092
     atom  155 type  1   force =     0.00000678    0.00012064    0.00001465
     atom  156 type  1   force =    -0.00016612    0.00006686    0.00003839
     atom  157 type  1   force =     0.00002857    0.00006681   -0.00000119
     atom  158 type  1   force =    -0.00001876    0.00011280   -0.00000757
     atom  159 type  1   force =    -0.00006489    0.00025223   -0.00016423
     atom  160 type  1   force =    -0.00001847    0.00006904   -0.00001937
     atom  161 type  1   force =    -0.00013065    0.00005795    0.00021343
     atom  162 type  1   force =    -0.00002320    0.00007162    0.00001980
     atom  163 type  1   force =    -0.00015390    0.00003693   -0.00002573
     atom  164 type  1   force =    -0.00058924    0.00092883    0.00043710
     atom  165 type  1   force =    -0.00064182    0.00049051   -0.00117867
     atom  166 type  1   force =    -0.00004850    0.00008560   -0.00006731
     atom  167 type  1   force =     0.00032169    0.00014448    0.00065497
     atom  168 type  1   force =     0.00028612    0.00001679   -0.00030932
     atom  169 type  1   force =     0.00003504    0.00014975   -0.00014431
     atom  170 type  1   force =    -0.00013386   -0.00017808    0.00002146
     atom  171 type  1   force =     0.00005093   -0.00007225    0.00015228
     atom  172 type  1   force =     0.00011071    0.00001630    0.00006778
     atom  173 type  1   force =     0.00022820    0.00033700    0.00026683
     atom  174 type  1   force =     0.00112724   -0.00006442    0.00029626
     atom  175 type  1   force =     0.00008098   -0.00005759    0.00004215
     atom  176 type  1   force =    -0.00006629   -0.00010551   -0.00036920
     atom  177 type  1   force =    -0.00027088    0.00053006    0.00001116
     atom  178 type  1   force =    -0.00011149    0.00018971   -0.00002515
     atom  179 type  1   force =    -0.00017551    0.00022442    0.00010322
     atom  180 type  1   force =    -0.00004247    0.00010865   -0.00003464
     atom  181 type  1   force =    -0.00001979    0.00011256   -0.00000860
     atom  182 type  1   force =    -0.00024436    0.00021897    0.00018196
     atom  183 type  1   force =    -0.00005775    0.00009316    0.00014674
     atom  184 type  1   force =     0.00009822    0.00029185   -0.00000116
     atom  185 type  1   force =     0.00001320    0.00006634   -0.00008391
     atom  186 type  1   force =    -0.00001376    0.00005652   -0.00004350
     atom  187 type  1   force =     0.00000200    0.00007403    0.00000109
     atom  188 type  1   force =    -0.00034504    0.00044441    0.00023722
     atom  189 type  1   force =    -0.00018085   -0.00000722   -0.00016521
     atom  190 type  1   force =    -0.00012120    0.00017220   -0.00009422
     atom  191 type  1   force =     0.00015700    0.00007477    0.00017268
     atom  192 type  1   force =    -0.00026445   -0.00002453    0.00027054
     atom  193 type  1   force =     0.00001094    0.00018041   -0.00011792
     atom  194 type  1   force =     0.00004741    0.00021309    0.00007443
     atom  195 type  1   force =     0.00007233    0.00019525   -0.00005652
     atom  196 type  1   force =    -0.00000680    0.00007064   -0.00001037
     atom  197 type  1   force =     0.00035895   -0.00007288   -0.00034125
     atom  198 type  1   force =     0.00095843    0.00000973    0.00007475
     atom  199 type  1   force =    -0.00001844   -0.00004605    0.00000253
     atom  200 type  1   force =    -0.00004745   -0.00023427   -0.00093119
     atom  201 type  1   force =    -0.00068243    0.00189982    0.00022163
     atom  202 type  1   force =     0.00000218    0.00000859   -0.00012624
     atom  203 type  1   force =     0.00000788   -0.00003970    0.00002883
     atom  204 type  1   force =     0.00012068    0.00003729   -0.00000776
     atom  205 type  1   force =     0.00006325    0.00016520   -0.00010336
     atom  206 type  1   force =    -0.00020459    0.00001260    0.00020155
     atom  207 type  1   force =     0.00013840   -0.00011386    0.00013642
     atom  208 type  1   force =     0.00013883    0.00004604    0.00010704
     atom  209 type  1   force =    -0.00010172   -0.00017212   -0.00010367
     atom  210 type  1   force =     0.00003349   -0.00008345   -0.00001322
     atom  211 type  1   force =     0.00001816    0.00011818    0.00006854
     atom  212 type  1   force =    -0.00011087   -0.00001457   -0.00014265
     atom  213 type  1   force =    -0.00009393    0.00009097   -0.00004352
     atom  214 type  1   force =    -0.00003297    0.00011650    0.00000468
     atom  215 type  2   force =     0.00655603    0.01684987   -0.01064460
     The Hubbard contrib.    to forces
     atom    1 type  1   force =     0.00000000    0.00000000    0.00000000
     atom    2 type  1   force =     0.00000000    0.00000000    0.00000000
     atom    3 type  1   force =     0.00000000    0.00000000    0.00000000
     atom    4 type  1   force =     0.00000000    0.00000000    0.00000000
     atom    5 type  1   force =     0.00000000    0.00000000    0.00000000
     atom    6 type  1   force =     0.00000000    0.00000000    0.00000000
     atom    7 type  1   force =     0.00000000    0.00000000    0.00000000
     atom    8 type  1   force =     0.00000000    0.00000000    0.00000000
     atom    9 type  1   force =     0.00000000    0.00000000    0.00000000
     atom   10 type  1   force =     0.00000000    0.00000000    0.00000000
     atom   11 type  1   force =     0.00000000    0.00000000    0.00000000
     atom   12 type  1   force =     0.00000000    0.00000000    0.00000000
     atom   13 type  1   force =     0.00000000    0.00000000    0.00000000
     atom   14 type  1   force =     0.00000000    0.00000000    0.00000000
     atom   15 type  1   force =     0.00000000    0.00000000    0.00000000
     atom   16 type  1   force =     0.00000000    0.00000000    0.00000000
     atom   17 type  1   force =     0.00000000    0.00000000    0.00000000
     atom   18 type  1   force =     0.00000000    0.00000000    0.00000000
     atom   19 type  1   force =     0.00000000    0.00000000    0.00000000
     atom   20 type  1   force =     0.00000000    0.00000000    0.00000000
     atom   21 type  1   force =     0.00000000    0.00000000    0.00000000
     atom   22 type  1   force =     0.00000000    0.00000000    0.00000000
     atom   23 type  1   force =     0.00000000    0.00000000    0.00000000
     atom   24 type  1   force =     0.00000000    0.00000000    0.00000000
     atom   25 type  1   force =     0.00000000    0.00000000    0.00000000
     atom   26 type  1   force =     0.00000000    0.00000000    0.00000000
     atom   27 type  1   force =     0.00000000    0.00000000    0.00000000
     atom   28 type  1   force =     0.00000000    0.00000000    0.00000000
     atom   29 type  1   force =     0.00000000    0.00000000    0.00000000
     atom   30 type  1   force =     0.00000000    0.00000000    0.00000000
     atom   31 type  1   force =     0.00000000    0.00000000    0.00000000
     atom   32 type  1   force =     0.00000000    0.00000000    0.00000000
     atom   33 type  1   force =     0.00000000    0.00000000    0.00000000
     atom   34 type  1   force =     0.00000000    0.00000000    0.00000000
     atom   35 type  1   force =     0.00000000    0.00000000    0.00000000
     atom   36 type  1   force =     0.00000000    0.00000000    0.00000000
     atom   37 type  1   force =     0.00000000    0.00000000    0.00000000
     atom   38 type  1   force =     0.00000000    0.00000000    0.00000000
     atom   39 type  1   force =     0.00000000    0.00000000    0.00000000
     atom   40 type  1   force =     0.00000000    0.00000000    0.00000000
     atom   41 type  1   force =     0.00000000    0.00000000    0.00000000
     atom   42 type  1   force =     0.00000000    0.00000000    0.00000000
     atom   43 type  1   force =     0.00000000    0.00000000    0.00000000
     atom   44 type  1   force =     0.00000000    0.00000000    0.00000000
     atom   45 type  1   force =     0.00000000    0.00000000    0.00000000
     atom   46 type  1   force =     0.00000000    0.00000000    0.00000000
     atom   47 type  1   force =     0.00000000    0.00000000    0.00000000
     atom   48 type  1   force =     0.00000000    0.00000000    0.00000000
     atom   49 type  1   force =     0.00000000    0.00000000    0.00000000
     atom   50 type  1   force =     0.00000000    0.00000000    0.00000000
     atom   51 type  1   force =     0.00000000    0.00000000    0.00000000
     atom   52 type  1   force =     0.00000000    0.00000000    0.00000000
     atom   53 type  1   force =     0.00000000    0.00000000    0.00000000
     atom   54 type  1   force =     0.00000000    0.00000000    0.00000000
     atom   55 type  1   force =     0.00000000    0.00000000    0.00000000
     atom   56 type  1   force =     0.00000000    0.00000000    0.00000000
     atom   57 type  1   force =     0.00000000    0.00000000    0.00000000
     atom   58 type  1   force =     0.00000000    0.00000000    0.00000000
     atom   59 type  1   force =     0.00000000    0.00000000    0.00000000
     atom   60 type  1   force =     0.00000000    0.00000000    0.00000000
     atom   61 type  1   force =     0.00000000    0.00000000    0.00000000
     atom   62 type  1   force =     0.00000000    0.00000000    0.00000000
     atom   63 type  1   force =     0.00000000    0.00000000    0.00000000
     atom   64 type  1   force =     0.00000000    0.00000000    0.00000000
     atom   65 type  1   force =     0.00000000    0.00000000    0.00000000
     atom   66 type  1   force =     0.00000000    0.00000000    0.00000000
     atom   67 type  1   force =     0.00000000    0.00000000    0.00000000
     atom   68 type  1   force =     0.00000000    0.00000000    0.00000000
     atom   69 type  1   force =     0.00000000    0.00000000    0.00000000
     atom   70 type  1   force =     0.00000000    0.00000000    0.00000000
     atom   71 type  1   force =     0.00000000    0.00000000    0.00000000
     atom   72 type  1   force =     0.00000000    0.00000000    0.00000000
     atom   73 type  1   force =     0.00000000    0.00000000    0.00000000
     atom   74 type  1   force =     0.00000000    0.00000000    0.00000000
     atom   75 type  1   force =     0.00000000    0.00000000    0.00000000
     atom   76 type  1   force =     0.00000000    0.00000000    0.00000000
     atom   77 type  1   force =     0.00000000    0.00000000    0.00000000
     atom   78 type  1   force =     0.00000000    0.00000000    0.00000000
     atom   79 type  1   force =     0.00000000    0.00000000    0.00000000
     atom   80 type  1   force =     0.00000000    0.00000000    0.00000000
     atom   81 type  1   force =     0.00000000    0.00000000    0.00000000
     atom   82 type  1   force =     0.00000000    0.00000000    0.00000000
     atom   83 type  1   force =     0.00000000    0.00000000    0.00000000
     atom   84 type  1   force =     0.00000000    0.00000000    0.00000000
     atom   85 type  1   force =     0.00000000    0.00000000    0.00000000
     atom   86 type  1   force =     0.00000000    0.00000000    0.00000000
     atom   87 type  1   force =     0.00000000    0.00000000    0.00000000
     atom   88 type  1   force =     0.00000000    0.00000000    0.00000000
     atom   89 type  1   force =     0.00000000    0.00000000    0.00000000
     atom   90 type  1   force =     0.00000000    0.00000000    0.00000000
     atom   91 type  1   force =     0.00000000    0.00000000    0.00000000
     atom   92 type  1   force =     0.00000000    0.00000000    0.00000000
     atom   93 type  1   force =     0.00000000    0.00000000    0.00000000
     atom   94 type  1   force =     0.00000000    0.00000000    0.00000000
     atom   95 type  1   force =     0.00000000    0.00000000    0.00000000
     atom   96 type  1   force =     0.00000000    0.00000000    0.00000000
     atom   97 type  1   force =     0.00000000    0.00000000    0.00000000
     atom   98 type  1   force =     0.00000000    0.00000000    0.00000000
     atom   99 type  1   force =     0.00000000    0.00000000    0.00000000
     atom  100 type  1   force =     0.00000000    0.00000000    0.00000000
     atom  101 type  1   force =     0.00000000    0.00000000    0.00000000
     atom  102 type  1   force =     0.00000000    0.00000000    0.00000000
     atom  103 type  1   force =     0.00000000    0.00000000    0.00000000
     atom  104 type  1   force =     0.00000000    0.00000000    0.00000000
     atom  105 type  1   force =     0.00000000    0.00000000    0.00000000
     atom  106 type  1   force =     0.00000000    0.00000000    0.00000000
     atom  107 type  1   force =     0.00000000    0.00000000    0.00000000
     atom  108 type  1   force =     0.00000000    0.00000000    0.00000000
     atom  109 type  1   force =     0.00000000    0.00000000    0.00000000
     atom  110 type  1   force =     0.00000000    0.00000000    0.00000000
     atom  111 type  1   force =     0.00000000    0.00000000    0.00000000
     atom  112 type  1   force =     0.00000000    0.00000000    0.00000000
     atom  113 type  1   force =     0.00000000    0.00000000    0.00000000
     atom  114 type  1   force =     0.00000000    0.00000000    0.00000000
     atom  115 type  1   force =     0.00000000    0.00000000    0.00000000
     atom  116 type  1   force =     0.00000000    0.00000000    0.00000000
     atom  117 type  1   force =     0.00000000    0.00000000    0.00000000
     atom  118 type  1   force =     0.00000000    0.00000000    0.00000000
     atom  119 type  1   force =     0.00000000    0.00000000    0.00000000
     atom  120 type  1   force =     0.00000000    0.00000000    0.00000000
     atom  121 type  1   force =     0.00000000    0.00000000    0.00000000
     atom  122 type  1   force =     0.00000000    0.00000000    0.00000000
     atom  123 type  1   force =     0.00000000    0.00000000    0.00000000
     atom  124 type  1   force =     0.00000000    0.00000000    0.00000000
     atom  125 type  1   force =     0.00000000    0.00000000    0.00000000
     atom  126 type  1   force =     0.00000000    0.00000000    0.00000000
     atom  127 type  1   force =     0.00000000    0.00000000    0.00000000
     atom  128 type  1   force =     0.00000000    0.00000000    0.00000000
     atom  129 type  1   force =     0.00000000    0.00000000    0.00000000
     atom  130 type  1   force =     0.00000000    0.00000000    0.00000000
     atom  131 type  1   force =     0.00000000    0.00000000    0.00000000
     atom  132 type  1   force =     0.00000000    0.00000000    0.00000000
     atom  133 type  1   force =     0.00000000    0.00000000    0.00000000
     atom  134 type  1   force =     0.00000000    0.00000000    0.00000000
     atom  135 type  1   force =     0.00000000    0.00000000    0.00000000
     atom  136 type  1   force =     0.00000000    0.00000000    0.00000000
     atom  137 type  1   force =     0.00000000    0.00000000    0.00000000
     atom  138 type  1   force =     0.00000000    0.00000000    0.00000000
     atom  139 type  1   force =     0.00000000    0.00000000    0.00000000
     atom  140 type  1   force =     0.00000000    0.00000000    0.00000000
     atom  141 type  1   force =     0.00000000    0.00000000    0.00000000
     atom  142 type  1   force =     0.00000000    0.00000000    0.00000000
     atom  143 type  1   force =     0.00000000    0.00000000    0.00000000
     atom  144 type  1   force =     0.00000000    0.00000000    0.00000000
     atom  145 type  1   force =     0.00000000    0.00000000    0.00000000
     atom  146 type  1   force =     0.00000000    0.00000000    0.00000000
     atom  147 type  1   force =     0.00000000    0.00000000    0.00000000
     atom  148 type  1   force =     0.00000000    0.00000000    0.00000000
     atom  149 type  1   force =     0.00000000    0.00000000    0.00000000
     atom  150 type  1   force =     0.00000000    0.00000000    0.00000000
     atom  151 type  1   force =     0.00000000    0.00000000    0.00000000
     atom  152 type  1   force =     0.00000000    0.00000000    0.00000000
     atom  153 type  1   force =     0.00000000    0.00000000    0.00000000
     atom  154 type  1   force =     0.00000000    0.00000000    0.00000000
     atom  155 type  1   force =     0.00000000    0.00000000    0.00000000
     atom  156 type  1   force =     0.00000000    0.00000000    0.00000000
     atom  157 type  1   force =     0.00000000    0.00000000    0.00000000
     atom  158 type  1   force =     0.00000000    0.00000000    0.00000000
     atom  159 type  1   force =     0.00000000    0.00000000    0.00000000
     atom  160 type  1   force =     0.00000000    0.00000000    0.00000000
     atom  161 type  1   force =     0.00000000    0.00000000    0.00000000
     atom  162 type  1   force =     0.00000000    0.00000000    0.00000000
     atom  163 type  1   force =     0.00000000    0.00000000    0.00000000
     atom  164 type  1   force =     0.00000000    0.00000000    0.00000000
     atom  165 type  1   force =     0.00000000    0.00000000    0.00000000
     atom  166 type  1   force =     0.00000000    0.00000000    0.00000000
     atom  167 type  1   force =     0.00000000    0.00000000    0.00000000
     atom  168 type  1   force =     0.00000000    0.00000000    0.00000000
     atom  169 type  1   force =     0.00000000    0.00000000    0.00000000
     atom  170 type  1   force =     0.00000000    0.00000000    0.00000000
     atom  171 type  1   force =     0.00000000    0.00000000    0.00000000
     atom  172 type  1   force =     0.00000000    0.00000000    0.00000000
     atom  173 type  1   force =     0.00000000    0.00000000    0.00000000
     atom  174 type  1   force =     0.00000000    0.00000000    0.00000000
     atom  175 type  1   force =     0.00000000    0.00000000    0.00000000
     atom  176 type  1   force =     0.00000000    0.00000000    0.00000000
     atom  177 type  1   force =     0.00000000    0.00000000    0.00000000
     atom  178 type  1   force =     0.00000000    0.00000000    0.00000000
     atom  179 type  1   force =     0.00000000    0.00000000    0.00000000
     atom  180 type  1   force =     0.00000000    0.00000000    0.00000000
     atom  181 type  1   force =     0.00000000    0.00000000    0.00000000
     atom  182 type  1   force =     0.00000000    0.00000000    0.00000000
     atom  183 type  1   force =     0.00000000    0.00000000    0.00000000
     atom  184 type  1   force =     0.00000000    0.00000000    0.00000000
     atom  185 type  1   force =     0.00000000    0.00000000    0.00000000
     atom  186 type  1   force =     0.00000000    0.00000000    0.00000000
     atom  187 type  1   force =     0.00000000    0.00000000    0.00000000
     atom  188 type  1   force =     0.00000000    0.00000000    0.00000000
     atom  189 type  1   force =     0.00000000    0.00000000    0.00000000
     atom  190 type  1   force =     0.00000000    0.00000000    0.00000000
     atom  191 type  1   force =     0.00000000    0.00000000    0.00000000
     atom  192 type  1   force =     0.00000000    0.00000000    0.00000000
     atom  193 type  1   force =     0.00000000    0.00000000    0.00000000
     atom  194 type  1   force =     0.00000000    0.00000000    0.00000000
     atom  195 type  1   force =     0.00000000    0.00000000    0.00000000
     atom  196 type  1   force =     0.00000000    0.00000000    0.00000000
     atom  197 type  1   force =     0.00000000    0.00000000    0.00000000
     atom  198 type  1   force =     0.00000000    0.00000000    0.00000000
     atom  199 type  1   force =     0.00000000    0.00000000    0.00000000
     atom  200 type  1   force =     0.00000000    0.00000000    0.00000000
     atom  201 type  1   force =     0.00000000    0.00000000    0.00000000
     atom  202 type  1   force =     0.00000000    0.00000000    0.00000000
     atom  203 type  1   force =     0.00000000    0.00000000    0.00000000
     atom  204 type  1   force =     0.00000000    0.00000000    0.00000000
     atom  205 type  1   force =     0.00000000    0.00000000    0.00000000
     atom  206 type  1   force =     0.00000000    0.00000000    0.00000000
     atom  207 type  1   force =     0.00000000    0.00000000    0.00000000
     atom  208 type  1   force =     0.00000000    0.00000000    0.00000000
     atom  209 type  1   force =     0.00000000    0.00000000    0.00000000
     atom  210 type  1   force =     0.00000000    0.00000000    0.00000000
     atom  211 type  1   force =     0.00000000    0.00000000    0.00000000
     atom  212 type  1   force =     0.00000000    0.00000000    0.00000000
     atom  213 type  1   force =     0.00000000    0.00000000    0.00000000
     atom  214 type  1   force =     0.00000000    0.00000000    0.00000000
     atom  215 type  2   force =     0.00000000    0.00000000    0.00000000
     The SCF correction term to forces
     atom    1 type  1   force =    -0.00000746   -0.00000557    0.00000046
     atom    2 type  1   force =    -0.00000242   -0.00000770    0.00000140
     atom    3 type  1   force =    -0.00000403    0.00000090   -0.00000123
     atom    4 type  1   force =    -0.00000217    0.00000202    0.00000268
     atom    5 type  1   force =     0.00000343   -0.00000245    0.00000577
     atom    6 type  1   force =    -0.00000051   -0.00000158   -0.00001300
     atom    7 type  1   force =    -0.00000201    0.00000818   -0.00000084
     atom    8 type  1   force =     0.00000013   -0.00000104    0.00001314
     atom    9 type  1   force =     0.00000144    0.00000702    0.00000180
     atom   10 type  1   force =     0.00000065    0.00000184   -0.00000745
     atom   11 type  1   force =     0.00000888   -0.00000761    0.00000053
     atom   12 type  1   force =     0.00000287    0.00000362   -0.00000816
     atom   13 type  1   force =    -0.00000194   -0.00000093   -0.00000956
     atom   14 type  1   force =     0.00000871   -0.00000789    0.00000729
     atom   15 type  1   force =    -0.00002825   -0.00000484   -0.00000835
     atom   16 type  1   force =     0.00000327    0.00001068   -0.00000836
     atom   17 type  1   force =     0.00001580   -0.00000277   -0.00001132
     atom   18 type  1   force =     0.00000933    0.00001326   -0.00000329
     atom   19 type  1   force =    -0.00000502   -0.00000088   -0.00000439
     atom   20 type  1   force =     0.00000238   -0.00000528    0.00000733
     atom   21 type  1   force =    -0.00000615    0.00000251    0.00000271
     atom   22 type  1   force =    -0.00000583    0.00000158   -0.00000231
     atom   23 type  1   force =     0.00000192   -0.00000950    0.00000422
     atom   24 type  1   force =    -0.00000722   -0.00000206   -0.00000131
     atom   25 type  1   force =    -0.00000645    0.00000901    0.00000429
     atom   26 type  1   force =     0.00000627   -0.00000203    0.00001206
     atom   27 type  1   force =    -0.00000582    0.00000766    0.00000252
     atom   28 type  1   force =    -0.00000362   -0.00000581   -0.00000140
     atom   29 type  1   force =     0.00000181   -0.00001117    0.00000006
     atom   30 type  1   force =    -0.00000737   -0.00001061   -0.00001851
     atom   31 type  1   force =     0.00000119    0.00000959   -0.00000631
     atom   32 type  1   force =     0.00001527    0.00001104    0.00001414
     atom   33 type  1   force =     0.00001655    0.00003025   -0.00001331
     atom   34 type  1   force =    -0.00000184    0.00000604   -0.00000658
     atom   35 type  1   force =     0.00000576   -0.00000953    0.00000030
     atom   36 type  1   force =     0.00000481    0.00000279   -0.00000362
     atom   37 type  1   force =    -0.00000226   -0.00000394   -0.00000894
     atom   38 type  1   force =     0.00000429   -0.00001040   -0.00000075
     atom   39 type  1   force =    -0.00000528   -0.00000577   -0.00000785
     atom   40 type  1   force =    -0.00000066    0.00000589   -0.00000430
     atom   41 type  1   force =     0.00001253   -0.00000324   -0.00000159
     atom   42 type  1   force =    -0.00000504    0.00000698    0.00000035
     atom   43 type  1   force =    -0.00000115    0.00000902   -0.00000505
     atom   44 type  1   force =     0.00001246   -0.00000321    0.00000332
     atom   45 type  1   force =     0.00000262    0.00000569   -0.00000376
     atom   46 type  1   force =    -0.00000467   -0.00000310   -0.00000076
     atom   47 type  1   force =    -0.00000361   -0.00000824    0.00000214
     atom   48 type  1   force =    -0.00001117   -0.00000507    0.00000133
     atom   49 type  1   force =    -0.00000502    0.00000810    0.00000594
     atom   50 type  1   force =    -0.00000144   -0.00000191    0.00001717
     atom   51 type  1   force =    -0.00000966    0.00000714    0.00000617
     atom   52 type  1   force =    -0.00000695    0.00000062    0.00000094
     atom   53 type  1   force =    -0.00000163   -0.00000276    0.00001324
     atom   54 type  1   force =    -0.00000867    0.00000579    0.00000676
     atom   55 type  1   force =    -0.00000140   -0.00000877    0.00000031
     atom   56 type  1   force =     0.00000402   -0.00000435   -0.00000287
     atom   57 type  1   force =    -0.00000178    0.00000537   -0.00000596
     atom   58 type  1   force =     0.00000353   -0.00000120    0.00000254
     atom   59 type  1   force =     0.00002291   -0.00002736   -0.00000472
     atom   60 type  1   force =    -0.00000911    0.00000337   -0.00002050
     atom   61 type  1   force =     0.00000403    0.00000525   -0.00000176
     atom   62 type  1   force =     0.00001569   -0.00000544    0.00001240
     atom   63 type  1   force =     0.00000130    0.00001149   -0.00000809
     atom   64 type  1   force =     0.00000447   -0.00000538   -0.00000013
     atom   65 type  1   force =     0.00000574   -0.00000175    0.00000152
     atom   66 type  1   force =    -0.00000228    0.00000779   -0.00000838
     atom   67 type  1   force =     0.00000458   -0.00000476   -0.00000231
     atom   68 type  1   force =     0.00000404   -0.00000922    0.00000450
     atom   69 type  1   force =    -0.00000690    0.00000264   -0.00001057
     atom   70 type  1   force =     0.00000929    0.00000192    0.00000190
     atom   71 type  1   force =     0.00001338   -0.00000122    0.00000386
     atom   72 type  1   force =    -0.00000204    0.00000919   -0.00000578
     atom   73 type  1   force =    -0.00000342   -0.00000718   -0.00000024
     atom   74 type  1   force =    -0.00000444   -0.00000331    0.00000641
     atom   75 type  1   force =    -0.00000920   -0.00000131   -0.00000033
     atom   76 type  1   force =    -0.00000042   -0.00000129    0.00000616
     atom   77 type  1   force =    -0.00000728   -0.00000627    0.00000685
     atom   78 type  1   force =    -0.00001156    0.00000337    0.00000183
     atom   79 type  1   force =    -0.00000033    0.00000076    0.00001369
     atom   80 type  1   force =    -0.00000513    0.00000369    0.00001559
     atom   81 type  1   force =    -0.00001114    0.00001123    0.00000310
     atom   82 type  1   force =    -0.00000385   -0.00000577    0.00000216
     atom   83 type  1   force =    -0.00000178   -0.00000915   -0.00000305
     atom   84 type  1   force =    -0.00000828   -0.00000308   -0.00000126
     atom   85 type  1   force =     0.00000163    0.00000666    0.00000834
     atom   86 type  1   force =     0.00001090    0.00000293    0.00000826
     atom   87 type  1   force =    -0.00000197    0.00001124   -0.00000577
     atom   88 type  1   force =    -0.00000284   -0.00000458    0.00000362
     atom   89 type  1   force =     0.00000081   -0.00000345    0.00000519
     atom   90 type  1   force =    -0.00000402    0.00000568   -0.00000421
     atom   91 type  1   force =     0.00000331   -0.00000908   -0.00000306
     atom   92 type  1   force =    -0.00000017   -0.00001679   -0.00000250
     atom   93 type  1   force =    -0.00000760   -0.00000238   -0.00001606
     atom   94 type  1   force =     0.00000772    0.00000428   -0.00000353
     atom   95 type  1   force =    -0.00000489    0.00001499   -0.00000891
     atom   96 type  1   force =     0.00000944   -0.00000136   -0.00000322
     atom   97 type  1   force =     0.00001103   -0.00000482   -0.00000343
     atom   98 type  1   force =     0.00000103    0.00000972   -0.00000918
     atom   99 type  1   force =    -0.00000078   -0.00000778   -0.00000127
     atom  100 type  1   force =    -0.00000444   -0.00000992    0.00000121
     atom  101 type  1   force =    -0.00000954   -0.00000231   -0.00000664
     atom  102 type  1   force =     0.00000331   -0.00000089    0.00000958
     atom  103 type  1   force =     0.00000201   -0.00000126    0.00000453
     atom  104 type  1   force =    -0.00000804    0.00001002   -0.00000052
     atom  105 type  1   force =     0.00000309   -0.00000177    0.00000874
     atom  106 type  1   force =     0.00000042    0.00000285    0.00001015
     atom  107 type  1   force =    -0.00001095    0.00001040    0.00000046
     atom  108 type  1   force =    -0.00000555   -0.00000831    0.00000200
     atom  109 type  1   force =     0.00000020   -0.00000804   -0.00000139
     atom  110 type  1   force =    -0.00000625   -0.00000039   -0.00000616
     atom  111 type  1   force =     0.00000188    0.00000553    0.00000191
     atom  112 type  1   force =     0.00002001   -0.00000472    0.00000776
     atom  113 type  1   force =     0.00000056    0.00001118   -0.00002059
     atom  114 type  1   force =    -0.00000090    0.00000411   -0.00000063
     atom  115 type  1   force =     0.00000231   -0.00000604    0.00000626
     atom  116 type  1   force =     0.00000194    0.00000627   -0.00000550
     atom  117 type  1   force =     0.00000186   -0.00000599   -0.00000516
     atom  118 type  1   force =     0.00000600   -0.00000827    0.00000016
     atom  119 type  1   force =    -0.00000253    0.00000186   -0.00001171
     atom  120 type  1   force =     0.00000236    0.00000080   -0.00000520
     atom  121 type  1   force =    -0.00001298    0.00001011   -0.00000406
     atom  122 type  1   force =     0.00000623    0.00000659   -0.00000443
     atom  123 type  1   force =     0.00001475   -0.00000464   -0.00000330
     atom  124 type  1   force =     0.00000221    0.00000822   -0.00000662
     atom  125 type  1   force =    -0.00000311   -0.00000534   -0.00000346
     atom  126 type  1   force =    -0.00000318   -0.00000851    0.00000484
     atom  127 type  1   force =    -0.00001018   -0.00000240   -0.00000061
     atom  128 type  1   force =    -0.00000192    0.00000138    0.00000623
     atom  129 type  1   force =    -0.00000181   -0.00000601    0.00000974
     atom  130 type  1   force =    -0.00001257    0.00000621    0.00000306
     atom  131 type  1   force =    -0.00000268    0.00000199    0.00000807
     atom  132 type  1   force =    -0.00000165    0.00000121    0.00001678
     atom  133 type  1   force =    -0.00001132    0.00001041    0.00000435
     atom  134 type  1   force =     0.00000091   -0.00000557   -0.00000240
     atom  135 type  1   force =     0.00000704   -0.00002165    0.00000352
     atom  136 type  1   force =    -0.00001612   -0.00000581   -0.00002540
     atom  137 type  1   force =     0.00000588    0.00000889   -0.00000523
     atom  138 type  1   force =     0.00001496   -0.00000152    0.00000921
     atom  139 type  1   force =     0.00000329    0.00002150   -0.00000693
     atom  140 type  1   force =     0.00000106   -0.00000079   -0.00000500
     atom  141 type  1   force =     0.00000873   -0.00000690   -0.00000110
     atom  142 type  1   force =     0.00000339    0.00000826   -0.00000691
     atom  143 type  1   force =    -0.00000158   -0.00000469   -0.00000354
     atom  144 type  1   force =     0.00000416   -0.00000954   -0.00000020
     atom  145 type  1   force =    -0.00000795   -0.00000348   -0.00000936
     atom  146 type  1   force =     0.00000195    0.00000479    0.00000358
     atom  147 type  1   force =     0.00001108   -0.00000415    0.00000146
     atom  148 type  1   force =    -0.00000348    0.00000768   -0.00000309
     atom  149 type  1   force =     0.00000015    0.00000034    0.00000005
     atom  150 type  1   force =     0.00000720   -0.00000079    0.00000772
     atom  151 type  1   force =    -0.00000485    0.00000813   -0.00000172
     atom  152 type  1   force =    -0.00000191   -0.00000165    0.00000311
     atom  153 type  1   force =    -0.00000350   -0.00000672    0.00000378
     atom  154 type  1   force =    -0.00000991   -0.00000177   -0.00000208
     atom  155 type  1   force =    -0.00000160    0.00000624    0.00000701
     atom  156 type  1   force =    -0.00000029    0.00000124    0.00001624
     atom  157 type  1   force =    -0.00000631    0.00001017    0.00000255
     atom  158 type  1   force =    -0.00000590   -0.00000602    0.00000054
     atom  159 type  1   force =    -0.00000236   -0.00000482    0.00000660
     atom  160 type  1   force =    -0.00000705    0.00000304   -0.00000022
     atom  161 type  1   force =     0.00000285   -0.00000982   -0.00000106
     atom  162 type  1   force =    -0.00000048   -0.00000759   -0.00000958
     atom  163 type  1   force =    -0.00000210    0.00000012   -0.00000750
     atom  164 type  1   force =     0.00000906    0.00000153    0.00000402
     atom  165 type  1   force =     0.00000659    0.00000088   -0.00000561
     atom  166 type  1   force =    -0.00000464    0.00000763   -0.00001281
     atom  167 type  1   force =     0.00000793   -0.00000308   -0.00000373
     atom  168 type  1   force =     0.00001228   -0.00000023   -0.00000016
     atom  169 type  1   force =     0.00000024    0.00001085   -0.00001075
     atom  170 type  1   force =     0.00000218   -0.00000853    0.00000184
     atom  171 type  1   force =    -0.00000181   -0.00000343   -0.00000125
     atom  172 type  1   force =    -0.00000546    0.00000032   -0.00000843
     atom  173 type  1   force =     0.00000728   -0.00000397    0.00000015
     atom  174 type  1   force =     0.00000236   -0.00000214    0.00000004
     atom  175 type  1   force =    -0.00000620    0.00000608   -0.00000612
     atom  176 type  1   force =     0.00001062   -0.00000234    0.00000854
     atom  177 type  1   force =     0.00000217    0.00000453    0.00000167
     atom  178 type  1   force =    -0.00000713    0.00001117   -0.00000197
     atom  179 type  1   force =    -0.00000400   -0.00000771   -0.00000002
     atom  180 type  1   force =    -0.00000592   -0.00000402    0.00000141
     atom  181 type  1   force =    -0.00000784   -0.00000455    0.00000063
     atom  182 type  1   force =    -0.00000014    0.00000123    0.00001132
     atom  183 type  1   force =    -0.00000190    0.00000080    0.00000244
     atom  184 type  1   force =    -0.00000536    0.00000655    0.00000190
     atom  185 type  1   force =    -0.00000077   -0.00000218    0.00001165
     atom  186 type  1   force =    -0.00000453    0.00000289    0.00000881
     atom  187 type  1   force =    -0.00000627    0.00000709   -0.00000084
     atom  188 type  1   force =     0.00000060   -0.00000430    0.00000255
     atom  189 type  1   force =     0.00000211   -0.00001486   -0.00001788
     atom  190 type  1   force =    -0.00000632   -0.00000251   -0.00000398
     atom  191 type  1   force =     0.00000202    0.00000445    0.00000739
     atom  192 type  1   force =     0.00001774    0.00001141    0.00000402
     atom  193 type  1   force =    -0.00000001    0.00001106   -0.00000620
     atom  194 type  1   force =    -0.00000043   -0.00000878    0.00000231
     atom  195 type  1   force =     0.00000271   -0.00000113   -0.00000096
     atom  196 type  1   force =    -0.00000445    0.00000396   -0.00000438
     atom  197 type  1   force =     0.00000513   -0.00000633   -0.00000122
     atom  198 type  1   force =    -0.00000911   -0.00001513    0.00000080
     atom  199 type  1   force =    -0.00000490   -0.00000221   -0.00001394
     atom  200 type  1   force =     0.00001055    0.00000071   -0.00000421
     atom  201 type  1   force =     0.00000610    0.00000711    0.00000565
     atom  202 type  1   force =    -0.00000053    0.00001015   -0.00000760
     atom  203 type  1   force =     0.00001131   -0.00000546    0.00000062
     atom  204 type  1   force =     0.00000687    0.00000180   -0.00000338
     atom  205 type  1   force =    -0.00000085    0.00001012   -0.00000864
     atom  206 type  1   force =    -0.00000071   -0.00000838    0.00000294
     atom  207 type  1   force =    -0.00000994   -0.00000817    0.00000317
     atom  208 type  1   force =    -0.00000925    0.00000047   -0.00000225
     atom  209 type  1   force =     0.00000191   -0.00000207    0.00001673
     atom  210 type  1   force =    -0.00000661    0.00000587    0.00000913
     atom  211 type  1   force =    -0.00001019    0.00001198    0.00000370
     atom  212 type  1   force =     0.00000044   -0.00000440    0.00000849
     atom  213 type  1   force =    -0.00000591    0.00000366    0.00000846
     atom  214 type  1   force =    -0.00000943    0.00000195   -0.00000142
     atom  215 type  2   force =     0.00001457   -0.00000952    0.00001441

     Total force =     0.003097     Total SCF correction =     0.000183


     Computing stress (Cartesian axis) and pressure

          total   stress  (Ry/bohr**3)                   (kbar)     P=        1.41
  -0.00002147   0.00004548   0.00002147           -3.16        6.69        3.16
   0.00004548   0.00004746  -0.00005437            6.69        6.98       -8.00
   0.00002147  -0.00005437   0.00000275            3.16       -8.00        0.41

     kinetic stress (kbar)  18911.77     15.00      1.50
                               15.00  18937.53    -20.01
                                1.50    -20.01  18920.27

     local   stress (kbar)  -3540.19     -4.82      4.17
                               -4.82  -3511.69     -1.37
                                4.17     -1.37  -3541.02

     nonloc. stress (kbar)   4202.12      0.15     -0.02
                                0.15   4201.70     -0.04
                               -0.02     -0.04   4202.17

     hartree stress (kbar)   1295.77     -6.67     -0.08
                               -6.67   1275.94     11.07
                               -0.08     11.07   1291.46

     exc-cor stress (kbar)   -452.50      0.22     -0.07
                                0.22   -452.23     -0.29
                               -0.07     -0.29   -452.37

     corecor stress (kbar)  -4254.24     -0.51      0.05
                               -0.51  -4254.93      0.66
                                0.05      0.66  -4254.53

     ewald   stress (kbar) -16165.89      3.31     -2.39
                                3.31 -16189.33      1.99
                               -2.39      1.99 -16165.57

     hubbard stress (kbar)      0.00      0.00      0.00
                                0.00      0.00      0.00
                                0.00      0.00      0.00

     DFT-D   stress (kbar)      0.00      0.00      0.00
                                0.00      0.00      0.00
                                0.00      0.00      0.00

     XDM     stress (kbar)      0.00      0.00      0.00
                                0.00      0.00      0.00
                                0.00      0.00      0.00

     dft-nl  stress (kbar)      0.00      0.00      0.00
                                0.00      0.00      0.00
                                0.00      0.00      0.00

     TS-vdW  stress (kbar)      0.00      0.00      0.00
                                0.00      0.00      0.00
                                0.00      0.00      0.00

     MDB     stress (kbar)      0.00      0.00      0.00
                                0.00      0.00      0.00
                                0.00      0.00      0.00

     3D-RISM stress (kbar)      0.00      0.00      0.00
                                0.00      0.00      0.00
                                0.00      0.00      0.00


     Writing all to output data dir ../tmp/diamond_pd.save/ :
     XML data file, charge density, pseudopotentials, collected wavefunctions
 
     init_run     :      5.85s CPU      6.27s WALL (       1 calls)
     electrons    :    469.88s CPU    478.16s WALL (       1 calls)
     forces       :      4.08s CPU      4.21s WALL (       1 calls)
     stress       :     14.25s CPU     14.39s WALL (       1 calls)

     Called by init_run:
     wfcinit      :      4.94s CPU      5.14s WALL (       1 calls)
     wfcinit:wfcr :      4.66s CPU      4.80s WALL (       2 calls)
     potinit      :      0.62s CPU      0.77s WALL (       1 calls)
     hinit0       :      0.10s CPU      0.11s WALL (       1 calls)

     Called by electrons:
     c_bands      :    421.52s CPU    429.05s WALL (      20 calls)
     sum_band     :     30.89s CPU     31.27s WALL (      20 calls)
     v_of_rho     :      0.74s CPU      0.76s WALL (      21 calls)
     v_h          :      0.04s CPU      0.04s WALL (      21 calls)
     v_xc         :      0.77s CPU      0.79s WALL (      23 calls)
     newd         :      2.86s CPU      2.93s WALL (      21 calls)
     PAW_pot      :     13.90s CPU     14.16s WALL (      21 calls)
     mix_rho      :      0.59s CPU      0.60s WALL (      20 calls)

     Called by c_bands:
     init_us_2    :      6.23s CPU      6.37s WALL (      86 calls)
     cegterg      :    414.18s CPU    421.55s WALL (      40 calls)

     Called by sum_band:
     sum_band:wei :      0.00s CPU      0.00s WALL (      20 calls)
     sum_band:loo :     27.98s CPU     28.32s WALL (      20 calls)
     sum_band:buf :      1.06s CPU      1.08s WALL (      40 calls)
     sum_band:ini :      2.91s CPU      2.96s WALL (      40 calls)
     sum_band:cal :     14.95s CPU     15.08s WALL (      40 calls)
     sum_band:bec :      0.68s CPU      0.68s WALL (      40 calls)
     addusdens    :      2.29s CPU      2.31s WALL (      20 calls)
                                        0.00s GPU  (      20 calls)
     addusd:skk   :      0.73s CPU      0.75s WALL (      40 calls)
                                        0.00s GPU  (      40 calls)

     Called by *egterg:
     cdiaghg      :     75.94s CPU     77.18s WALL (     226 calls)
     cegterg:over :     46.34s CPU     46.79s WALL (     186 calls)
     cegterg:upda :     39.09s CPU     39.52s WALL (     186 calls)
     cegterg:last :     83.65s CPU     84.49s WALL (      90 calls)
     cdiaghg:chol :      5.34s CPU      5.39s WALL (     226 calls)
     cdiaghg:inve :      1.78s CPU      1.79s WALL (     226 calls)
     cdiaghg:para :     27.70s CPU     28.02s WALL (     452 calls)
     h_psi        :    118.73s CPU    121.91s WALL (     228 calls)
     s_psi        :     37.88s CPU     38.16s WALL (     228 calls)
     g_psi        :      0.98s CPU      1.00s WALL (     186 calls)

     Called by h_psi:
     h_psi:calbec :     38.90s CPU     39.24s WALL (     228 calls)
     vloc_psi     :     38.35s CPU     39.07s WALL (     228 calls)
     add_vuspsi   :     39.50s CPU     40.61s WALL (     228 calls)

     General routines
     calbec       :     66.65s CPU     67.23s WALL (     302 calls)
     fft          :      0.29s CPU      0.29s WALL (     483 calls)
     ffts         :      0.03s CPU      0.03s WALL (      40 calls)
     fftw         :     40.92s CPU     41.67s WALL (  201866 calls)
 
     Parallel routines

     PAW routines
     PAW_pot      :     13.90s CPU     14.16s WALL (      21 calls)
 
     PWSCF        :   8m14.89s CPU   8m40.51s WALL

 
   This run was terminated on:  16:47:47   1Aug2026            

=------------------------------------------------------------------------------=
   JOB DONE.
=------------------------------------------------------------------------------=
