
     Program PWSCF v.7.4.1 starts on 23Aug2026 at  1: 0: 8 

     This program is part of the open-source Quantum ESPRESSO suite
     for quantum simulation of materials; please cite
         "P. Giannozzi et al., J. Phys.:Condens. Matter 21 395502 (2009);
         "P. Giannozzi et al., J. Phys.:Condens. Matter 29 465901 (2017);
         "P. Giannozzi et al., J. Chem. Phys. 152 154105 (2020);
          URL http://www.quantum-espresso.org", 
     in publications or presentations arising from this work. More details at
     http://www.quantum-espresso.org/quote

     Parallel version (MPI), running on    24 processors

     MPI processes distributed on     1 nodes
     123493 MiB available memory on the printing compute node when the environment starts
 
     Reading input from scf.in

     Current dimensions of program PWSCF are:
     Max number of different atomic species (ntypx) = 10
     Max number of k-points (npk) =  40000
     Max angular momentum in pseudopotentials (lmaxx) =  4
     file C.pbe-n-kjpaw_psl.1.0.0.UPF: wavefunction(s)  2S 2P renormalized
     file N.pbe-n-kjpaw_psl.1.0.0.UPF: wavefunction(s)  2S renormalized
 
     R & G space division:  proc/nbgrp/npool/nimage =      24
     Subspace diagonalization in iterative solution of the eigenvalue problem:
     one sub-group per band group will be used
     scalapack distributed-memory algorithm (size of sub-group:  4*  4 procs)

 
     Parallelization info
     --------------------
     sticks:   dense  smooth     PW     G-vecs:    dense   smooth      PW
     Min         244     244     61                14112    14112    1765
     Max         245     245     62                14117    14117    1768
     Sum        5877    5877   1473               338755   338755   42379
 
     Using Slab Decomposition
 


     bravais-lattice index     =            0
     lattice parameter (alat)  =      20.2515  a.u.
     unit-cell volume          =    8305.5769 (a.u.)^3
     number of atoms/cell      =          215
     number of atomic types    =            2
     number of electrons       =       862.00 (up: 432.00, down: 430.00)
     number of Kohn-Sham states=          862
     kinetic-energy cutoff     =      45.0000  Ry
     charge density cutoff     =     180.0000  Ry
     scf convergence threshold =      1.0E-08
     mixing beta               =       0.7000
     number of iterations used =            8  plain     mixing
     Exchange-correlation= SLA  PW   PBX  PBC
                           (   1   4   3   4   0   0   0)

     celldm(1)=  20.251472  celldm(2)=   0.000000  celldm(3)=   0.000000
     celldm(4)=   0.000000  celldm(5)=   0.000000  celldm(6)=   0.000000

     crystal axes: (cart. coord. in units of alat)
               a(1) = (  -0.707107   0.000000   0.707107 )  
               a(2) = (   0.408248   0.816497   0.408248 )  
               a(3) = (  -0.577350   0.577350  -0.577350 )  

     reciprocal axes: (cart. coord. in units 2 pi/alat)
               b(1) = ( -0.707107  0.000000  0.707107 )  
               b(2) = (  0.408248  0.816497  0.408248 )  
               b(3) = ( -0.577350  0.577350 -0.577350 )  


     PseudoPot. # 1 for C  read from file:
     ../../pseudos/C.pbe-n-kjpaw_psl.1.0.0.UPF
     MD5 check sum: 5f16ad9a65e90284d1d834d4ab3b0f7d
     Pseudo is Projector augmented-wave + core cor, Zval =  4.0
     Generated using &quot;atomic&quot; code by A. Dal Corso  v.6.3
     Shape of augmentation charge: PSQ
     Using radial grid of 1073 points,  4 beta functions with: 
                l(1) =   0
                l(2) =   0
                l(3) =   1
                l(4) =   1
     Q(r) pseudized with 0 coefficients 


     PseudoPot. # 2 for N  read from file:
     ../../pseudos/N.pbe-n-kjpaw_psl.1.0.0.UPF
     MD5 check sum: a6186d50559fdcbe4b2d0187dd61a119
     Pseudo is Projector augmented-wave + core cor, Zval =  5.0
     Generated using &quot;atomic&quot; code by A. Dal Corso  v.6.3
     Shape of augmentation charge: PSQ
     Using radial grid of 1085 points,  4 beta functions with: 
                l(1) =   0
                l(2) =   0
                l(3) =   1
                l(4) =   1
     Q(r) pseudized with 0 coefficients 


     atomic species   valence    mass     pseudopotential
     C                 4.00    12.01070     C ( 1.00)
     N                 5.00    14.00670     N ( 1.00)

     Starting magnetic structure 
     atomic species   magnetization
     C               0.000
     N               0.000

     No symmetry found



   Cartesian axes

     site n.     atom                  positions (alat units)
         1        C      tau(   1) = (  -0.0000926   0.0001059   0.0000669  )
         2        C      tau(   2) = (  -0.1925302   0.1927062  -0.1922077  )
         3        C      tau(   3) = (  -0.3849887   0.3849316  -0.3849117  )
         4        C      tau(   4) = (   0.1357846   0.2723688   0.1361071  )
         5        C      tau(   5) = (  -0.0569074   0.4653363  -0.0560021  )
         6        C      tau(   6) = (  -0.2488240   0.6571378  -0.2489449  )
         7        C      tau(   7) = (   0.2721668   0.5443842   0.2722438  )
         8        C      tau(   8) = (   0.0798221   0.7368807   0.0797012  )
         9        C      tau(   9) = (  -0.1130005   0.9288397  -0.1123739  )
        10        C      tau(  10) = (  -0.2357566   0.0002209   0.2357030  )
        11        C      tau(  11) = (  -0.4282918   0.1925426   0.0432170  )
        12        C      tau(  12) = (  -0.6205609   0.3849480  -0.1490536  )
        13        C      tau(  13) = (  -0.0996111   0.2722939   0.3718976  )
        14        C      tau(  14) = (  -0.2943418   0.4656057   0.1813669  )
        15        C      tau(  15) = (  -0.4827059   0.6574799  -0.0132036  )
        16        C      tau(  16) = (   0.0363130   0.5443323   0.5078203  )
        17        C      tau(  17) = (  -0.1559466   0.7367650   0.3135557  )
        18        C      tau(  18) = (  -0.3490314   0.9283878   0.1237668  )
        19        C      tau(  19) = (  -0.4714242   0.0000269   0.4714177  )
        20        C      tau(  20) = (  -0.6639661   0.1923760   0.2789032  )
        21        C      tau(  21) = (  -0.8562369   0.3851095   0.0865808  )
        22        C      tau(  22) = (  -0.3352577   0.2721340   0.6076115  )
        23        C      tau(  23) = (  -0.5281340   0.4643198   0.4154712  )
        24        C      tau(  24) = (  -0.7190708   0.6569109   0.2225794  )
        25        C      tau(  25) = (  -0.1993606   0.5444944   0.7434570  )
        26        C      tau(  26) = (  -0.3916121   0.7363657   0.5500380  )
        27        C      tau(  27) = (  -0.5843458   0.9294595   0.3588211  )
        28        C      tau(  28) = (  -0.0499571   0.1363171   0.1858772  )
        29        C      tau(  29) = (  -0.2426897   0.3295025  -0.0057457  )
        30        C      tau(  30) = (  -0.4348309   0.5209772  -0.1991759  )
        31        C      tau(  31) = (   0.0860816   0.4083620   0.3220816  )
        32        C      tau(  32) = (  -0.1068031   0.6025031   0.1301516  )
        33        C      tau(  33) = (  -0.2991470   0.7921005  -0.0624062  )
        34        C      tau(  34) = (   0.2223569   0.6804675   0.4581372  )
        35        C      tau(  35) = (   0.0299828   0.8730430   0.2657019  )
        36        C      tau(  36) = (  -0.1628008   1.0648967   0.0734841  )
        37        C      tau(  37) = (  -0.2854590   0.1360817   0.4217605  )
        38        C      tau(  38) = (  -0.4782583   0.3280564   0.2293333  )
        39        C      tau(  39) = (  -0.6694437   0.5213258   0.0373659  )
        40        C      tau(  40) = (  -0.1493919   0.4082976   0.5576818  )
        41        C      tau(  41) = (  -0.3430678   0.5987272   0.3632108  )
        42        C      tau(  42) = (  -0.5326432   0.7939145   0.1731702  )
        43        C      tau(  43) = (  -0.0135996   0.6804938   0.6936156  )
        44        C      tau(  44) = (  -0.2060301   0.8727458   0.5005288  )
        45        C      tau(  45) = (  -0.3983166   1.0655590   0.3089688  )
        46        C      tau(  46) = (  -0.5212605   0.1361818   0.6574090  )
        47        C      tau(  47) = (  -0.7138400   0.3286347   0.4650358  )
        48        C      tau(  48) = (  -0.9060153   0.5211068   0.2723568  )
        49        C      tau(  49) = (  -0.3851660   0.4084150   0.7933062  )
        50        C      tau(  50) = (  -0.5777368   0.6008342   0.6009534  )
        51        C      tau(  51) = (  -0.7699732   0.7931499   0.4085607  )
        52        C      tau(  52) = (  -0.2491243   0.6804726   0.9294651  )
        53        C      tau(  53) = (  -0.4414675   0.8728157   0.7368390  )
        54        C      tau(  54) = (  -0.6340651   1.0654206   0.5446536  )
        55        C      tau(  55) = (  -0.2141208   0.0964843   0.0217136  )
        56        C      tau(  56) = (  -0.4066619   0.2888024  -0.1706619  )
        57        C      tau(  57) = (  -0.5990658   0.4811569  -0.3632856  )
        58        C      tau(  58) = (  -0.0790229   0.3692147   0.1579211  )
        59        C      tau(  59) = (  -0.2714953   0.5625420  -0.0345406  )
        60        C      tau(  60) = (  -0.4630249   0.7534193  -0.2273058  )
        61        C      tau(  61) = (   0.0582507   0.6406189   0.2939057  )
        62        C      tau(  62) = (  -0.1346325   0.8320184   0.1021083  )
        63        C      tau(  63) = (  -0.3270367   1.0250464  -0.0907518  )
        64        C      tau(  64) = (  -0.4499376   0.0961724   0.2572818  )
        65        C      tau(  65) = (  -0.6422432   0.2887118   0.0648305  )
        66        C      tau(  66) = (  -0.8345641   0.4812944  -0.1273489  )
        67        C      tau(  67) = (  -0.3137750   0.3679667   0.3938165  )
        68        C      tau(  68) = (  -0.5037561   0.5597376   0.2025224  )
        69        C      tau(  69) = (  -0.6978157   0.7534187   0.0087433  )
        70        C      tau(  70) = (  -0.1783181   0.6404929   0.5284914  )
        71        C      tau(  71) = (  -0.3705770   0.8332384   0.3352365  )
        72        C      tau(  72) = (  -0.5626784   1.0256782   0.1446069  )
        73        C      tau(  73) = (  -0.6856141   0.0963029   0.4930553  )
        74        C      tau(  74) = (  -0.8778996   0.2888578   0.3005726  )
        75        C      tau(  75) = (  -1.0703993   0.4811978   0.1081901  )
        76        C      tau(  76) = (  -0.5496104   0.3684835   0.6292654  )
        77        C      tau(  77) = (  -0.7419075   0.5609997   0.4367827  )
        78        C      tau(  78) = (  -0.9341173   0.7532788   0.2441892  )
        79        C      tau(  79) = (  -0.4133026   0.6406589   0.7650695  )
        80        C      tau(  80) = (  -0.6058427   0.8329746   0.5726912  )
        81        C      tau(  81) = (  -0.7983324   1.0255627   0.3803863  )
        82        C      tau(  82) = (  -0.0284709   0.2326832  -0.0279875  )
        83        C      tau(  83) = (  -0.2206711   0.4245999  -0.2211536  )
        84        C      tau(  84) = (  -0.4131282   0.6173203  -0.4130120  )
        85        C      tau(  85) = (   0.1084403   0.5044558   0.1079578  )
        86        C      tau(  86) = (  -0.0849727   0.6970804  -0.0841674  )
        87        C      tau(  87) = (  -0.2770485   0.8896389  -0.2776403  )
        88        C      tau(  88) = (   0.2438844   0.7767382   0.2440005  )
        89        C      tau(  89) = (   0.0520888   0.9695010   0.0514970  )
        90        C      tau(  90) = (  -0.1410578   1.1614180  -0.1407494  )
        91        C      tau(  91) = (  -0.2639971   0.2320650   0.2076887  )
        92        C      tau(  92) = (  -0.4562452   0.4251280   0.0153158  )
        93        C      tau(  93) = (  -0.6491326   0.6171898  -0.1778696  )
        94        C      tau(  94) = (  -0.1281280   0.5047426   0.3434330  )
        95        C      tau(  95) = (  -0.5124165   0.8892120  -0.0409865  )
        96        C      tau(  96) = (   0.0087480   0.7768184   0.4800111  )
        97        C      tau(  97) = (  -0.1844276   0.9687955   0.2870024  )
        98        C      tau(  98) = (  -0.3768511   1.1623045   0.0948287  )
        99        C      tau(  99) = (  -0.4997047   0.2322461   0.4433523  )
       100        C      tau( 100) = (  -0.6922843   0.4245770   0.2509547  )
       101        C      tau( 101) = (  -0.8841581   0.6173062   0.0584547  )
       102        C      tau( 102) = (  -0.3636485   0.5043174   0.5795905  )
       103        C      tau( 103) = (  -0.5557386   0.6969496   0.3866302  )
       104        C      tau( 104) = (  -0.7489268   0.8898340   0.1945697  )
       105        C      tau( 105) = (  -0.2275666   0.7766220   0.7150463  )
       106        C      tau( 106) = (  -0.4201576   0.9696067   0.5233388  )
       107        C      tau( 107) = (  -0.6123513   1.1616078   0.3304980  )
       108        C      tau( 108) = (  -0.0731565   0.1164110   0.0449105  )
       109        C      tau( 109) = (  -0.2657038   0.3090329  -0.1473357  )
       110        C      tau( 110) = (  -0.4580311   0.5010412  -0.3401222  )
       111        C      tau( 111) = (   0.0626849   0.3887134   0.1810529  )
       112        C      tau( 112) = (  -0.1301312   0.5816097  -0.0109910  )
       113        C      tau( 113) = (  -0.3216905   0.7740023  -0.2050324  )
       114        C      tau( 114) = (   0.1992021   0.6605127   0.3171109  )
       115        C      tau( 115) = (   0.0075364   0.8538861   0.1241945  )
       116        C      tau( 116) = (  -0.1859528   1.0451052  -0.0676322  )
       117        C      tau( 117) = (  -0.3087947   0.1160835   0.2806281  )
       118        C      tau( 118) = (  -0.5012610   0.3086172   0.0881312  )
       119        C      tau( 119) = (  -0.6932688   0.5012199  -0.1041423  )
       120        C      tau( 120) = (  -0.1726866   0.3883428   0.4167056  )
       121        C      tau( 121) = (  -0.5565039   0.7732605   0.0320818  )
       122        C      tau( 122) = (  -0.0367987   0.6605062   0.5523278  )
       123        C      tau( 123) = (  -0.2293371   0.8526445   0.3592486  )
       124        C      tau( 124) = (  -0.4215207   1.0467424   0.1675384  )
       125        C      tau( 125) = (  -0.5445147   0.1161535   0.5163311  )
       126        C      tau( 126) = (  -0.7370278   0.3085705   0.3238882  )
       127        C      tau( 127) = (  -0.9291961   0.5011924   0.1313881  )
       128        C      tau( 128) = (  -0.4084328   0.3883010   0.6524831  )
       129        C      tau( 129) = (  -0.6008930   0.5808177   0.4599630  )
       130        C      tau( 130) = (  -0.7928439   0.7732653   0.2674788  )
       131        C      tau( 131) = (  -0.2723340   0.6605739   0.7882502  )
       132        C      tau( 132) = (  -0.4647622   0.8528712   0.5955604  )
       133        C      tau( 133) = (  -0.6573209   1.0455113   0.4036373  )
       134        C      tau( 134) = (  -0.1230479   0.2525128   0.2308347  )
       135        C      tau( 135) = (  -0.3161706   0.4464324   0.0392031  )
       136        C      tau( 136) = (  -0.5088800   0.6369244  -0.1548968  )
       137        C      tau( 137) = (   0.0131308   0.5245266   0.3668018  )
       138        C      tau( 138) = (  -0.1670459   0.7187877   0.1763093  )
       139        C      tau( 139) = (  -0.3717336   0.9086859  -0.0175472  )
       140        C      tau( 140) = (   0.1494581   0.7967595   0.5032146  )
       141        C      tau( 141) = (  -0.0432587   0.9890726   0.3104343  )
       142        C      tau( 142) = (  -0.2356485   1.1815279   0.1180721  )
       143        C      tau( 143) = (  -0.3585869   0.2519990   0.4667045  )
       144        C      tau( 144) = (  -0.5517101   0.4438775   0.2744914  )
       145        C      tau( 145) = (  -0.7427656   0.6372933   0.0817089  )
       146        C      tau( 146) = (  -0.2225836   0.5244489   0.6023049  )
       147        C      tau( 147) = (  -0.4150137   0.7164764   0.4080881  )
       148        C      tau( 148) = (  -0.6087275   0.9097147   0.2177420  )
       149        C      tau( 149) = (  -0.0865138   0.7965614   0.7384457  )
       150        C      tau( 150) = (  -0.2789227   0.9890216   0.5460283  )
       151        C      tau( 151) = (  -0.4712283   1.1816609   0.3538079  )
       152        C      tau( 152) = (  -0.5944580   0.2524398   0.7022688  )
       153        C      tau( 153) = (  -0.7868569   0.4448734   0.5098150  )
       154        C      tau( 154) = (  -0.9790531   0.6372132   0.3171853  )
       155        C      tau( 155) = (  -0.4579240   0.5243080   0.8381459  )
       156        C      tau( 156) = (  -0.6507610   0.7169485   0.6458127  )
       157        C      tau( 157) = (  -0.8431256   0.9093351   0.4533564  )
       158        C      tau( 158) = (  -0.3221661   0.7966442   0.9743309  )
       159        C      tau( 159) = (  -0.5142972   0.9893810   0.7817561  )
       160        C      tau( 160) = (  -0.7070950   1.1814557   0.5894881  )
       161        C      tau( 161) = (  -0.2872703   0.2126658   0.0666123  )
       162        C      tau( 162) = (  -0.4795695   0.4049774  -0.1258986  )
       163        C      tau( 163) = (  -0.6723491   0.5973556  -0.3185927  )
       164        C      tau( 164) = (  -0.1523482   0.4861824   0.2030254  )
       165        C      tau( 165) = (  -0.3454643   0.6754962  -0.0021091  )
       166        C      tau( 166) = (  -0.5359209   0.8695327  -0.1822279  )
       167        C      tau( 167) = (  -0.0142088   0.7569518   0.3397745  )
       168        C      tau( 168) = (  -0.2077638   0.9484717   0.1464226  )
       169        C      tau( 169) = (  -0.3999231   1.1416682  -0.0462025  )
       170        C      tau( 170) = (  -0.5230095   0.2121034   0.3022818  )
       171        C      tau( 171) = (  -0.7150604   0.4049540   0.1098282  )
       172        C      tau( 172) = (  -0.9075547   0.5973435  -0.0825952  )
       173        C      tau( 173) = (  -0.3870415   0.4838328   0.4391600  )
       174        C      tau( 174) = (  -0.5771613   0.6771328   0.2459406  )
       175        C      tau( 175) = (  -0.7715050   0.8695011   0.0534461  )
       176        C      tau( 176) = (  -0.2508236   0.7566584   0.5736509  )
       177        C      tau( 177) = (  -0.4433443   0.9498434   0.3831253  )
       178        C      tau( 178) = (  -0.6356858   1.1417568   0.1893505  )
       179        C      tau( 179) = (  -0.7586865   0.2125913   0.5380402  )
       180        C      tau( 180) = (  -0.9508538   0.4047032   0.3452160  )
       181        C      tau( 181) = (  -1.1434528   0.5973666   0.1530443  )
       182        C      tau( 182) = (  -0.6225948   0.4847301   0.6740771  )
       183        C      tau( 183) = (  -0.8149406   0.6771119   0.4816331  )
       184        C      tau( 184) = (  -1.0073073   0.8697567   0.2887460  )
       185        C      tau( 185) = (  -0.4863044   0.7567741   0.8099340  )
       186        C      tau( 186) = (  -0.6788344   0.9491988   0.6176477  )
       187        C      tau( 187) = (  -0.8713229   1.1416073   0.4252602  )
       188        C      tau( 188) = (  -0.1016536   0.3491193   0.0169431  )
       189        C      tau( 189) = (  -0.2933469   0.5400439  -0.1766704  )
       190        C      tau( 190) = (  -0.4862715   0.7335501  -0.3682699  )
       191        C      tau( 191) = (   0.0359405   0.6199424   0.1526170  )
       192        C      tau( 192) = (  -0.1580442   0.8126347  -0.0391341  )
       193        C      tau( 193) = (  -0.3501057   1.0055649  -0.2321230  )
       194        C      tau( 194) = (   0.1709345   0.8930150   0.2889361  )
       195        C      tau( 195) = (  -0.0215400   1.0852883   0.0964427  )
       196        C      tau( 196) = (  -0.2140142   1.2776581  -0.0959976  )
       197        C      tau( 197) = (  -0.3371095   0.3474153   0.2528124  )
       198        C      tau( 198) = (  -0.5274867   0.5414184   0.0605511  )
       199        C      tau( 199) = (  -0.7216966   0.7334219  -0.1324415  )
       200        C      tau( 200) = (  -0.2015169   0.6205120   0.3865210  )
       201        C      tau( 201) = (  -0.3995649   0.8233018   0.1997984  )
       202        C      tau( 202) = (  -0.5857045   1.0055437   0.0035663  )
       203        C      tau( 203) = (  -0.0648522   0.8927991   0.5244029  )
       204        C      tau( 204) = (  -0.2572218   1.0852470   0.3320491  )
       205        C      tau( 205) = (  -0.4496942   1.2781797   0.1395558  )
       206        C      tau( 206) = (  -0.5728664   0.3483158   0.4883508  )
       207        C      tau( 207) = (  -0.7648564   0.5410001   0.2956703  )
       208        C      tau( 208) = (  -0.9573529   0.7333947   0.1032542  )
       209        C      tau( 209) = (  -0.4366019   0.6206480   0.6239249  )
       210        C      tau( 210) = (  -0.6289686   0.8131440   0.4316668  )
       211        C      tau( 211) = (  -0.8218175   1.0057118   0.2392322  )
       212        C      tau( 212) = (  -0.3005404   0.8927641   0.7600667  )
       213        C      tau( 213) = (  -0.4929401   1.0855109   0.5681097  )
       214        C      tau( 214) = (  -0.6853811   1.2777430   0.3753487  )
       215        N      tau( 215) = (  -0.3683841   0.5724535   0.2294836  )

     number of k points=     1
                       cart. coord. in units 2pi/alat
        k(    1) = (   0.0000000   0.0000000   0.0000000), wk =   1.0000000

     Dense  grid:   338755 G-vectors     FFT dimensions: (  90,  90,  90)

     Estimated max dynamical RAM per process >     300.93 MB

     Estimated total dynamical RAM >       7.05 GB

     Check: negative core charge=   -0.000075
     Generating pointlists ...
     new r_m :   0.0572 (alat units)  1.1579 (a.u.) for type    1
     new r_m :   0.0572 (alat units)  1.1579 (a.u.) for type    2

     Initial potential from superposition of free atoms

     starting charge     860.9911, renormalised to     862.0000
     Starting wfcs are random
     Checking if some PAW data can be deallocated... 

     total cpu time spent up to now is        6.0 secs

     per-process dynamical memory:   204.2 Mb

     Self-consistent Calculation

     iteration #  1     ecut=    45.00 Ry     beta= 0.70
     Davidson diagonalization with overlap
     ethr =  1.00E-02,  avg # of iterations =  9.0

     total cpu time spent up to now is       69.4 secs

     total energy              =   -3970.29305565 Ry
     estimated scf accuracy    <      12.60266914 Ry

     total magnetization       =     2.00 Bohr mag/cell
     absolute magnetization    =     2.17 Bohr mag/cell

     iteration #  2     ecut=    45.00 Ry     beta= 0.70
     Davidson diagonalization with overlap
     ethr =  1.46E-03,  avg # of iterations =  3.0

     total cpu time spent up to now is       86.3 secs

     total energy              =   -3970.78454016 Ry
     estimated scf accuracy    <       1.02959937 Ry

     total magnetization       =     2.00 Bohr mag/cell
     absolute magnetization    =     2.13 Bohr mag/cell

     iteration #  3     ecut=    45.00 Ry     beta= 0.70
     Davidson diagonalization with overlap
     ethr =  1.19E-04,  avg # of iterations = 12.0

     total cpu time spent up to now is      128.7 secs

     total energy              =   -3970.13246594 Ry
     estimated scf accuracy    <       6.94067893 Ry

     total magnetization       =     2.00 Bohr mag/cell
     absolute magnetization    =     2.19 Bohr mag/cell

     iteration #  4     ecut=    45.00 Ry     beta= 0.70
     Davidson diagonalization with overlap
     ethr =  1.19E-04,  avg # of iterations =  8.5

     total cpu time spent up to now is      154.6 secs

     total energy              =   -3971.32552752 Ry
     estimated scf accuracy    <       0.10516481 Ry

     total magnetization       =     2.00 Bohr mag/cell
     absolute magnetization    =     2.15 Bohr mag/cell

     iteration #  5     ecut=    45.00 Ry     beta= 0.70
     Davidson diagonalization with overlap
     ethr =  1.22E-05,  avg # of iterations =  5.0

     total cpu time spent up to now is      173.3 secs

     total energy              =   -3971.34094900 Ry
     estimated scf accuracy    <       0.02381672 Ry

     total magnetization       =     2.00 Bohr mag/cell
     absolute magnetization    =     2.18 Bohr mag/cell

     iteration #  6     ecut=    45.00 Ry     beta= 0.70
     Davidson diagonalization with overlap
     ethr =  2.76E-06,  avg # of iterations = 15.0

     total cpu time spent up to now is      198.9 secs

     total energy              =   -3971.34509737 Ry
     estimated scf accuracy    <       0.00516972 Ry

     total magnetization       =     2.00 Bohr mag/cell
     absolute magnetization    =     2.20 Bohr mag/cell

     iteration #  7     ecut=    45.00 Ry     beta= 0.70
     Davidson diagonalization with overlap
     ethr =  6.00E-07,  avg # of iterations =  3.0

     total cpu time spent up to now is      215.9 secs

     total energy              =   -3971.34622506 Ry
     estimated scf accuracy    <       0.00061747 Ry

     total magnetization       =     2.00 Bohr mag/cell
     absolute magnetization    =     2.22 Bohr mag/cell

     iteration #  8     ecut=    45.00 Ry     beta= 0.70
     Davidson diagonalization with overlap
     ethr =  7.16E-08,  avg # of iterations =  2.5

     total cpu time spent up to now is      232.6 secs

     total energy              =   -3971.34639421 Ry
     estimated scf accuracy    <       0.00035156 Ry

     total magnetization       =     2.00 Bohr mag/cell
     absolute magnetization    =     2.24 Bohr mag/cell

     iteration #  9     ecut=    45.00 Ry     beta= 0.70
     Davidson diagonalization with overlap
     ethr =  4.08E-08,  avg # of iterations =  2.0

     total cpu time spent up to now is      249.0 secs

     total energy              =   -3971.34647423 Ry
     estimated scf accuracy    <       0.00007435 Ry

     total magnetization       =     2.00 Bohr mag/cell
     absolute magnetization    =     2.24 Bohr mag/cell

     iteration # 10     ecut=    45.00 Ry     beta= 0.70
     Davidson diagonalization with overlap
     ethr =  8.62E-09,  avg # of iterations =  2.0

     total cpu time spent up to now is      265.5 secs

     total energy              =   -3971.34649352 Ry
     estimated scf accuracy    <       0.00000950 Ry

     total magnetization       =     2.00 Bohr mag/cell
     absolute magnetization    =     2.25 Bohr mag/cell

     iteration # 11     ecut=    45.00 Ry     beta= 0.70
     Davidson diagonalization with overlap
     ethr =  1.10E-09,  avg # of iterations =  3.0

     total cpu time spent up to now is      282.9 secs

     total energy              =   -3971.34649630 Ry
     estimated scf accuracy    <       0.00000565 Ry

     total magnetization       =     2.00 Bohr mag/cell
     absolute magnetization    =     2.25 Bohr mag/cell

     iteration # 12     ecut=    45.00 Ry     beta= 0.70
     Davidson diagonalization with overlap
     ethr =  6.56E-10,  avg # of iterations =  2.0

     total cpu time spent up to now is      299.3 secs

     total energy              =   -3971.34649759 Ry
     estimated scf accuracy    <       0.00000091 Ry

     total magnetization       =     2.00 Bohr mag/cell
     absolute magnetization    =     2.26 Bohr mag/cell

     iteration # 13     ecut=    45.00 Ry     beta= 0.70
     Davidson diagonalization with overlap
     ethr =  1.06E-10,  avg # of iterations =  2.0

     total cpu time spent up to now is      315.8 secs

     total energy              =   -3971.34649786 Ry
     estimated scf accuracy    <       0.00000012 Ry

     total magnetization       =     2.00 Bohr mag/cell
     absolute magnetization    =     2.26 Bohr mag/cell

     iteration # 14     ecut=    45.00 Ry     beta= 0.70
     Davidson diagonalization with overlap
     ethr =  1.34E-11,  avg # of iterations =  3.0

     total cpu time spent up to now is      333.2 secs

     total energy              =   -3971.34649790 Ry
     estimated scf accuracy    <       0.00000003 Ry

     total magnetization       =     2.00 Bohr mag/cell
     absolute magnetization    =     2.26 Bohr mag/cell

     iteration # 15     ecut=    45.00 Ry     beta= 0.70
     Davidson diagonalization with overlap
     ethr =  3.41E-12,  avg # of iterations =  2.5
 
     Magnetic moment per site  (integrated on atomic sphere of radius R)
     atom   1 (R=0.057)  charge=  1.8431  magn= -0.0000
     atom   2 (R=0.057)  charge=  1.8435  magn= -0.0001
     atom   3 (R=0.057)  charge=  1.8443  magn= -0.0001
     atom   4 (R=0.057)  charge=  1.8435  magn= -0.0001
     atom   5 (R=0.057)  charge=  1.8423  magn= -0.0007
     atom   6 (R=0.057)  charge=  1.8428  magn= -0.0010
     atom   7 (R=0.057)  charge=  1.8443  magn= -0.0001
     atom   8 (R=0.057)  charge=  1.8428  magn= -0.0010
     atom   9 (R=0.057)  charge=  1.8423  magn= -0.0004
     atom  10 (R=0.057)  charge=  1.8489  magn=  0.0014
     atom  11 (R=0.057)  charge=  1.8444  magn= -0.0001
     atom  12 (R=0.057)  charge=  1.8443  magn= -0.0001
     atom  13 (R=0.057)  charge=  1.8444  magn= -0.0001
     atom  14 (R=0.057)  charge=  1.8127  magn=  0.0008
     atom  15 (R=0.057)  charge=  1.8476  magn= -0.0036
     atom  16 (R=0.057)  charge=  1.8443  magn= -0.0001
     atom  17 (R=0.057)  charge=  1.8476  magn= -0.0036
     atom  18 (R=0.057)  charge=  1.8487  magn= -0.0072
     atom  19 (R=0.057)  charge=  1.8428  magn=  0.0000
     atom  20 (R=0.057)  charge=  1.8446  magn= -0.0000
     atom  21 (R=0.057)  charge=  1.8441  magn= -0.0001
     atom  22 (R=0.057)  charge=  1.8446  magn= -0.0000
     atom  23 (R=0.057)  charge=  1.8458  magn= -0.0001
     atom  24 (R=0.057)  charge=  1.8390  magn= -0.0002
     atom  25 (R=0.057)  charge=  1.8441  magn= -0.0001
     atom  26 (R=0.057)  charge=  1.8390  magn= -0.0002
     atom  27 (R=0.057)  charge=  1.8438  magn= -0.0010
     atom  28 (R=0.057)  charge=  1.8442  magn= -0.0001
     atom  29 (R=0.057)  charge=  1.8387  magn= -0.0002
     atom  30 (R=0.057)  charge=  1.8435  magn= -0.0010
     atom  31 (R=0.057)  charge=  1.8444  magn= -0.0001
     atom  32 (R=0.057)  charge=  1.8473  magn= -0.0036
     atom  33 (R=0.057)  charge=  1.8487  magn= -0.0072
     atom  34 (R=0.057)  charge=  1.8443  magn= -0.0001
     atom  35 (R=0.057)  charge=  1.8429  magn= -0.0010
     atom  36 (R=0.057)  charge=  1.8423  magn= -0.0004
     atom  37 (R=0.057)  charge=  1.8446  magn= -0.0000
     atom  38 (R=0.057)  charge=  1.8457  magn= -0.0001
     atom  39 (R=0.057)  charge=  1.8388  magn= -0.0002
     atom  40 (R=0.057)  charge=  1.8443  magn= -0.0001
     atom  41 (R=0.057)  charge=  1.8129  magn=  0.0008
     atom  42 (R=0.057)  charge=  1.8476  magn= -0.0036
     atom  43 (R=0.057)  charge=  1.8434  magn= -0.0001
     atom  44 (R=0.057)  charge=  1.8425  magn= -0.0007
     atom  45 (R=0.057)  charge=  1.8430  magn= -0.0010
     atom  46 (R=0.057)  charge=  1.8429  magn=  0.0000
     atom  47 (R=0.057)  charge=  1.8448  magn= -0.0000
     atom  48 (R=0.057)  charge=  1.8440  magn= -0.0001
     atom  49 (R=0.057)  charge=  1.8488  magn=  0.0014
     atom  50 (R=0.057)  charge=  1.8444  magn= -0.0001
     atom  51 (R=0.057)  charge=  1.8443  magn= -0.0001
     atom  52 (R=0.057)  charge=  1.8431  magn= -0.0000
     atom  53 (R=0.057)  charge=  1.8432  magn= -0.0001
     atom  54 (R=0.057)  charge=  1.8444  magn= -0.0001
     atom  55 (R=0.057)  charge=  1.8442  magn= -0.0001
     atom  56 (R=0.057)  charge=  1.8444  magn= -0.0001
     atom  57 (R=0.057)  charge=  1.8443  magn= -0.0001
     atom  58 (R=0.057)  charge=  1.8387  magn= -0.0002
     atom  59 (R=0.057)  charge=  1.8473  magn= -0.0036
     atom  60 (R=0.057)  charge=  1.8429  magn= -0.0010
     atom  61 (R=0.057)  charge=  1.8435  magn= -0.0010
     atom  62 (R=0.057)  charge=  1.8487  magn= -0.0072
     atom  63 (R=0.057)  charge=  1.8423  magn= -0.0004
     atom  64 (R=0.057)  charge=  1.8446  magn= -0.0000
     atom  65 (R=0.057)  charge=  1.8443  magn= -0.0001
     atom  66 (R=0.057)  charge=  1.8434  magn= -0.0001
     atom  67 (R=0.057)  charge=  1.8457  magn= -0.0001
     atom  68 (R=0.057)  charge=  1.8129  magn=  0.0008
     atom  69 (R=0.057)  charge=  1.8425  magn= -0.0007
     atom  70 (R=0.057)  charge=  1.8388  magn= -0.0002
     atom  71 (R=0.057)  charge=  1.8476  magn= -0.0036
     atom  72 (R=0.057)  charge=  1.8430  magn= -0.0010
     atom  73 (R=0.057)  charge=  1.8429  magn=  0.0000
     atom  74 (R=0.057)  charge=  1.8488  magn=  0.0014
     atom  75 (R=0.057)  charge=  1.8431  magn= -0.0000
     atom  76 (R=0.057)  charge=  1.8448  magn= -0.0000
     atom  77 (R=0.057)  charge=  1.8444  magn= -0.0001
     atom  78 (R=0.057)  charge=  1.8432  magn= -0.0001
     atom  79 (R=0.057)  charge=  1.8440  magn= -0.0001
     atom  80 (R=0.057)  charge=  1.8443  magn= -0.0001
     atom  81 (R=0.057)  charge=  1.8444  magn= -0.0001
     atom  82 (R=0.057)  charge=  1.8436  magn=  0.0001
     atom  83 (R=0.057)  charge=  1.8495  magn=  0.0033
     atom  84 (R=0.057)  charge=  1.8434  magn= -0.0000
     atom  85 (R=0.057)  charge=  1.8495  magn=  0.0033
     atom  86 (R=0.057)  charge=  1.8459  magn= -0.0009
     atom  87 (R=0.057)  charge=  1.8490  magn=  0.0020
     atom  88 (R=0.057)  charge=  1.8434  magn= -0.0000
     atom  89 (R=0.057)  charge=  1.8490  magn=  0.0020
     atom  90 (R=0.057)  charge=  1.8437  magn= -0.0001
     atom  91 (R=0.057)  charge=  1.8475  magn=  0.0002
     atom  92 (R=0.057)  charge=  1.8476  magn= -0.0006
     atom  93 (R=0.057)  charge=  1.8496  magn=  0.0033
     atom  94 (R=0.057)  charge=  1.8476  magn= -0.0006
     atom  95 (R=0.057)  charge=  1.8456  magn= -0.0009
     atom  96 (R=0.057)  charge=  1.8496  magn=  0.0033
     atom  97 (R=0.057)  charge=  1.8456  magn= -0.0009
     atom  98 (R=0.057)  charge=  1.8490  magn=  0.0020
     atom  99 (R=0.057)  charge=  1.8441  magn=  0.0000
     atom 100 (R=0.057)  charge=  1.8476  magn=  0.0002
     atom 101 (R=0.057)  charge=  1.8433  magn=  0.0001
     atom 102 (R=0.057)  charge=  1.8476  magn=  0.0002
     atom 103 (R=0.057)  charge=  1.8473  magn= -0.0006
     atom 104 (R=0.057)  charge=  1.8497  magn=  0.0033
     atom 105 (R=0.057)  charge=  1.8433  magn=  0.0001
     atom 106 (R=0.057)  charge=  1.8497  magn=  0.0033
     atom 107 (R=0.057)  charge=  1.8434  magn= -0.0000
     atom 108 (R=0.057)  charge=  1.8437  magn=  0.0002
     atom 109 (R=0.057)  charge=  1.8400  magn=  0.0002
     atom 110 (R=0.057)  charge=  1.8440  magn=  0.0010
     atom 111 (R=0.057)  charge=  1.8400  magn=  0.0002
     atom 112 (R=0.057)  charge=  1.8390  magn=  0.0061
     atom 113 (R=0.057)  charge=  1.8404  magn=  0.0169
     atom 114 (R=0.057)  charge=  1.8440  magn=  0.0010
     atom 115 (R=0.057)  charge=  1.8404  magn=  0.0169
     atom 116 (R=0.057)  charge=  1.8420  magn=  0.0002
     atom 117 (R=0.057)  charge=  1.8445  magn=  0.0002
     atom 118 (R=0.057)  charge=  1.8433  magn=  0.0008
     atom 119 (R=0.057)  charge=  1.8403  magn=  0.0002
     atom 120 (R=0.057)  charge=  1.8433  magn=  0.0008
     atom 121 (R=0.057)  charge=  1.8391  magn=  0.0061
     atom 122 (R=0.057)  charge=  1.8403  magn=  0.0002
     atom 123 (R=0.057)  charge=  1.8391  magn=  0.0061
     atom 124 (R=0.057)  charge=  1.8403  magn=  0.0169
     atom 125 (R=0.057)  charge=  1.8434  magn=  0.0001
     atom 126 (R=0.057)  charge=  1.8445  magn=  0.0002
     atom 127 (R=0.057)  charge=  1.8437  magn=  0.0002
     atom 128 (R=0.057)  charge=  1.8445  magn=  0.0002
     atom 129 (R=0.057)  charge=  1.8433  magn=  0.0008
     atom 130 (R=0.057)  charge=  1.8404  magn=  0.0002
     atom 131 (R=0.057)  charge=  1.8437  magn=  0.0002
     atom 132 (R=0.057)  charge=  1.8404  magn=  0.0002
     atom 133 (R=0.057)  charge=  1.8440  magn=  0.0010
     atom 134 (R=0.057)  charge=  1.8426  magn=  0.0002
     atom 135 (R=0.057)  charge=  1.8370  magn=  0.0040
     atom 136 (R=0.057)  charge=  1.8407  magn=  0.0182
     atom 137 (R=0.057)  charge=  1.8433  magn=  0.0009
     atom 138 (R=0.057)  charge=  1.8532  magn=  0.2416
     atom 139 (R=0.057)  charge=  1.8401  magn=  0.0069
     atom 140 (R=0.057)  charge=  1.8451  magn=  0.0017
     atom 141 (R=0.057)  charge=  1.8431  magn=  0.0016
     atom 142 (R=0.057)  charge=  1.8420  magn=  0.0001
     atom 143 (R=0.057)  charge=  1.8451  magn=  0.0000
     atom 144 (R=0.057)  charge=  1.8474  magn=  0.0002
     atom 145 (R=0.057)  charge=  1.8423  magn=  0.0003
     atom 146 (R=0.057)  charge=  1.8426  magn=  0.0002
     atom 147 (R=0.057)  charge=  1.8370  magn=  0.0040
     atom 148 (R=0.057)  charge=  1.8407  magn=  0.0182
     atom 149 (R=0.057)  charge=  1.8435  magn=  0.0001
     atom 150 (R=0.057)  charge=  1.8422  magn=  0.0001
     atom 151 (R=0.057)  charge=  1.8438  magn=  0.0011
     atom 152 (R=0.057)  charge=  1.8435  magn=  0.0001
     atom 153 (R=0.057)  charge=  1.8422  magn=  0.0001
     atom 154 (R=0.057)  charge=  1.8438  magn=  0.0011
     atom 155 (R=0.057)  charge=  1.8452  magn=  0.0017
     atom 156 (R=0.057)  charge=  1.8431  magn=  0.0016
     atom 157 (R=0.057)  charge=  1.8420  magn=  0.0001
     atom 158 (R=0.057)  charge=  1.8433  magn=  0.0005
     atom 159 (R=0.057)  charge=  1.8437  magn=  0.0013
     atom 160 (R=0.057)  charge=  1.8437  magn=  0.0001
     atom 161 (R=0.057)  charge=  1.8426  magn=  0.0002
     atom 162 (R=0.057)  charge=  1.8433  magn=  0.0009
     atom 163 (R=0.057)  charge=  1.8451  magn=  0.0017
     atom 164 (R=0.057)  charge=  1.8370  magn=  0.0040
     atom 165 (R=0.057)  charge=  1.8532  magn=  0.2416
     atom 166 (R=0.057)  charge=  1.8431  magn=  0.0016
     atom 167 (R=0.057)  charge=  1.8407  magn=  0.0182
     atom 168 (R=0.057)  charge=  1.8401  magn=  0.0069
     atom 169 (R=0.057)  charge=  1.8420  magn=  0.0001
     atom 170 (R=0.057)  charge=  1.8451  magn=  0.0000
     atom 171 (R=0.057)  charge=  1.8426  magn=  0.0002
     atom 172 (R=0.057)  charge=  1.8435  magn=  0.0001
     atom 173 (R=0.057)  charge=  1.8474  magn=  0.0002
     atom 174 (R=0.057)  charge=  1.8370  magn=  0.0040
     atom 175 (R=0.057)  charge=  1.8422  magn=  0.0001
     atom 176 (R=0.057)  charge=  1.8423  magn=  0.0003
     atom 177 (R=0.057)  charge=  1.8407  magn=  0.0182
     atom 178 (R=0.057)  charge=  1.8438  magn=  0.0011
     atom 179 (R=0.057)  charge=  1.8435  magn=  0.0001
     atom 180 (R=0.057)  charge=  1.8452  magn=  0.0017
     atom 181 (R=0.057)  charge=  1.8433  magn=  0.0005
     atom 182 (R=0.057)  charge=  1.8422  magn=  0.0001
     atom 183 (R=0.057)  charge=  1.8431  magn=  0.0016
     atom 184 (R=0.057)  charge=  1.8437  magn=  0.0013
     atom 185 (R=0.057)  charge=  1.8438  magn=  0.0011
     atom 186 (R=0.057)  charge=  1.8420  magn=  0.0001
     atom 187 (R=0.057)  charge=  1.8437  magn=  0.0001
     atom 188 (R=0.057)  charge=  1.8421  magn=  0.0003
     atom 189 (R=0.057)  charge=  1.8407  magn=  0.0182
     atom 190 (R=0.057)  charge=  1.8438  magn=  0.0011
     atom 191 (R=0.057)  charge=  1.8407  magn=  0.0182
     atom 192 (R=0.057)  charge=  1.8400  magn=  0.0069
     atom 193 (R=0.057)  charge=  1.8420  magn=  0.0001
     atom 194 (R=0.057)  charge=  1.8438  magn=  0.0011
     atom 195 (R=0.057)  charge=  1.8420  magn=  0.0001
     atom 196 (R=0.057)  charge=  1.8437  magn=  0.0001
     atom 197 (R=0.057)  charge=  1.8474  magn=  0.0002
     atom 198 (R=0.057)  charge=  1.8370  magn=  0.0040
     atom 199 (R=0.057)  charge=  1.8422  magn=  0.0001
     atom 200 (R=0.057)  charge=  1.8370  magn=  0.0040
     atom 201 (R=0.057)  charge=  1.8528  magn=  0.2415
     atom 202 (R=0.057)  charge=  1.8431  magn=  0.0016
     atom 203 (R=0.057)  charge=  1.8422  magn=  0.0001
     atom 204 (R=0.057)  charge=  1.8431  magn=  0.0016
     atom 205 (R=0.057)  charge=  1.8436  magn=  0.0013
     atom 206 (R=0.057)  charge=  1.8450  magn=  0.0000
     atom 207 (R=0.057)  charge=  1.8426  magn=  0.0002
     atom 208 (R=0.057)  charge=  1.8435  magn=  0.0001
     atom 209 (R=0.057)  charge=  1.8426  magn=  0.0002
     atom 210 (R=0.057)  charge=  1.8433  magn=  0.0009
     atom 211 (R=0.057)  charge=  1.8450  magn=  0.0017
     atom 212 (R=0.057)  charge=  1.8435  magn=  0.0001
     atom 213 (R=0.057)  charge=  1.8450  magn=  0.0017
     atom 214 (R=0.057)  charge=  1.8433  magn=  0.0005
     atom 215 (R=0.057)  charge=  2.9306  magn= -0.0003

     total cpu time spent up to now is      350.1 secs

     End of self-consistent calculation

 ------ SPIN UP ------------


          k = 0.0000 0.0000 0.0000 ( 42379 PWs)   bands (ev):

    -8.2889  -7.4286  -7.2875  -7.2875  -7.2461  -7.2461  -7.1541  -6.5921
    -6.2856  -6.2856  -6.2783  -6.2783  -6.2713  -6.2413  -6.2413  -6.2243
    -6.1902  -6.1902  -6.0107  -5.5013  -5.2639  -5.2562  -5.2562  -5.2370
    -5.2370  -5.2349  -5.0721  -4.4517  -4.2714  -4.2714  -4.2523  -4.2523
    -4.1922  -3.8567  -3.3769  -3.3769  -3.3766  -3.3714  -3.3714  -3.3664
    -3.3613  -3.3612  -3.3454  -3.3384  -3.3384  -3.3369  -3.3338  -3.3338
    -3.3124  -3.3124  -3.3057  -3.2946  -3.2946  -3.2654  -3.2106  -3.2106
    -3.0292  -2.8272  -2.6064  -2.6064  -2.5835  -2.5827  -2.5827  -2.5680
    -2.5641  -2.5641  -2.5631  -2.5550  -2.5550  -2.5300  -2.5242  -2.5242
    -2.5101  -2.5101  -2.4943  -2.4746  -2.4746  -2.4277  -2.3436  -2.3436
    -1.6562  -1.0665  -0.9027  -0.9027  -0.8775  -0.8775  -0.8632  -0.8593
    -0.8571  -0.8571  -0.8108  -0.8108  -0.4600   0.3446   0.4003   0.4003
     0.4137   0.4137   0.4536   0.6798   0.8696   0.8696   0.8912   0.9017
     0.9017   0.9034   0.9034   0.9089   0.9162   0.9252   0.9253   0.9372
     0.9373   0.9605   0.9813   1.0065   1.0065   1.0217   1.0379   1.0379
     1.0466   1.0466   1.0915   1.1131   1.1131   1.1196   1.1340   1.1340
     1.1356   1.1374   1.1388   1.1388   1.1488   1.1702   1.1703   1.1865
     1.1880   1.1880   1.1966   1.1966   1.1994   1.1995   1.2069   1.4416
     1.5463   1.5463   1.9375   2.1978   2.1991   2.1991   2.2311   2.2395
     2.2395   2.2443   2.2714   2.2714   2.3913   2.3913   3.3711   3.7334
     3.7357   3.7357   3.7889   3.7941   3.7967   3.7967   3.8014   3.8028
     3.8029   3.8151   3.8219   3.8219   3.8223   3.8345   3.8345   3.9626
     3.9626   3.9738   4.0024   4.3650   4.3650   4.3828   4.4429   4.4498
     4.4539   4.4539   4.4573   4.4573   4.4688   4.4706   4.4706   4.4804
     4.4804   4.4896   4.4918   4.4918   4.5023   4.5023   4.5082   4.5085
     4.7154   4.7154   5.2637   5.2659   5.2659   5.3165   5.3167   5.3167
     5.3176   5.3257   5.3257   5.3352   5.3352   5.3419   5.3563   5.3563
     5.3967   5.4065   5.4065   5.4216   5.4284   5.4646   5.4646   5.5332
     5.5415   5.5415   5.6112   5.7506   5.7506   5.8221   5.8415   5.8415
     5.8435   5.8537   5.8538   5.8577   5.8577   5.8607   5.8616   5.8736
     5.8856   5.8856   5.9068   5.9069   5.9092   5.9103   5.9316   5.9316
     5.9400   5.9638   5.9638   6.0044   6.0044   6.3173   6.3405   6.3405
     6.8553   6.8553   6.8996   6.9267   6.9319   6.9319   7.0517   7.3798
     7.3798   7.4523   7.4544   7.4544   7.4655   7.4678   7.4678   7.5031
     7.5514   7.5515   7.7319   7.7319   7.8341   7.8585   7.8628   7.8631
     7.8631   7.8714   7.8714   7.8936   7.9243   7.9243   7.9301   8.0679
     8.0680   8.0962   8.1180   8.1192   8.1192   8.1397   8.1403   8.1403
     8.1436   8.1437   8.1441   8.1521   8.1556   8.1556   8.1846   8.1846
     8.1965   8.1997   8.1997   8.2068   8.2068   8.2146   8.2689   8.2689
     8.2952   8.3152   8.3275   8.3304   8.3305   8.3305   8.3345   8.3345
     8.3389   8.3389   8.3437   8.3493   8.3511   8.3512   8.3576   8.3577
     8.3577   8.3607   8.3607   8.3637   8.3721   8.3721   8.3764   8.3830
     8.3839   8.3839   8.4141   8.4141   8.4237   8.4237   8.4360   8.4476
     8.4476   8.4730   8.4730   8.4746   8.4926   8.5301   8.5352   8.5352
     8.5425   8.6377   8.6377   8.9167   8.9167   8.9171   9.0935   9.0935
     9.1513   9.1577   9.1577   9.1638   9.1858   9.1943   9.1943   9.2010
     9.2041   9.2041   9.2150   9.2163   9.2163   9.2261   9.2261   9.2488
     9.3093   9.3093   9.3373  10.0351  10.1258  10.1258  10.4875  10.5229
    10.5229  10.5694  10.5758  10.5758  10.5904  10.5931  10.5932  10.6026
    10.6688  10.6688  10.6790  10.7693  10.7693  10.8293  10.8293  10.8297
    10.8334  10.8334  10.8368  10.8368  10.8420  10.8708  10.8708  10.8887
    10.8912  10.8912  10.8954  10.9304  10.9304  11.4997  11.5170  11.5170
    11.7416  11.7416  11.7513  11.7726  11.7809  11.7809  11.7862  11.8450
    11.8450  11.8938  12.9460  13.0043  13.0043  13.9868  15.0067  15.0067
    17.3004  17.3004  17.3175  17.3581  17.3581  17.3747  17.8607  17.9475
    17.9475  17.9544  17.9544  18.0185  18.0808  18.0808  18.1377  18.1933
    18.1933  18.1986  18.8143  18.8143  18.8283  19.3843  19.4733  19.4733
    19.4860  19.5174  19.5174  19.5389  19.5402  19.5402  19.5489  19.5489
    19.5918  19.9986  20.1925  20.1925  20.2182  20.2183  20.2184  20.2271
    20.2271  20.2290  20.2316  20.2316  20.2535  20.2535  20.2543  20.2556
    20.2878  20.2878  20.2912  20.3319  20.3319  20.3469  20.3720  20.3723
    20.3723  20.6269  20.6828  20.6828  20.7109  20.7191  20.7270  20.7270
    20.7348  20.7348  20.7382  20.7516  20.7516  20.7597  20.7857  20.7857
    20.8118  20.8118  20.8146  20.8267  20.8267  20.8297  20.8336  20.8484
    20.8484  20.8557  20.8586  20.8586  20.8695  20.8695  20.8913  20.8913
    20.9042  20.9114  20.9114  20.9356  20.9513  21.0088  21.0190  21.0190
    21.0781  21.0781  21.0860  21.1929  21.2965  21.2965  21.3142  21.3308
    21.3309  21.3352  21.3391  21.3392  21.3478  21.3539  21.3539  21.3784
    21.3784  21.3816  21.3900  21.3971  21.3972  21.4072  21.4072  21.4176
    21.4176  21.4232  21.4233  21.4300  21.4301  21.4513  21.4513  21.4537
    21.4630  21.4631  21.4926  21.4926  21.4933  21.5135  21.6046  21.6297
    21.6297  21.6401  21.6541  21.6541  21.6582  21.6652  21.6839  21.6839
    21.6921  21.6922  21.7131  21.7486  21.7486  21.7640  21.7932  21.8181
    21.8181  21.9652  21.9652  21.9744  22.0007  22.0007  22.1125  22.1125
    22.1246  22.1753  22.1753  22.1902  22.1942  22.2002  22.2002  22.3385
    22.3457  22.3457  22.4042  22.4577  22.4577  22.4758  22.4839  22.4839
    22.6573  22.6727  22.6727  22.8023  22.9549  22.9549  22.9807  23.1028
    23.1028  23.1108  23.1212  23.1212  23.1319  23.1319  23.1377  23.1414
    23.1414  23.1485  23.1561  23.1874  23.2042  23.2042  23.2159  23.2715
    23.3000  23.3000  23.3516  23.3517  23.4194  23.4479  23.4480  23.7856
    23.7856  23.7901  23.8016  23.8105  23.8149  23.8149  23.8307  23.8307
    23.8396  23.8472  23.8513  23.8513  23.8567  23.8567  23.8873  23.9011
    23.9574  23.9574  23.9698  24.1042  24.1042  24.1859  24.1859  24.2318
    24.2322  24.2322  24.2559  24.2775  24.2775  24.2786  24.2834  24.2834
    24.2977  24.3336  24.3336  24.3432  24.3796  24.3796  24.3913  24.3913
    24.4004  24.4004  24.4011  24.4182  24.4649  24.4797  24.4802  24.4830
    24.4830  24.4929  24.4929  24.5055  24.5117  24.5118  24.5259  24.5300
    24.5300  24.5581  24.5581  24.5697  24.6393  24.6393  24.6745  24.7471
    24.7472  24.8976  24.8976  25.5063  25.5168  25.5168  25.6098  25.7563
    25.7931  25.7931  25.8007  25.8007  26.0040  26.0073  26.0073  26.0086
    26.0527  26.0528  26.1031  26.1254  26.1422  26.1423  26.2322  26.2761
    26.2761  26.4416  26.5839  26.5847  26.5847  26.6317  26.6443  26.6443
    26.6446  26.6719  26.6720  26.6955  26.6955  26.6996  26.7485  26.7486
    26.7571  26.7701  26.7816  26.7816  26.8322  26.8393  26.8393  26.9304
    26.9304  27.0689  27.0689  27.0918  27.0989  27.1076  27.1076  27.1217
    27.1282  27.1282  27.1292  27.1350  27.1350  27.1614  27.1614  27.1812
    27.1994  27.2209  27.2209  27.2455  27.2476  27.2476  27.2608  27.2608
    27.2729  27.2782  27.2782  27.2805  27.2926  27.3035  27.3035  27.3120
    27.3120  27.3156  27.3181  27.3352  27.3352  27.3462  27.3616  27.3626
    27.3626  27.3754  27.3759  27.3759  27.3887  27.3887  27.4080  27.4214
    27.4417  27.4417  27.4620  27.4761  27.4761  27.4906  27.4906  27.5221
    27.5221  27.5231  27.5463  27.5526  27.5526  27.5548  27.5761  27.5875
    27.5875  27.5953  27.5953  27.5970  27.6002  27.6002  27.6070  27.6462
    27.6462  27.6959  27.7120  27.7120  27.7565  27.8520  27.8520  27.8838
    27.9106  27.9186  27.9186  27.9749  28.0416  28.0417  28.0803  28.0803
    28.1121  28.1490  28.1490  28.2756  28.3028  28.3028  28.3233  28.3402
    28.3484  28.3484  28.5394  28.5971  28.5972  28.6795  29.7211  29.7980
    29.7980  29.8595  29.9296  29.9296  29.9974  30.0564

 ------ SPIN DOWN ----------


          k = 0.0000 0.0000 0.0000 ( 42379 PWs)   bands (ev):

    -8.2836  -7.4254  -7.2847  -7.2847  -7.2387  -7.2387  -7.1423  -6.5885
    -6.2834  -6.2834  -6.2756  -6.2756  -6.2667  -6.2340  -6.2340  -6.2209
    -6.1740  -6.1740  -5.9882  -5.4967  -5.2583  -5.2488  -5.2488  -5.2284
    -5.2220  -5.2220  -5.0487  -4.4403  -4.2654  -4.2654  -4.2424  -4.2424
    -4.1847  -3.8438  -3.3749  -3.3749  -3.3749  -3.3666  -3.3666  -3.3632
    -3.3574  -3.3574  -3.3439  -3.3359  -3.3359  -3.3345  -3.3295  -3.3295
    -3.2946  -3.2945  -3.2945  -3.2867  -3.2867  -3.2624  -3.1867  -3.1867
    -3.0173  -2.8235  -2.6041  -2.6041  -2.5809  -2.5780  -2.5780  -2.5656
    -2.5609  -2.5608  -2.5544  -2.5456  -2.5456  -2.5221  -2.5189  -2.5189
    -2.5062  -2.5062  -2.4829  -2.4623  -2.4623  -2.4179  -2.2815  -2.2815
    -1.5980  -1.0584  -0.8979  -0.8979  -0.8671  -0.8671  -0.8588  -0.8531
    -0.8516  -0.8516  -0.7804  -0.7804  -0.4000   0.3566   0.4036   0.4037
     0.4214   0.4214   0.4594   0.6993   0.8728   0.8728   0.8914   0.9046
     0.9046   0.9055   0.9055   0.9111   0.9181   0.9303   0.9303   0.9404
     0.9404   0.9678   0.9936   1.0162   1.0162   1.0276   1.0453   1.0453
     1.0698   1.0698   1.0961   1.1168   1.1168   1.1270   1.1387   1.1396
     1.1396   1.1409   1.1424   1.1424   1.1591   1.1748   1.1748   1.1929
     1.1943   1.1943   1.2044   1.2044   1.2180   1.2180   1.2364   1.4572
     1.5957   1.5957   1.9577   2.2050   2.2050   2.2147   2.2414   2.2436
     2.2436   2.2470   2.2774   2.2774   2.4504   2.4504   3.4355   3.7416
     3.7416   3.7450   3.7911   3.8003   3.8003   3.8025   3.8070   3.8070
     3.8106   3.8180   3.8269   3.8269   3.8280   3.8458   3.8458   3.9777
     3.9777   3.9847   4.0212   4.3719   4.3719   4.4034   4.4469   4.4508
     4.4583   4.4583   4.4627   4.4627   4.4726   4.4749   4.4749   4.4861
     4.4861   4.4988   4.4988   4.5018   4.5139   4.5139   4.5188   4.5208
     4.7732   4.7732   5.2706   5.2706   5.2783   5.3183   5.3183   5.3192
     5.3200   5.3284   5.3284   5.3395   5.3395   5.3444   5.3595   5.3595
     5.4093   5.4140   5.4140   5.4300   5.4340   5.4774   5.4774   5.5357
     5.5518   5.5518   5.6457   5.7564   5.7564   5.8339   5.8439   5.8439
     5.8492   5.8578   5.8578   5.8656   5.8656   5.8658   5.8694   5.8820
     5.8910   5.8910   5.9140   5.9189   5.9189   5.9194   5.9428   5.9428
     5.9612   5.9825   5.9825   6.0158   6.0158   6.3384   6.3844   6.3844
     6.8619   6.8619   6.9091   6.9353   6.9494   6.9495   7.1230   7.3925
     7.3925   7.4572   7.4572   7.4614   7.4708   7.4757   7.4757   7.5184
     7.5667   7.5667   7.7367   7.7367   7.8461   7.8649   7.8703   7.8703
     7.8808   7.8808   7.8862   7.9036   7.9343   7.9343   7.9444   8.0773
     8.0773   8.0993   8.1207   8.1214   8.1214   8.1418   8.1420   8.1420
     8.1468   8.1468   8.1472   8.1578   8.1585   8.1585   8.1911   8.1912
     8.2026   8.2074   8.2075   8.2173   8.2173   8.2195   8.2746   8.2746
     8.3024   8.3285   8.3296   8.3325   8.3326   8.3352   8.3392   8.3392
     8.3412   8.3412   8.3488   8.3524   8.3567   8.3567   8.3610   8.3626
     8.3626   8.3635   8.3635   8.3709   8.3781   8.3781   8.3881   8.3955
     8.3958   8.3958   8.4234   8.4234   8.4333   8.4333   8.4404   8.4534
     8.4534   8.4851   8.4851   8.4923   8.5188   8.5386   8.5496   8.5579
     8.5579   8.6755   8.6755   8.9284   8.9355   8.9355   9.0994   9.0994
     9.1547   9.1603   9.1603   9.1658   9.1951   9.1992   9.1992   9.2100
     9.2184   9.2184   9.2216   9.2263   9.2263   9.2409   9.2409   9.2533
     9.3378   9.3378   9.3710  10.0508  10.1949  10.1950  10.5369  10.5369
    10.5756  10.5781  10.5781  10.5936  10.5955  10.6073  10.6073  10.6347
    10.6740  10.6740  10.6873  10.7743  10.7743  10.8343  10.8343  10.8367
    10.8400  10.8401  10.8472  10.8490  10.8490  10.8823  10.8823  10.9038
    10.9038  10.9073  10.9080  10.9390  10.9391  11.5123  11.5455  11.5455
    11.7490  11.7490  11.7535  11.7773  11.7859  11.7859  11.7993  11.8620
    11.8621  12.1784  13.0416  13.0416  13.0449  14.5532  16.1904  16.1905
    17.3044  17.3044  17.3279  17.3697  17.3697  17.3854  17.8659  17.9555
    17.9555  17.9609  17.9609  18.0274  18.0858  18.0858  18.1664  18.2079
    18.2111  18.2111  18.8330  18.8330  18.8391  19.3927  19.4769  19.4769
    19.4889  19.5274  19.5274  19.5428  19.5455  19.5456  19.5545  19.5545
    19.5986  20.0032  20.1949  20.1950  20.2202  20.2212  20.2212  20.2305
    20.2305  20.2312  20.2408  20.2409  20.2590  20.2598  20.2598  20.2607
    20.2970  20.2970  20.2974  20.3387  20.3387  20.3543  20.3802  20.3802
    20.3806  20.6317  20.6882  20.6882  20.7129  20.7212  20.7293  20.7293
    20.7367  20.7368  20.7414  20.7544  20.7544  20.7617  20.7889  20.7889
    20.8154  20.8154  20.8185  20.8308  20.8308  20.8381  20.8396  20.8597
    20.8631  20.8631  20.8667  20.8667  20.8816  20.8816  20.8976  20.8976
    20.9076  20.9207  20.9207  20.9471  20.9582  21.0203  21.0247  21.0247
    21.0863  21.0863  21.0927  21.1974  21.3008  21.3008  21.3183  21.3347
    21.3347  21.3406  21.3427  21.3427  21.3491  21.3596  21.3596  21.3824
    21.3824  21.3922  21.3939  21.4066  21.4066  21.4114  21.4114  21.4258
    21.4258  21.4285  21.4298  21.4355  21.4355  21.4651  21.4665  21.4665
    21.4750  21.4750  21.5101  21.5166  21.5167  21.5419  21.6117  21.6421
    21.6421  21.6427  21.6590  21.6590  21.6609  21.6737  21.6916  21.6916
    21.7007  21.7007  21.7253  21.7533  21.7533  21.7701  21.8150  21.8398
    21.8398  21.9803  21.9836  21.9836  22.0212  22.0212  22.1151  22.1151
    22.1276  22.1905  22.1905  22.1997  22.2011  22.2090  22.2090  22.3471
    22.3557  22.3557  22.4197  22.4657  22.4657  22.4849  22.4878  22.4878
    22.6715  22.7136  22.7136  22.8706  22.9713  22.9713  22.9998  23.1086
    23.1086  23.1133  23.1240  23.1240  23.1374  23.1374  23.1435  23.1439
    23.1439  23.1542  23.1624  23.1984  23.2221  23.2221  23.2333  23.3059
    23.3451  23.3451  23.3699  23.3699  23.4369  23.4833  23.4833  23.7909
    23.7909  23.7920  23.8088  23.8134  23.8189  23.8189  23.8342  23.8342
    23.8549  23.8610  23.8610  23.8662  23.8662  23.8715  23.8940  23.9186
    23.9771  23.9771  23.9817  24.1170  24.1170  24.2032  24.2032  24.2374
    24.2374  24.2374  24.2592  24.2814  24.2814  24.2856  24.2874  24.2874
    24.3027  24.3392  24.3392  24.3493  24.3889  24.3889  24.4044  24.4044
    24.4054  24.4178  24.4178  24.4263  24.4682  24.4832  24.4881  24.4882
    24.4963  24.5113  24.5121  24.5121  24.5160  24.5160  24.5314  24.5486
    24.5487  24.5636  24.5636  24.5948  24.6825  24.6826  24.7036  24.8731
    24.8731  24.9623  24.9623  25.5521  25.5602  25.5602  25.6409  25.7630
    25.8077  25.8077  25.8148  25.8148  26.0057  26.0129  26.0129  26.0147
    26.0615  26.0615  26.1213  26.1366  26.1607  26.1608  26.2515  26.3060
    26.3060  26.4563  26.5905  26.5905  26.5993  26.6373  26.6508  26.6508
    26.6521  26.6782  26.6782  26.7044  26.7044  26.7113  26.7589  26.7589
    26.7721  26.7767  26.7873  26.7873  26.8367  26.8521  26.8521  26.9580
    26.9580  27.0747  27.0747  27.0990  27.1018  27.1110  27.1110  27.1273
    27.1316  27.1318  27.1318  27.1388  27.1388  27.1668  27.1668  27.1911
    27.2038  27.2258  27.2258  27.2519  27.2541  27.2542  27.2646  27.2646
    27.2768  27.2856  27.2856  27.2863  27.2977  27.3109  27.3109  27.3199
    27.3199  27.3219  27.3291  27.3502  27.3502  27.3524  27.3686  27.3687
    27.3687  27.3818  27.3818  27.3840  27.3963  27.3963  27.4259  27.4424
    27.4482  27.4482  27.4696  27.4871  27.4871  27.5095  27.5095  27.5281
    27.5281  27.5359  27.5511  27.5582  27.5582  27.5603  27.5826  27.5946
    27.5946  27.6010  27.6027  27.6027  27.6056  27.6056  27.6162  27.6804
    27.6804  27.7405  27.7405  27.7638  27.7934  27.8941  27.8961  27.8961
    27.9222  27.9410  27.9410  28.0054  28.0618  28.0618  28.1178  28.1179
    28.1276  28.1781  28.1782  28.3057  28.3339  28.3513  28.3514  28.3867
    28.4046  28.4047  28.6124  28.7087  28.7088  28.8022  29.7576  29.8141
    29.8141  29.9163  29.9552  29.9552  30.0167  30.0641

     highest occupied, lowest unoccupied level (ev):    15.00674946   16.19039586

!    total energy              =   -3971.34649790 Ry
     total all-electron energy =    -16414.162101 Ry
     estimated scf accuracy    <          6.3E-09 Ry

     The total energy is the sum of the following terms:
     one-electron contribution =     885.32848822 Ry
     hartree contribution      =     218.34042746 Ry
     xc contribution           =   -1009.08029145 Ry
     ewald contribution        =   -2739.16383531 Ry
     one-center paw contrib.   =   -1326.77128682 Ry

     total magnetization       =     2.00 Bohr mag/cell
     absolute magnetization    =     2.26 Bohr mag/cell

     convergence has been achieved in  15 iterations

     Forces acting on atoms (cartesian axes, Ry/au):

     atom    1 type  1   force =    -0.00001848   -0.00009911    0.00004251
     atom    2 type  1   force =     0.00011485   -0.00008199   -0.00010551
     atom    3 type  1   force =    -0.00021518   -0.00024369    0.00010746
     atom    4 type  1   force =     0.00012514   -0.00007952   -0.00009533
     atom    5 type  1   force =     0.00008548   -0.00010774   -0.00005920
     atom    6 type  1   force =    -0.00025930    0.00001300   -0.00029937
     atom    7 type  1   force =    -0.00005321   -0.00020449    0.00026958
     atom    8 type  1   force =     0.00028023    0.00014396    0.00024032
     atom    9 type  1   force =    -0.00065258    0.00017589    0.00061005
     atom   10 type  1   force =    -0.00078075   -0.00021965    0.00083393
     atom   11 type  1   force =    -0.00002773   -0.00003684   -0.00000118
     atom   12 type  1   force =    -0.00005000    0.00018867   -0.00042709
     atom   13 type  1   force =     0.00000912   -0.00002792    0.00003556
     atom   14 type  1   force =    -0.00695891   -0.00043870    0.00706531
     atom   15 type  1   force =    -0.00568365   -0.00047825    0.00365449
     atom   16 type  1   force =     0.00036898    0.00029032   -0.00000809
     atom   17 type  1   force =    -0.00359944    0.00002740    0.00573721
     atom   18 type  1   force =    -0.00551862    0.00648379    0.00394541
     atom   19 type  1   force =    -0.00017994   -0.00018887    0.00022577
     atom   20 type  1   force =     0.00004209   -0.00027597    0.00037957
     atom   21 type  1   force =     0.00003379   -0.00003905   -0.00008483
     atom   22 type  1   force =    -0.00030243   -0.00035955    0.00003510
     atom   23 type  1   force =     0.00031432   -0.00053500   -0.00018456
     atom   24 type  1   force =    -0.00003984    0.00062697    0.00001305
     atom   25 type  1   force =     0.00009266   -0.00002478   -0.00002600
     atom   26 type  1   force =    -0.00016157    0.00059744   -0.00010877
     atom   27 type  1   force =    -0.00034578    0.00010553    0.00032011
     atom   28 type  1   force =     0.00007206    0.00002109    0.00003702
     atom   29 type  1   force =    -0.00003628    0.00024990   -0.00058779
     atom   30 type  1   force =    -0.00017722   -0.00035528   -0.00030596
     atom   31 type  1   force =     0.00040969    0.00018203   -0.00015501
     atom   32 type  1   force =    -0.00133847   -0.00614239   -0.00266965
     atom   33 type  1   force =    -0.00211364   -0.00280096   -0.00871825
     atom   34 type  1   force =    -0.00000759   -0.00034136    0.00008260
     atom   35 type  1   force =     0.00037985   -0.00011991   -0.00011617
     atom   36 type  1   force =    -0.00034429   -0.00066787   -0.00055241
     atom   37 type  1   force =    -0.00035099   -0.00024133    0.00020105
     atom   38 type  1   force =     0.00009679    0.00005245    0.00061523
     atom   39 type  1   force =     0.00012825    0.00016764   -0.00060155
     atom   40 type  1   force =     0.00001632   -0.00005125    0.00000418
     atom   41 type  1   force =    -0.00408044   -0.00828975   -0.00366203
     atom   42 type  1   force =    -0.00409276   -0.00488353   -0.00237678
     atom   43 type  1   force =     0.00006348    0.00007282    0.00011779
     atom   44 type  1   force =     0.00003410    0.00002878    0.00013050
     atom   45 type  1   force =    -0.00033380    0.00020139   -0.00004063
     atom   46 type  1   force =    -0.00012555   -0.00032599    0.00003648
     atom   47 type  1   force =     0.00010738   -0.00044733    0.00014714
     atom   48 type  1   force =     0.00000192    0.00005595    0.00003788
     atom   49 type  1   force =    -0.00047116   -0.00103821   -0.00028674
     atom   50 type  1   force =    -0.00002491   -0.00003003    0.00000330
     atom   51 type  1   force =    -0.00013305    0.00042909   -0.00010483
     atom   52 type  1   force =    -0.00001903   -0.00008925    0.00005192
     atom   53 type  1   force =     0.00005779    0.00008091    0.00011145
     atom   54 type  1   force =    -0.00020842   -0.00025204    0.00009587
     atom   55 type  1   force =    -0.00003898   -0.00000582   -0.00007382
     atom   56 type  1   force =     0.00011939    0.00011157   -0.00044528
     atom   57 type  1   force =     0.00000013   -0.00033953    0.00009011
     atom   58 type  1   force =     0.00051116    0.00038276   -0.00004050
     atom   59 type  1   force =     0.00400341   -0.00484714    0.00267178
     atom   60 type  1   force =     0.00015183   -0.00017522   -0.00034416
     atom   61 type  1   force =     0.00037565   -0.00022101    0.00024700
     atom   62 type  1   force =     0.00906893   -0.00008844    0.00246477
     atom   63 type  1   force =     0.00068411   -0.00041822    0.00047611
     atom   64 type  1   force =    -0.00014847   -0.00019213    0.00040366
     atom   65 type  1   force =     0.00000856   -0.00005321   -0.00000355
     atom   66 type  1   force =    -0.00012968    0.00002592   -0.00007550
     atom   67 type  1   force =    -0.00060720   -0.00011838   -0.00008881
     atom   68 type  1   force =     0.00539448   -0.00599079    0.00581293
     atom   69 type  1   force =    -0.00013258   -0.00001159   -0.00003618
     atom   70 type  1   force =     0.00054854    0.00026970   -0.00018138
     atom   71 type  1   force =     0.00334283   -0.00307930    0.00505863
     atom   72 type  1   force =    -0.00001764    0.00027810    0.00027565
     atom   73 type  1   force =     0.00003782   -0.00028639    0.00019989
     atom   74 type  1   force =     0.00050971   -0.00080010    0.00069407
     atom   75 type  1   force =    -0.00002992   -0.00009192    0.00004102
     atom   76 type  1   force =    -0.00003443   -0.00048170    0.00000535
     atom   77 type  1   force =     0.00000321   -0.00002322    0.00003136
     atom   78 type  1   force =    -0.00012571    0.00003645   -0.00007202
     atom   79 type  1   force =    -0.00005002    0.00004330   -0.00001395
     atom   80 type  1   force =    -0.00000304    0.00046057    0.00002513
     atom   81 type  1   force =    -0.00003964   -0.00021117    0.00026470
     atom   82 type  1   force =     0.00014541   -0.00027936   -0.00007761
     atom   83 type  1   force =     0.00017093    0.00016460    0.00133196
     atom   84 type  1   force =    -0.00004034   -0.00008982   -0.00014384
     atom   85 type  1   force =    -0.00132785   -0.00019903   -0.00016675
     atom   86 type  1   force =     0.00048587    0.00025475   -0.00054756
     atom   87 type  1   force =    -0.00041547   -0.00095467   -0.00004462
     atom   88 type  1   force =     0.00015972   -0.00004124    0.00005619
     atom   89 type  1   force =     0.00025642   -0.00079165    0.00062739
     atom   90 type  1   force =     0.00006919    0.00014470   -0.00010423
     atom   91 type  1   force =    -0.00137413   -0.00117923    0.00166024
     atom   92 type  1   force =     0.00001227    0.00002591   -0.00015543
     atom   93 type  1   force =     0.00025467    0.00012307    0.00132075
     atom   94 type  1   force =     0.00014534    0.00005827   -0.00002254
     atom   95 type  1   force =    -0.00019406    0.00056675   -0.00047984
     atom   96 type  1   force =    -0.00130463   -0.00025529   -0.00023864
     atom   97 type  1   force =     0.00032706    0.00069307    0.00004117
     atom   98 type  1   force =    -0.00062576   -0.00039188    0.00072085
     atom   99 type  1   force =    -0.00024002   -0.00065700    0.00039935
     atom  100 type  1   force =     0.00031763   -0.00193998    0.00148448
     atom  101 type  1   force =    -0.00028846   -0.00008221   -0.00003314
     atom  102 type  1   force =    -0.00097569   -0.00225381    0.00019118
     atom  103 type  1   force =    -0.00003299    0.00014210   -0.00000150
     atom  104 type  1   force =     0.00070796   -0.00111370   -0.00037122
     atom  105 type  1   force =     0.00004335   -0.00000170    0.00029872
     atom  106 type  1   force =     0.00064333   -0.00112931   -0.00043575
     atom  107 type  1   force =    -0.00010016    0.00007226    0.00008257
     atom  108 type  1   force =     0.00002948    0.00003112   -0.00003698
     atom  109 type  1   force =     0.00016233   -0.00020342    0.00036169
     atom  110 type  1   force =     0.00016801    0.00043903   -0.00015691
     atom  111 type  1   force =    -0.00029880   -0.00031529   -0.00009936
     atom  112 type  1   force =     0.00038209   -0.00078572   -0.00019150
     atom  113 type  1   force =     0.00111498    0.00236756    0.00066386
     atom  114 type  1   force =     0.00005381    0.00041132   -0.00027118
     atom  115 type  1   force =    -0.00117123    0.00181286   -0.00162211
     atom  116 type  1   force =     0.00028139    0.00076391   -0.00046672
     atom  117 type  1   force =     0.00070164   -0.00019660   -0.00065396
     atom  118 type  1   force =     0.00019428    0.00031005    0.00066470
     atom  119 type  1   force =    -0.00021813   -0.00003260    0.00040031
     atom  120 type  1   force =    -0.00071330    0.00008981   -0.00024275
     atom  121 type  1   force =    -0.00088248   -0.00022001   -0.00006105
     atom  122 type  1   force =    -0.00038745   -0.00007372    0.00023100
     atom  123 type  1   force =     0.00008589    0.00001488    0.00090737
     atom  124 type  1   force =     0.00181534    0.00046604   -0.00192826
     atom  125 type  1   force =     0.00004054    0.00014830   -0.00007648
     atom  126 type  1   force =    -0.00073662    0.00044917   -0.00050353
     atom  127 type  1   force =    -0.00003266    0.00005742   -0.00002838
     atom  128 type  1   force =     0.00036221    0.00071584    0.00059532
     atom  129 type  1   force =     0.00046953   -0.00044432   -0.00036170
     atom  130 type  1   force =    -0.00007806   -0.00041753   -0.00011896
     atom  131 type  1   force =     0.00001314    0.00006858    0.00001742
     atom  132 type  1   force =     0.00021177   -0.00034723    0.00017081
     atom  133 type  1   force =     0.00020061    0.00034400   -0.00028408
     atom  134 type  1   force =    -0.00039070    0.00019192   -0.00016239
     atom  135 type  1   force =     0.00010490    0.00122467    0.00097534
     atom  136 type  1   force =     0.00251991    0.00144043   -0.00005725
     atom  137 type  1   force =     0.00012770   -0.00019740    0.00019315
     atom  138 type  1   force =    -0.02164358    0.01411343   -0.01606358
     atom  139 type  1   force =     0.00149400   -0.00044308    0.00074294
     atom  140 type  1   force =     0.00018748    0.00013231   -0.00067220
     atom  141 type  1   force =    -0.00016622   -0.00022272    0.00033119
     atom  142 type  1   force =     0.00005505    0.00003777   -0.00008082
     atom  143 type  1   force =     0.00027155    0.00055068   -0.00031552
     atom  144 type  1   force =    -0.00348668    0.00237226   -0.00265446
     atom  145 type  1   force =    -0.00006937   -0.00032426    0.00023350
     atom  146 type  1   force =    -0.00036711    0.00013323   -0.00024667
     atom  147 type  1   force =     0.00072019   -0.00044242   -0.00130486
     atom  148 type  1   force =     0.00262537    0.00116038   -0.00043777
     atom  149 type  1   force =     0.00005529    0.00007294    0.00008280
     atom  150 type  1   force =     0.00005365    0.00005458    0.00023876
     atom  151 type  1   force =    -0.00003080    0.00018764   -0.00003032
     atom  152 type  1   force =     0.00008680   -0.00001940   -0.00004362
     atom  153 type  1   force =     0.00013362   -0.00017409   -0.00007416
     atom  154 type  1   force =    -0.00000069    0.00009440   -0.00015332
     atom  155 type  1   force =    -0.00003088    0.00072082    0.00013046
     atom  156 type  1   force =    -0.00009940   -0.00040295    0.00008265
     atom  157 type  1   force =     0.00002510    0.00011669    0.00002243
     atom  158 type  1   force =     0.00011064    0.00018958   -0.00008743
     atom  159 type  1   force =    -0.00031489    0.00018498   -0.00019825
     atom  160 type  1   force =     0.00023970    0.00042537   -0.00022387
     atom  161 type  1   force =     0.00010137    0.00031129    0.00032963
     atom  162 type  1   force =    -0.00013747   -0.00026174   -0.00007207
     atom  163 type  1   force =     0.00062713    0.00023900   -0.00023249
     atom  164 type  1   force =    -0.00123313    0.00090011   -0.00036256
     atom  165 type  1   force =     0.01165892    0.02219349    0.01723783
     atom  166 type  1   force =    -0.00027394   -0.00024890    0.00022343
     atom  167 type  1   force =    -0.00021199    0.00077749   -0.00278904
     atom  168 type  1   force =    -0.00057457   -0.00094510   -0.00132554
     atom  169 type  1   force =     0.00007125    0.00004168   -0.00006473
     atom  170 type  1   force =     0.00018447    0.00052954   -0.00040256
     atom  171 type  1   force =     0.00019760    0.00027033    0.00031813
     atom  172 type  1   force =    -0.00009606    0.00003627   -0.00006860
     atom  173 type  1   force =     0.00191979    0.00368397    0.00275194
     atom  174 type  1   force =     0.00139254   -0.00027925   -0.00063256
     atom  175 type  1   force =    -0.00024328   -0.00001748   -0.00005816
     atom  176 type  1   force =    -0.00015244   -0.00034443    0.00015044
     atom  177 type  1   force =     0.00022688    0.00057845   -0.00283628
     atom  178 type  1   force =    -0.00001569    0.00019135   -0.00001516
     atom  179 type  1   force =     0.00004947   -0.00002851   -0.00008099
     atom  180 type  1   force =    -0.00029747    0.00065606   -0.00013616
     atom  181 type  1   force =     0.00004344    0.00017326   -0.00015455
     atom  182 type  1   force =     0.00011689   -0.00017815   -0.00009100
     atom  183 type  1   force =     0.00001178   -0.00037594    0.00019380
     atom  184 type  1   force =     0.00014003    0.00029544    0.00025658
     atom  185 type  1   force =     0.00012670    0.00012534   -0.00002593
     atom  186 type  1   force =    -0.00004863    0.00009885   -0.00005125
     atom  187 type  1   force =     0.00012410    0.00039738   -0.00033950
     atom  188 type  1   force =    -0.00017457   -0.00028109    0.00024275
     atom  189 type  1   force =    -0.00060625    0.00284176    0.00024826
     atom  190 type  1   force =     0.00001989    0.00008844   -0.00015778
     atom  191 type  1   force =    -0.00092845    0.00276368   -0.00007366
     atom  192 type  1   force =    -0.00120030    0.00078033    0.00101094
     atom  193 type  1   force =     0.00004722    0.00010460    0.00001730
     atom  194 type  1   force =     0.00013309    0.00011590   -0.00004474
     atom  195 type  1   force =    -0.00004011    0.00008336   -0.00006998
     atom  196 type  1   force =     0.00009253    0.00048994   -0.00021137
     atom  197 type  1   force =     0.00356228   -0.00079939   -0.00336818
     atom  198 type  1   force =     0.00097593    0.00083689    0.00088748
     atom  199 type  1   force =    -0.00025030   -0.00000062   -0.00003759
     atom  200 type  1   force =    -0.00103146    0.00034981   -0.00111992
     atom  201 type  1   force =     0.02181120   -0.00545268   -0.02048772
     atom  202 type  1   force =    -0.00023647   -0.00034477    0.00009585
     atom  203 type  1   force =     0.00002951    0.00006739    0.00024220
     atom  204 type  1   force =    -0.00001875   -0.00029182    0.00031368
     atom  205 type  1   force =     0.00028266   -0.00008340   -0.00026246
     atom  206 type  1   force =     0.00015367    0.00060371   -0.00030013
     atom  207 type  1   force =     0.00034602   -0.00014004   -0.00023291
     atom  208 type  1   force =    -0.00010854    0.00006647   -0.00002420
     atom  209 type  1   force =     0.00026915   -0.00015870   -0.00030982
     atom  210 type  1   force =    -0.00021504   -0.00004736    0.00022653
     atom  211 type  1   force =     0.00054184    0.00046321    0.00007250
     atom  212 type  1   force =     0.00000477    0.00009390    0.00008912
     atom  213 type  1   force =    -0.00016416    0.00029198   -0.00063344
     atom  214 type  1   force =     0.00002230    0.00023003   -0.00007809
     atom  215 type  2   force =    -0.00535562   -0.01385874    0.00871813

     Total force =     0.064448     Total SCF correction =     0.000274


     Computing stress (Cartesian axis) and pressure

          total   stress  (Ry/bohr**3)                   (kbar)     P=       26.36
   0.00016299   0.00001712  -0.00001075           23.98        2.52       -1.58
   0.00001712   0.00020071  -0.00002787            2.52       29.53       -4.10
  -0.00001075  -0.00002787   0.00017391           -1.58       -4.10       25.58


     Writing all to output data dir ./tmp/diamond_pd.save/ :
     XML data file, charge density
     init_run     :      5.50s CPU      5.88s WALL (       1 calls)
     electrons    :    336.40s CPU    344.30s WALL (       1 calls)
     forces       :      3.45s CPU      3.55s WALL (       1 calls)
     stress       :     11.72s CPU     11.85s WALL (       1 calls)

     Called by init_run:
     wfcinit      :      4.42s CPU      4.58s WALL (       1 calls)
     potinit      :      0.78s CPU      0.95s WALL (       1 calls)
     hinit0       :      0.15s CPU      0.16s WALL (       1 calls)

     Called by electrons:
     c_bands      :    303.38s CPU    310.14s WALL (      15 calls)
     sum_band     :     20.21s CPU     20.81s WALL (      15 calls)
     v_of_rho     :      0.51s CPU      0.52s WALL (      16 calls)
     newd         :      1.41s CPU      1.68s WALL (      16 calls)
     PAW_pot      :     11.40s CPU     11.62s WALL (      16 calls)
     mix_rho      :      0.27s CPU      0.28s WALL (      15 calls)

     Called by c_bands:
     init_us_2    :      3.06s CPU      3.11s WALL (      66 calls)
     cegterg      :    299.55s CPU    306.07s WALL (      30 calls)

     Called by *egterg:
     cdiaghg      :     73.28s CPU     76.52s WALL (     179 calls)
     h_psi        :     84.82s CPU     86.28s WALL (     181 calls)
     s_psi        :     26.67s CPU     26.83s WALL (     181 calls)
     g_psi        :      0.52s CPU      0.52s WALL (     149 calls)

     Called by h_psi:
     h_psi:calbec :     26.30s CPU     26.46s WALL (     181 calls)
     vloc_psi     :     30.78s CPU     31.32s WALL (     181 calls)
     add_vuspsi   :     26.74s CPU     27.08s WALL (     181 calls)

     General routines
     calbec       :     47.55s CPU     47.84s WALL (     245 calls)
     fft          :      0.18s CPU      0.18s WALL (     378 calls)
     ffts         :      0.01s CPU      0.01s WALL (      30 calls)
     fftw         :     31.69s CPU     32.26s WALL (  157794 calls)
 
     Parallel routines
 
     PWSCF        :   5m57.19s CPU   6m 5.94s WALL

 
   This run was terminated on:   1: 6:14  23Aug2026            

=------------------------------------------------------------------------------=
   JOB DONE.
=------------------------------------------------------------------------------=
