
     Program PWSCF v.7.4.1 starts on  6Aug2026 at 15:23:25 

     This program is part of the open-source Quantum ESPRESSO suite
     for quantum simulation of materials; please cite
         "P. Giannozzi et al., J. Phys.:Condens. Matter 21 395502 (2009);
         "P. Giannozzi et al., J. Phys.:Condens. Matter 29 465901 (2017);
         "P. Giannozzi et al., J. Chem. Phys. 152 154105 (2020);
          URL http://www.quantum-espresso.org", 
     in publications or presentations arising from this work. More details at
     http://www.quantum-espresso.org/quote

     Parallel version (MPI), running on    24 processors

     MPI processes distributed on     1 nodes
     91883 MiB available memory on the printing compute node when the environment starts
 
     Reading input from diamond_pd_scf.in

     Current dimensions of program PWSCF are:
     Max number of different atomic species (ntypx) = 10
     Max number of k-points (npk) =  40000
     Max angular momentum in pseudopotentials (lmaxx) =  4
     file C.pbe-n-kjpaw_psl.1.0.0.UPF: wavefunction(s)  2S 2P renormalized
     file N.pbe-n-kjpaw_psl.1.0.0.UPF: wavefunction(s)  2S renormalized
 
     R & G space division:  proc/nbgrp/npool/nimage =      24
     Subspace diagonalization in iterative solution of the eigenvalue problem:
     one sub-group per band group will be used
     scalapack distributed-memory algorithm (size of sub-group:  4*  4 procs)

 
     Parallelization info
     --------------------
     sticks:   dense  smooth     PW     G-vecs:    dense   smooth      PW
     Min         244     244     61                14112    14112    1765
     Max         245     245     62                14117    14117    1768
     Sum        5877    5877   1473               338755   338755   42379
 
     Using Slab Decomposition
 


     bravais-lattice index     =            0
     lattice parameter (alat)  =      20.2515  a.u.
     unit-cell volume          =    8305.5769 (a.u.)^3
     number of atoms/cell      =          215
     number of atomic types    =            2
     number of electrons       =       862.00 (up: 432.00, down: 430.00)
     number of Kohn-Sham states=          862
     kinetic-energy cutoff     =      45.0000  Ry
     charge density cutoff     =     180.0000  Ry
     scf convergence threshold =      1.0E-08
     mixing beta               =       0.7000
     number of iterations used =            8  plain     mixing
     Exchange-correlation= SLA  PW   PBX  PBC
                           (   1   4   3   4   0   0   0)

     celldm(1)=  20.251472  celldm(2)=   0.000000  celldm(3)=   0.000000
     celldm(4)=   0.000000  celldm(5)=   0.000000  celldm(6)=   0.000000

     crystal axes: (cart. coord. in units of alat)
               a(1) = (  -0.707107   0.000000   0.707107 )  
               a(2) = (   0.408248   0.816497   0.408248 )  
               a(3) = (  -0.577350   0.577350  -0.577350 )  

     reciprocal axes: (cart. coord. in units 2 pi/alat)
               b(1) = ( -0.707107  0.000000  0.707107 )  
               b(2) = (  0.408248  0.816497  0.408248 )  
               b(3) = ( -0.577350  0.577350 -0.577350 )  


     PseudoPot. # 1 for C  read from file:
     ../../pseudos/C.pbe-n-kjpaw_psl.1.0.0.UPF
     MD5 check sum: 5f16ad9a65e90284d1d834d4ab3b0f7d
     Pseudo is Projector augmented-wave + core cor, Zval =  4.0
     Generated using &quot;atomic&quot; code by A. Dal Corso  v.6.3
     Shape of augmentation charge: PSQ
     Using radial grid of 1073 points,  4 beta functions with: 
                l(1) =   0
                l(2) =   0
                l(3) =   1
                l(4) =   1
     Q(r) pseudized with 0 coefficients 


     PseudoPot. # 2 for N  read from file:
     ../../pseudos/N.pbe-n-kjpaw_psl.1.0.0.UPF
     MD5 check sum: a6186d50559fdcbe4b2d0187dd61a119
     Pseudo is Projector augmented-wave + core cor, Zval =  5.0
     Generated using &quot;atomic&quot; code by A. Dal Corso  v.6.3
     Shape of augmentation charge: PSQ
     Using radial grid of 1085 points,  4 beta functions with: 
                l(1) =   0
                l(2) =   0
                l(3) =   1
                l(4) =   1
     Q(r) pseudized with 0 coefficients 


     atomic species   valence    mass     pseudopotential
     C                 4.00    12.01070     C ( 1.00)
     N                 5.00    14.00670     N ( 1.00)

     Starting magnetic structure 
     atomic species   magnetization
     C               0.000
     N               0.000

     No symmetry found


                                    s                        frac. trans.

      isym =  1     identity                                     

 cryst.   s( 1) = (     1          0          0      )
                  (     0          1          0      )
                  (     0          0          1      )

 cart.    s( 1) = (  1.0000000  0.0000000  0.0000000 )
                  (  0.0000000  1.0000000  0.0000000 )
                  (  0.0000000  0.0000000  1.0000000 )


   Cartesian axes

     site n.     atom                  positions (alat units)
         1        C      tau(   1) = (  -0.0000832   0.0000786   0.0000641  )
         2        C      tau(   2) = (  -0.1925045   0.1926678  -0.1922264  )
         3        C      tau(   3) = (  -0.3850323   0.3848486  -0.3849372  )
         4        C      tau(   4) = (   0.1358126   0.2723309   0.1360907  )
         5        C      tau(   5) = (  -0.0569060   0.4653231  -0.0560003  )
         6        C      tau(   6) = (  -0.2488294   0.6570246  -0.2489898  )
         7        C      tau(   7) = (   0.2722098   0.5443223   0.2723050  )
         8        C      tau(   8) = (   0.0798923   0.7367858   0.0797319  )
         9        C      tau(   9) = (  -0.1131037   0.9286586  -0.1122266  )
        10        C      tau(  10) = (  -0.2357451   0.0002862   0.2356757  )
        11        C      tau(  11) = (  -0.4282821   0.1925459   0.0432080  )
        12        C      tau(  12) = (  -0.6206080   0.3848685  -0.1490679  )
        13        C      tau(  13) = (  -0.0996029   0.2722969   0.3718873  )
        14        C      tau(  14) = (  -0.2939404   0.4660976   0.1808462  )
        15        C      tau(  15) = (  -0.4829597   0.6572192  -0.0137541  )
        16        C      tau(  16) = (   0.0363442   0.5442719   0.5078844  )
        17        C      tau(  17) = (  -0.1553577   0.7367087   0.3138479  )
        18        C      tau(  18) = (  -0.3491556   0.9279625   0.1239942  )
        19        C      tau(  19) = (  -0.4714245   0.0000590   0.4714102  )
        20        C      tau(  20) = (  -0.6638977   0.1924715   0.2788876  )
        21        C      tau(  21) = (  -0.8562715   0.3851259   0.0866016  )
        22        C      tau(  22) = (  -0.3352631   0.2722116   0.6075222  )
        23        C      tau(  23) = (  -0.5280269   0.4645266   0.4153138  )
        24        C      tau(  24) = (  -0.7191943   0.6569609   0.2225814  )
        25        C      tau(  25) = (  -0.1993857   0.5445131   0.7434874  )
        26        C      tau(  26) = (  -0.3916295   0.7364415   0.5501463  )
        27        C      tau(  27) = (  -0.5844985   0.9295307   0.3589566  )
        28        C      tau(  28) = (  -0.0499650   0.1362898   0.1858445  )
        29        C      tau(  29) = (  -0.2426510   0.3294255  -0.0058464  )
        30        C      tau(  30) = (  -0.4349074   0.5208404  -0.1993246  )
        31        C      tau(  31) = (   0.0861167   0.4082908   0.3221312  )
        32        C      tau(  32) = (  -0.1061837   0.6023637   0.1303292  )
        33        C      tau(  33) = (  -0.2992882   0.7917225  -0.0621160  )
        34        C      tau(  34) = (   0.2224017   0.6804017   0.4581928  )
        35        C      tau(  35) = (   0.0300338   0.8730008   0.2658043  )
        36        C      tau(  36) = (  -0.1628898   1.0646770   0.0735789  )
        37        C      tau(  37) = (  -0.2854745   0.1361878   0.4217098  )
        38        C      tau(  38) = (  -0.4781627   0.3282954   0.2292196  )
        39        C      tau(  39) = (  -0.6695432   0.5213111   0.0372790  )
        40        C      tau(  40) = (  -0.1493871   0.4083098   0.5576840  )
        41        C      tau(  41) = (  -0.3427566   0.5994642   0.3630247  )
        42        C      tau(  42) = (  -0.5331213   0.7942674   0.1734583  )
        43        C      tau(  43) = (  -0.0135887   0.6805033   0.6936634  )
        44        C      tau(  44) = (  -0.2060313   0.8727402   0.5005410  )
        45        C      tau(  45) = (  -0.3983639   1.0655612   0.3090811  )
        46        C      tau(  46) = (  -0.5212556   0.1361993   0.6573817  )
        47        C      tau(  47) = (  -0.7137600   0.3286977   0.4649759  )
        48        C      tau(  48) = (  -0.9060362   0.5210850   0.2723258  )
        49        C      tau(  49) = (  -0.3851493   0.4084643   0.7932576  )
        50        C      tau(  50) = (  -0.5777307   0.6008458   0.6009560  )
        51        C      tau(  51) = (  -0.7700408   0.7931246   0.4086212  )
        52        C      tau(  52) = (  -0.2491235   0.6804684   0.9294939  )
        53        C      tau(  53) = (  -0.4414600   0.8728264   0.7368877  )
        54        C      tau(  54) = (  -0.6341339   1.0654058   0.5447213  )
        55        C      tau(  55) = (  -0.2140828   0.0964681   0.0217268  )
        56        C      tau(  56) = (  -0.4066922   0.2887153  -0.1706778  )
        57        C      tau(  57) = (  -0.5991031   0.4810712  -0.3633120  )
        58        C      tau(  58) = (  -0.0789058   0.3691568   0.1578987  )
        59        C      tau(  59) = (  -0.2716172   0.5622228  -0.0351044  )
        60        C      tau(  60) = (  -0.4631129   0.7533433  -0.2273424  )
        61        C      tau(  61) = (   0.0584251   0.6405430   0.2940079  )
        62        C      tau(  62) = (  -0.1348293   0.8316269   0.1023429  )
        63        C      tau(  63) = (  -0.3270795   1.0248379  -0.0906109  )
        64        C      tau(  64) = (  -0.4499139   0.0962881   0.2572704  )
        65        C      tau(  65) = (  -0.6422481   0.2887217   0.0648230  )
        66        C      tau(  66) = (  -0.8346126   0.4812895  -0.1273604  )
        67        C      tau(  67) = (  -0.3137182   0.3681963   0.3936641  )
        68        C      tau(  68) = (  -0.5037402   0.5604030   0.2020411  )
        69        C      tau(  69) = (  -0.6978262   0.7534108   0.0087461  )
        70        C      tau(  70) = (  -0.1782331   0.6405229   0.5285891  )
        71        C      tau(  71) = (  -0.3709537   0.8336159   0.3356260  )
        72        C      tau(  72) = (  -0.5627894   1.0256649   0.1446556  )
        73        C      tau(  73) = (  -0.6855916   0.0963246   0.4930457  )
        74        C      tau(  74) = (  -0.8778635   0.2889117   0.3005434  )
        75        C      tau(  75) = (  -1.0704263   0.4811869   0.1081911  )
        76        C      tau(  76) = (  -0.5495648   0.3685381   0.6291711  )
        77        C      tau(  77) = (  -0.7419125   0.5610086   0.4367742  )
        78        C      tau(  78) = (  -0.9341669   0.7532756   0.2441807  )
        79        C      tau(  79) = (  -0.4132680   0.6406507   0.7650941  )
        80        C      tau(  80) = (  -0.6058974   0.8329525   0.5727646  )
        81        C      tau(  81) = (  -0.7983966   1.0255489   0.3804586  )
        82        C      tau(  82) = (  -0.0284257   0.2326720  -0.0280300  )
        83        C      tau(  83) = (  -0.2206361   0.4244181  -0.2213757  )
        84        C      tau(  84) = (  -0.4131470   0.6172785  -0.4130119  )
        85        C      tau(  85) = (   0.1086999   0.5043284   0.1079602  )
        86        C      tau(  86) = (  -0.0850226   0.6969649  -0.0840895  )
        87        C      tau(  87) = (  -0.2770707   0.8895828  -0.2776080  )
        88        C      tau(  88) = (   0.2438936   0.7767033   0.2440286  )
        89        C      tau(  89) = (   0.0520700   0.9694457   0.0515327  )
        90        C      tau(  90) = (  -0.1410921   1.1613293  -0.1406937  )
        91        C      tau(  91) = (  -0.2639449   0.2323321   0.2075717  )
        92        C      tau(  92) = (  -0.4562720   0.4250903   0.0152246  )
        93        C      tau(  93) = (  -0.6493270   0.6171114  -0.1780685  )
        94        C      tau(  94) = (  -0.1280313   0.5047348   0.3434653  )
        95        C      tau(  95) = (  -0.5124572   0.8890920  -0.0409097  )
        96        C      tau(  96) = (   0.0089542   0.7768372   0.4802127  )
        97        C      tau(  97) = (  -0.1844750   0.9686738   0.2870724  )
        98        C      tau(  98) = (  -0.3768739   1.1622512   0.0948645  )
        99        C      tau(  99) = (  -0.4996650   0.2323492   0.4432876  )
       100        C      tau( 100) = (  -0.6921401   0.4248026   0.2508287  )
       101        C      tau( 101) = (  -0.8842033   0.6173355   0.0584213  )
       102        C      tau( 102) = (  -0.3635751   0.5045258   0.5793937  )
       103        C      tau( 103) = (  -0.5558028   0.6970139   0.3866789  )
       104        C      tau( 104) = (  -0.7491897   0.8899414   0.1946249  )
       105        C      tau( 105) = (  -0.2275423   0.7766681   0.7150823  )
       106        C      tau( 106) = (  -0.4202442   0.9697570   0.5235704  )
       107        C      tau( 107) = (  -0.6123787   1.1615894   0.3305298  )
       108        C      tau( 108) = (  -0.0731302   0.1163896   0.0448893  )
       109        C      tau( 109) = (  -0.2656906   0.3089417  -0.1474294  )
       110        C      tau( 110) = (  -0.4580821   0.5009390  -0.3401760  )
       111        C      tau( 111) = (   0.0627978   0.3886463   0.1810590  )
       112        C      tau( 112) = (  -0.1301600   0.5815999  -0.0109598  )
       113        C      tau( 113) = (  -0.3217584   0.7738487  -0.2050241  )
       114        C      tau( 114) = (   0.1992770   0.6604411   0.3171830  )
       115        C      tau( 115) = (   0.0075626   0.8537553   0.1242969  )
       116        C      tau( 116) = (  -0.1860235   1.0449213  -0.0675170  )
       117        C      tau( 117) = (  -0.3088018   0.1162618   0.2805919  )
       118        C      tau( 118) = (  -0.5012534   0.3086497   0.0880612  )
       119        C      tau( 119) = (  -0.6933605   0.5011754  -0.1042256  )
       120        C      tau( 120) = (  -0.1726261   0.3883881   0.4166885  )
       121        C      tau( 121) = (  -0.5564874   0.7732304   0.0321083  )
       122        C      tau( 122) = (  -0.0367099   0.6605055   0.5524250  )
       123        C      tau( 123) = (  -0.2293553   0.8526060   0.3592404  )
       124        C      tau( 124) = (  -0.4216176   1.0466672   0.1676535  )
       125        C      tau( 125) = (  -0.5445004   0.1161891   0.5163082  )
       126        C      tau( 126) = (  -0.7368965   0.3086866   0.3238377  )
       127        C      tau( 127) = (  -0.9292319   0.5011989   0.1313730  )
       128        C      tau( 128) = (  -0.4084075   0.3883914   0.6523268  )
       129        C      tau( 129) = (  -0.6009015   0.5808941   0.4599530  )
       130        C      tau( 130) = (  -0.7929660   0.7733040   0.2675085  )
       131        C      tau( 131) = (  -0.2723219   0.6605920   0.7882830  )
       132        C      tau( 132) = (  -0.4648037   0.8529295   0.5956708  )
       133        C      tau( 133) = (  -0.6574099   1.0455134   0.4037258  )
       134        C      tau( 134) = (  -0.1229953   0.2525369   0.2308039  )
       135        C      tau( 135) = (  -0.3161136   0.4463256   0.0389015  )
       136        C      tau( 136) = (  -0.5092495   0.6367534  -0.1552073  )
       137        C      tau( 137) = (   0.0132182   0.5244799   0.3668591  )
       138        C      tau( 138) = (  -0.1650862   0.7181743   0.1772829  )
       139        C      tau( 139) = (  -0.3718629   0.9083333  -0.0173238  )
       140        C      tau( 140) = (   0.1495373   0.7967514   0.5033174  )
       141        C      tau( 141) = (  -0.0432687   0.9890163   0.3104459  )
       142        C      tau( 142) = (  -0.2356952   1.1813942   0.1180895  )
       143        C      tau( 143) = (  -0.3585885   0.2521254   0.4666112  )
       144        C      tau( 144) = (  -0.5513795   0.4441863   0.2743541  )
       145        C      tau( 145) = (  -0.7428304   0.6373108   0.0816785  )
       146        C      tau( 146) = (  -0.2225398   0.5244973   0.6023080  )
       147        C      tau( 147) = (  -0.4150888   0.7167300   0.4082791  )
       148        C      tau( 148) = (  -0.6092093   0.9098507   0.2178499  )
       149        C      tau( 149) = (  -0.0864931   0.7966171   0.7384632  )
       150        C      tau( 150) = (  -0.2789214   0.9890602   0.5460613  )
       151        C      tau( 151) = (  -0.4712623   1.1816613   0.3538318  )
       152        C      tau( 152) = (  -0.5944194   0.2524472   0.7022200  )
       153        C      tau( 153) = (  -0.7868352   0.4448565   0.5097722  )
       154        C      tau( 154) = (  -0.9790758   0.6371830   0.3171673  )
       155        C      tau( 155) = (  -0.4578192   0.5242307   0.8381537  )
       156        C      tau( 156) = (  -0.6507799   0.7169165   0.6458575  )
       157        C      tau( 157) = (  -0.8431948   0.9092630   0.4534578  )
       158        C      tau( 158) = (  -0.3221597   0.7966344   0.9743391  )
       159        C      tau( 159) = (  -0.5142705   0.9893756   0.7817666  )
       160        C      tau( 160) = (  -0.7071471   1.1814058   0.5895099  )
       161        C      tau( 161) = (  -0.2872446   0.2126833   0.0665546  )
       162        C      tau( 162) = (  -0.4796117   0.4048994  -0.1259708  )
       163        C      tau( 163) = (  -0.6724448   0.5973051  -0.3186647  )
       164        C      tau( 164) = (  -0.1520285   0.4861393   0.2029867  )
       165        C      tau( 165) = (  -0.3462094   0.6742264  -0.0038403  )
       166        C      tau( 166) = (  -0.5359192   0.8694792  -0.1822046  )
       167        C      tau( 167) = (  -0.0138774   0.7569508   0.3401648  )
       168        C      tau( 168) = (  -0.2079014   0.9481171   0.1466377  )
       169        C      tau( 169) = (  -0.3999098   1.1415491  -0.0461250  )
       170        C      tau( 170) = (  -0.5229488   0.2122449   0.3022509  )
       171        C      tau( 171) = (  -0.7150735   0.4049886   0.1097743  )
       172        C      tau( 172) = (  -0.9075843   0.5973869  -0.0826279  )
       173        C      tau( 173) = (  -0.3869714   0.4840784   0.4387622  )
       174        C      tau( 174) = (  -0.5774087   0.6773446   0.2459592  )
       175        C      tau( 175) = (  -0.7715460   0.8695294   0.0534367  )
       176        C      tau( 176) = (  -0.2508000   0.7566973   0.5737088  )
       177        C      tau( 177) = (  -0.4434949   0.9500598   0.3835643  )
       178        C      tau( 178) = (  -0.6357100   1.1417596   0.1893841  )
       179        C      tau( 179) = (  -0.7586397   0.2126006   0.5379997  )
       180        C      tau( 180) = (  -0.9508403   0.4046037   0.3451327  )
       181        C      tau( 181) = (  -1.1434583   0.5973539   0.1530406  )
       182        C      tau( 182) = (  -0.6225486   0.4847191   0.6740588  )
       183        C      tau( 183) = (  -0.8149772   0.6770756   0.4816603  )
       184        C      tau( 184) = (  -1.0073155   0.8697428   0.2887216  )
       185        C      tau( 185) = (  -0.4862803   0.7567553   0.8099627  )
       186        C      tau( 186) = (  -0.6789179   0.9491232   0.6177347  )
       187        C      tau( 187) = (  -0.8713338   1.1415674   0.4253232  )
       188        C      tau( 188) = (  -0.1016037   0.3490857   0.0169013  )
       189        C      tau( 189) = (  -0.2932846   0.5396789  -0.1770245  )
       190        C      tau( 190) = (  -0.4862815   0.7335140  -0.3682892  )
       191        C      tau( 191) = (   0.0363723   0.6196670   0.1526324  )
       192        C      tau( 192) = (  -0.1581841   0.8122865  -0.0389097  )
       193        C      tau( 193) = (  -0.3500967   1.0054577  -0.2320293  )
       194        C      tau( 194) = (   0.1709614   0.8929879   0.2889537  )
       195        C      tau( 195) = (  -0.0216055   1.0851630   0.0964619  )
       196        C      tau( 196) = (  -0.2140128   1.2775842  -0.0959811  )
       197        C      tau( 197) = (  -0.3371187   0.3478772   0.2527095  )
       198        C      tau( 198) = (  -0.5276538   0.5414119   0.0602720  )
       199        C      tau( 199) = (  -0.7217301   0.7334296  -0.1324788  )
       200        C      tau( 200) = (  -0.2012490   0.6206109   0.3866768  )
       201        C      tau( 201) = (  -0.4011314   0.8242737   0.2011291  )
       202        C      tau( 202) = (  -0.5857082   1.0055050   0.0036097  )
       203        C      tau( 203) = (  -0.0648187   0.8928230   0.5244325  )
       204        C      tau( 204) = (  -0.2572549   1.0852012   0.3320631  )
       205        C      tau( 205) = (  -0.4497131   1.2781947   0.1395711  )
       206        C      tau( 206) = (  -0.5727866   0.3484056   0.4882492  )
       207        C      tau( 207) = (  -0.7648778   0.5410573   0.2956469  )
       208        C      tau( 208) = (  -0.9573798   0.7334315   0.1032120  )
       209        C      tau( 209) = (  -0.4365932   0.6207125   0.6239316  )
       210        C      tau( 210) = (  -0.6290504   0.8131737   0.4317414  )
       211        C      tau( 211) = (  -0.8219407   1.0057370   0.2392631  )
       212        C      tau( 212) = (  -0.3005088   0.8928151   0.7600830  )
       213        C      tau( 213) = (  -0.4929795   1.0855563   0.5682243  )
       214        C      tau( 214) = (  -0.6853901   1.2777399   0.3753584  )
       215        N      tau( 215) = (  -0.3677650   0.5740586   0.2284750  )

   Crystallographic axes

     site n.     atom                  positions (cryst. coord.)
         1        C      tau(   1) = (  0.0001042  0.0000564  0.0000564  )
         2        C      tau(   2) = (  0.0001966  0.0002469  0.3333613  )
         3        C      tau(   3) = (  0.0000673 -0.0001112  0.6667345  )
         4        C      tau(   4) = (  0.0001966  0.3333613  0.0002469  )
         5        C      tau(   5) = (  0.0006405  0.3338409  0.3338409  )
         6        C      tau(   6) = ( -0.0001134  0.3332244  0.6667494  )
         7        C      tau(   7) = (  0.0000673  0.6667345 -0.0001112  )
         8        C      tau(   8) = ( -0.0001134  0.6667494  0.3332244  )
         9        C      tau(   9) = (  0.0006202  0.6662558  0.6662558  )
        10        C      tau(  10) = (  0.3333449  0.0002053  0.0002053  )
        11        C      tau(  11) = (  0.3333939  0.0000072  0.3334891  )
        12        C      tau(  12) = (  0.3334293  0.0000250  0.6665765  )
        13        C      tau(  13) = (  0.3333939  0.3334891  0.0000072  )
        14        C      tau(  14) = (  0.3357248  0.3343966  0.3343966  )
        15        C      tau(  15) = (  0.3317785  0.3338347  0.6662235  )
        16        C      tau(  16) = (  0.3334293  0.6665765  0.0000250  )
        17        C      tau(  17) = (  0.3317785  0.6662235  0.3338347  )
        18        C      tau(  18) = (  0.3345674  0.6657565  0.6657565  )
        19        C      tau(  19) = (  0.6666848  0.0000423  0.0000423  )
        20        C      tau(  20) = (  0.6666498 -0.0000274  0.3334091  )
        21        C      tau(  21) = (  0.6667120  0.0002375  0.6667217  )
        22        C      tau(  22) = (  0.6666498  0.3334091 -0.0000274  )
        23        C      tau(  23) = (  0.6670426  0.3332695  0.3332695  )
        24        C      tau(  24) = (  0.6659360  0.3336649  0.6660161  )
        25        C      tau(  25) = (  0.6667120  0.6667217  0.0002375  )
        26        C      tau(  26) = (  0.6659360  0.6660161  0.3336649  )
        27        C      tau(  27) = (  0.6671235  0.6668815  0.6668815  )
        28        C      tau(  28) = (  0.1667425  0.1667527  0.0002369  )
        29        C      tau(  29) = (  0.1674461  0.1675262  0.3336640  )
        30        C      tau(  30) = (  0.1665822  0.1663403  0.6668814  )
        31        C      tau(  31) = (  0.1668874  0.5000346  0.0000248  )
        32        C      tau(  32) = (  0.1672398  0.5016852  0.3338344  )
        33        C      tau(  33) = (  0.1677061  0.4988960  0.6657580  )
        34        C      tau(  34) = (  0.1667295  0.8333972 -0.0001113  )
        35        C      tau(  35) = (  0.1667149  0.8335775  0.3332250  )
        36        C      tau(  36) = (  0.1672086  0.8328441  0.6662553  )
        37        C      tau(  37) = (  0.5000548  0.1668147 -0.0000275  )
        38        C      tau(  38) = (  0.5001948  0.1664214  0.3332688  )
        39        C      tau(  39) = (  0.4997988  0.1675280  0.6660170  )
        40        C      tau(  40) = (  0.4999748  0.5000701  0.0000074  )
        41        C      tau(  41) = (  0.4990628  0.4977349  0.3343990  )
        42        C      tau(  42) = (  0.4996273  0.5016848  0.6662220  )
        43        C      tau(  43) = (  0.5001028  0.8332680  0.0002474  )
        44        C      tau(  44) = (  0.4996221  0.8328225  0.3338415  )
        45        C      tau(  45) = (  0.5002391  0.8335776  0.6667495  )
        46        C      tau(  46) = (  0.8334224  0.1667795  0.0000422  )
        47        C      tau(  47) = (  0.8334921  0.1668149  0.3334092  )
        48        C      tau(  48) = (  0.8332278  0.1667530  0.6667215  )
        49        C      tau(  49) = (  0.8332596  0.5001192  0.0002055  )
        50        C      tau(  50) = (  0.8334574  0.5000702  0.3334894  )
        51        C      tau(  51) = (  0.8334399  0.5000346  0.6665765  )
        52        C      tau(  52) = (  0.8334084  0.8333602  0.0000566  )
        53        C      tau(  53) = (  0.8332176  0.8332676  0.3333613  )
        54        C      tau(  54) = (  0.8335765  0.8333976  0.6667347  )
        55        C      tau(  55) = (  0.1667425  0.0002369  0.1667527  )
        56        C      tau(  56) = (  0.1668874  0.0000248  0.5000346  )
        57        C      tau(  57) = (  0.1667295 -0.0001113  0.8333972  )
        58        C      tau(  58) = (  0.1674461  0.3336640  0.1675262  )
        59        C      tau(  59) = (  0.1672398  0.3338344  0.5016852  )
        60        C      tau(  60) = (  0.1667149  0.3332250  0.8335775  )
        61        C      tau(  61) = (  0.1665822  0.6668814  0.1663403  )
        62        C      tau(  62) = (  0.1677061  0.6657580  0.4988960  )
        63        C      tau(  63) = (  0.1672086  0.6662553  0.8328441  )
        64        C      tau(  64) = (  0.5000548 -0.0000275  0.1668147  )
        65        C      tau(  65) = (  0.4999748  0.0000074  0.5000701  )
        66        C      tau(  66) = (  0.5001028  0.0002475  0.8332680  )
        67        C      tau(  67) = (  0.5001948  0.3332688  0.1664214  )
        68        C      tau(  68) = (  0.4990628  0.3343990  0.4977349  )
        69        C      tau(  69) = (  0.4996221  0.3338416  0.8328225  )
        70        C      tau(  70) = (  0.4997988  0.6660170  0.1675280  )
        71        C      tau(  71) = (  0.4996273  0.6662220  0.5016848  )
        72        C      tau(  72) = (  0.5002391  0.6667495  0.8335776  )
        73        C      tau(  73) = (  0.8334224  0.0000422  0.1667795  )
        74        C      tau(  74) = (  0.8332596  0.0002055  0.5001192  )
        75        C      tau(  75) = (  0.8334084  0.0000566  0.8333602  )
        76        C      tau(  76) = (  0.8334921  0.3334092  0.1668149  )
        77        C      tau(  77) = (  0.8334574  0.3334894  0.5000702  )
        78        C      tau(  78) = (  0.8332176  0.3333613  0.8332676  )
        79        C      tau(  79) = (  0.8332278  0.6667215  0.1667530  )
        80        C      tau(  80) = (  0.8334399  0.6665765  0.5000346  )
        81        C      tau(  81) = (  0.8335765  0.6667347  0.8333976  )
        82        C      tau(  82) = (  0.0002798  0.1669280  0.1669280  )
        83        C      tau(  83) = ( -0.0005230  0.1660854  0.5002335  )
        84        C      tau(  84) = (  0.0000955  0.1667278  0.8333690  )
        85        C      tau(  85) = ( -0.0005230  0.5002335  0.1660854  )
        86        C      tau(  86) = (  0.0006598  0.5000298  0.5000298  )
        87        C      tau(  87) = ( -0.0003799  0.4998947  0.8338447  )
        88        C      tau(  88) = (  0.0000955  0.8333690  0.1667278  )
        89        C      tau(  89) = ( -0.0003799  0.8338447  0.4998947  )
        90        C      tau(  90) = (  0.0002817  0.8331828  0.8331828  )
        91        C      tau(  91) = (  0.3334126  0.1666841  0.1666841  )
        92        C      tau(  92) = (  0.3333984  0.1670279  0.5000648  )
        93        C      tau(  93) = (  0.3332301  0.1660865  0.8339865  )
        94        C      tau(  94) = (  0.3333984  0.5000648  0.1670279  )
        95        C      tau(  95) = (  0.3334344  0.5000295  0.8328041  )
        96        C      tau(  96) = (  0.3332301  0.8339865  0.1660865  )
        97        C      tau(  97) = (  0.3334344  0.8328041  0.5000295  )
        98        C      tau(  98) = (  0.3335694  0.8338443  0.8338443  )
        99        C      tau(  99) = (  0.6667681  0.1666964  0.1666964  )
       100        C      tau( 100) = (  0.6667797  0.1666852  0.5000512  )
       101        C      tau( 101) = (  0.6665362  0.1669282  0.8331842  )
       102        C      tau( 102) = (  0.6667797  0.5000512  0.1666852  )
       103        C      tau( 103) = (  0.6664352  0.5000649  0.5000649  )
       104        C      tau( 104) = (  0.6673777  0.5002340  0.8339860  )
       105        C      tau( 105) = (  0.6665362  0.8331842  0.1669282  )
       106        C      tau( 106) = (  0.6673777  0.8339860  0.5002340  )
       107        C      tau( 107) = (  0.6667370  0.8333694  0.8333694  )
       108        C      tau( 108) = (  0.0834524  0.0835024  0.0835024  )
       109        C      tau( 109) = (  0.0836233  0.0835943  0.4168825  )
       110        C      tau( 110) = (  0.0833722  0.0831275  0.7500918  )
       111        C      tau( 111) = (  0.0836233  0.4168825  0.0835943  )
       112        C      tau( 112) = (  0.0842873  0.4172624  0.4172624  )
       113        C      tau( 113) = (  0.0825436  0.4167867  0.7509197  )
       114        C      tau( 114) = (  0.0833722  0.7500918  0.0831275  )
       115        C      tau( 115) = (  0.0825437  0.7509197  0.4167867  )
       116        C      tau( 116) = (  0.0837968  0.7496672  0.7496672  )
       117        C      tau( 117) = (  0.4167643  0.0834107  0.0834107  )
       118        C      tau( 118) = (  0.4167083  0.0833265  0.4167556  )
       119        C      tau( 119) = (  0.4165813  0.0835949  0.7498403  )
       120        C      tau( 120) = (  0.4167083  0.4167556  0.0833265  )
       121        C      tau( 121) = (  0.4162000  0.4172631  0.7491752  )
       122        C      tau( 122) = (  0.4165813  0.7498403  0.0835949  )
       123        C      tau( 123) = (  0.4162000  0.7491752  0.4172631  )
       124        C      tau( 124) = (  0.4166776  0.7509198  0.7509198  )
       125        C      tau( 125) = (  0.7501049  0.0833586  0.0833586  )
       126        C      tau( 126) = (  0.7500524  0.0834110  0.4166999  )
       127        C      tau( 127) = (  0.7499609  0.0835027  0.7500114  )
       128        C      tau( 128) = (  0.7500524  0.4166999  0.0834110  )
       129        C      tau( 129) = (  0.7501374  0.4167560  0.4167560  )
       130        C      tau( 130) = (  0.7498687  0.4168829  0.7498403  )
       131        C      tau( 131) = (  0.7499609  0.7500114  0.0835027  )
       132        C      tau( 132) = (  0.7498687  0.7498403  0.4168829  )
       133        C      tau( 133) = (  0.7503363  0.7500921  0.7500921  )
       134        C      tau( 134) = (  0.2501738  0.2502082  0.0835589  )
       135        C      tau( 135) = (  0.2510336  0.2512519  0.4177347  )
       136        C      tau( 136) = (  0.2503457  0.2486436  0.7512540  )
       137        C      tau( 137) = (  0.2500619  0.5834020  0.0833709  )
       138        C      tau( 138) = (  0.2420915  0.5913661  0.4075964  )
       139        C      tau( 139) = (  0.2506970  0.5827663  0.7491235  )
       140        C      tau( 140) = (  0.2501603  0.9170717  0.0830788  )
       141        C      tau( 141) = (  0.2501140  0.9166031  0.4167540  )
       142        C      tau( 142) = (  0.2501636  0.9165920  0.7499780  )
       143        C      tau( 143) = (  0.5835043  0.2499597  0.0831977  )
       144        C      tau( 144) = (  0.5838818  0.2495814  0.4163918  )
       145        C      tau( 145) = (  0.5830158  0.2504479  0.7496677  )
       146        C      tau( 146) = (  0.5832555  0.5832900  0.0835594  )
       147        C      tau( 147) = (  0.5822091  0.5824276  0.4177359  )
       148        C      tau( 148) = (  0.5848192  0.5831182  0.7512540  )
       149        C      tau( 149) = (  0.5833322  0.9166008  0.0835120  )
       150        C      tau( 150) = (  0.5833509  0.9166237  0.4168009  )
       151        C      tau( 151) = (  0.5834297  0.9168816  0.7500310  )
       152        C      tau( 152) = (  0.9168625  0.2501316  0.0835118  )
       153        C      tau( 153) = (  0.9168399  0.2501133  0.4168004  )
       154        C      tau( 154) = (  0.9165823  0.2500347  0.7500309  )
       155        C      tau( 155) = (  0.9163913  0.5833035  0.0830785  )
       156        C      tau( 156) = (  0.9168611  0.5833504  0.4167539  )
       157        C      tau( 157) = (  0.9168718  0.5833007  0.7499779  )
       158        C      tau( 158) = (  0.9167631  0.9167004  0.0834011  )
       159        C      tau( 159) = (  0.9164366  0.9170266  0.4167773  )
       160        C      tau( 160) = (  0.9168749  0.9165886  0.7500028  )
       161        C      tau( 161) = (  0.2501738  0.0835589  0.2502082  )
       162        C      tau( 162) = (  0.2500619  0.0833709  0.5834020  )
       163        C      tau( 163) = (  0.2501603  0.0830788  0.9170717  )
       164        C      tau( 164) = (  0.2510336  0.4177347  0.2512519  )
       165        C      tau( 165) = (  0.2420915  0.4075964  0.5913661  )
       166        C      tau( 166) = (  0.2501140  0.4167540  0.9166031  )
       167        C      tau( 167) = (  0.2503457  0.7512540  0.2486436  )
       168        C      tau( 168) = (  0.2506970  0.7491235  0.5827663  )
       169        C      tau( 169) = (  0.2501636  0.7499780  0.9165920  )
       170        C      tau( 170) = (  0.5835043  0.0831977  0.2499597  )
       171        C      tau( 171) = (  0.5832555  0.0835594  0.5832899  )
       172        C      tau( 172) = (  0.5833322  0.0835120  0.9166008  )
       173        C      tau( 173) = (  0.5838818  0.4163918  0.2495814  )
       174        C      tau( 174) = (  0.5822091  0.4177359  0.5824276  )
       175        C      tau( 175) = (  0.5833509  0.4168009  0.9166237  )
       176        C      tau( 176) = (  0.5830158  0.7496677  0.2504479  )
       177        C      tau( 177) = (  0.5848192  0.7512540  0.5831182  )
       178        C      tau( 178) = (  0.5834297  0.7500310  0.9168816  )
       179        C      tau( 179) = (  0.9168625  0.0835118  0.2501316  )
       180        C      tau( 180) = (  0.9163913  0.0830785  0.5833035  )
       181        C      tau( 181) = (  0.9167631  0.0834011  0.9167004  )
       182        C      tau( 182) = (  0.9168399  0.4168004  0.2501133  )
       183        C      tau( 183) = (  0.9168611  0.4167539  0.5833504  )
       184        C      tau( 184) = (  0.9164366  0.4167773  0.9170266  )
       185        C      tau( 185) = (  0.9165823  0.7500309  0.2500347  )
       186        C      tau( 186) = (  0.9168718  0.7499779  0.5833007  )
       187        C      tau( 187) = (  0.9168749  0.7500028  0.9165886  )
       188        C      tau( 188) = (  0.0837957  0.2504477  0.2504477  )
       189        C      tau( 189) = (  0.0822083  0.2486430  0.5831168  )
       190        C      tau( 190) = (  0.0834331  0.2500346  0.9168811  )
       191        C      tau( 191) = (  0.0822083  0.5831168  0.2486430  )
       192        C      tau( 192) = (  0.0843397  0.5827660  0.5827660  )
       193        C      tau( 193) = (  0.0834862  0.5833008  0.9165919  )
       194        C      tau( 194) = (  0.0834331  0.9168811  0.2500346  )
       195        C      tau( 195) = (  0.0834862  0.9165919  0.5833008  )
       196        C      tau( 196) = (  0.0834611  0.9165886  0.9165886  )
       197        C      tau( 197) = (  0.4170715  0.2495806  0.2495806  )
       198        C      tau( 198) = (  0.4157263  0.2512531  0.5824273  )
       199        C      tau( 199) = (  0.4166636  0.2501135  0.9166235  )
       200        C      tau( 200) = (  0.4157263  0.5824273  0.2512531  )
       201        C      tau( 201) = (  0.4258625  0.5913660  0.5913660  )
       202        C      tau( 202) = (  0.4167107  0.5833507  0.9166034  )
       203        C      tau( 203) = (  0.4166636  0.9166235  0.2501135  )
       204        C      tau( 204) = (  0.4167107  0.9166034  0.5833507  )
       205        C      tau( 205) = (  0.4166869  0.9170267  0.9170266  )
       206        C      tau( 206) = (  0.7502656  0.2499597  0.2499597  )
       207        C      tau( 207) = (  0.7499043  0.2502087  0.5832901  )
       208        C      tau( 208) = (  0.7499516  0.2501318  0.9166008  )
       209        C      tau( 209) = (  0.7499043  0.5832902  0.2502087  )
       210        C      tau( 210) = (  0.7500931  0.5834025  0.5834025  )
       211        C      tau( 211) = (  0.7503844  0.5833037  0.9170716  )
       212        C      tau( 212) = (  0.7499516  0.9166008  0.2501318  )
       213        C      tau( 213) = (  0.7503844  0.9170716  0.5833037  )
       214        C      tau( 214) = (  0.7500624  0.9167004  0.9167004  )
       215        N      tau( 215) = (  0.4216054  0.4118520  0.4118520  )

     number of k points=     1
                       cart. coord. in units 2pi/alat
        k(    1) = (   0.0000000   0.0000000   0.0000000), wk =   1.0000000

                       cryst. coord.
        k(    1) = (   0.0000000   0.0000000   0.0000000), wk =   1.0000000

     Dense  grid:   338755 G-vectors     FFT dimensions: (  90,  90,  90)

     Occupations read from input 

      Spin-up

        1.0000   1.0000   1.0000   1.0000   1.0000   1.0000   1.0000   1.0000
        1.0000   1.0000   1.0000   1.0000   1.0000   1.0000   1.0000   1.0000
        1.0000   1.0000   1.0000   1.0000   1.0000   1.0000   1.0000   1.0000
        1.0000   1.0000   1.0000   1.0000   1.0000   1.0000   1.0000   1.0000
        1.0000   1.0000   1.0000   1.0000   1.0000   1.0000   1.0000   1.0000
        1.0000   1.0000   1.0000   1.0000   1.0000   1.0000   1.0000   1.0000
        1.0000   1.0000   1.0000   1.0000   1.0000   1.0000   1.0000   1.0000
        1.0000   1.0000   1.0000   1.0000   1.0000   1.0000   1.0000   1.0000
        1.0000   1.0000   1.0000   1.0000   1.0000   1.0000   1.0000   1.0000
        1.0000   1.0000   1.0000   1.0000   1.0000   1.0000   1.0000   1.0000
        1.0000   1.0000   1.0000   1.0000   1.0000   1.0000   1.0000   1.0000
        1.0000   1.0000   1.0000   1.0000   1.0000   1.0000   1.0000   1.0000
        1.0000   1.0000   1.0000   1.0000   1.0000   1.0000   1.0000   1.0000
        1.0000   1.0000   1.0000   1.0000   1.0000   1.0000   1.0000   1.0000
        1.0000   1.0000   1.0000   1.0000   1.0000   1.0000   1.0000   1.0000
        1.0000   1.0000   1.0000   1.0000   1.0000   1.0000   1.0000   1.0000
        1.0000   1.0000   1.0000   1.0000   1.0000   1.0000   1.0000   1.0000
        1.0000   1.0000   1.0000   1.0000   1.0000   1.0000   1.0000   1.0000
        1.0000   1.0000   1.0000   1.0000   1.0000   1.0000   1.0000   1.0000
        1.0000   1.0000   1.0000   1.0000   1.0000   1.0000   1.0000   1.0000
        1.0000   1.0000   1.0000   1.0000   1.0000   1.0000   1.0000   1.0000
        1.0000   1.0000   1.0000   1.0000   1.0000   1.0000   1.0000   1.0000
        1.0000   1.0000   1.0000   1.0000   1.0000   1.0000   1.0000   1.0000
        1.0000   1.0000   1.0000   1.0000   1.0000   1.0000   1.0000   1.0000
        1.0000   1.0000   1.0000   1.0000   1.0000   1.0000   1.0000   1.0000
        1.0000   1.0000   1.0000   1.0000   1.0000   1.0000   1.0000   1.0000
        1.0000   1.0000   1.0000   1.0000   1.0000   1.0000   1.0000   1.0000
        1.0000   1.0000   1.0000   1.0000   1.0000   1.0000   1.0000   1.0000
        1.0000   1.0000   1.0000   1.0000   1.0000   1.0000   1.0000   1.0000
        1.0000   1.0000   1.0000   1.0000   1.0000   1.0000   1.0000   1.0000
        1.0000   1.0000   1.0000   1.0000   1.0000   1.0000   1.0000   1.0000
        1.0000   1.0000   1.0000   1.0000   1.0000   1.0000   1.0000   1.0000
        1.0000   1.0000   1.0000   1.0000   1.0000   1.0000   1.0000   1.0000
        1.0000   1.0000   1.0000   1.0000   1.0000   1.0000   1.0000   1.0000
        1.0000   1.0000   1.0000   1.0000   1.0000   1.0000   1.0000   1.0000
        1.0000   1.0000   1.0000   1.0000   1.0000   1.0000   1.0000   1.0000
        1.0000   1.0000   1.0000   1.0000   1.0000   1.0000   1.0000   1.0000
        1.0000   1.0000   1.0000   1.0000   1.0000   1.0000   1.0000   1.0000
        1.0000   1.0000   1.0000   1.0000   1.0000   1.0000   1.0000   1.0000
        1.0000   1.0000   1.0000   1.0000   1.0000   1.0000   1.0000   1.0000
        1.0000   1.0000   1.0000   1.0000   1.0000   1.0000   1.0000   1.0000
        1.0000   1.0000   1.0000   1.0000   1.0000   1.0000   1.0000   1.0000
        1.0000   1.0000   1.0000   1.0000   1.0000   1.0000   1.0000   1.0000
        1.0000   1.0000   1.0000   1.0000   1.0000   1.0000   1.0000   1.0000
        1.0000   1.0000   1.0000   1.0000   1.0000   1.0000   1.0000   1.0000
        1.0000   1.0000   1.0000   1.0000   1.0000   1.0000   1.0000   1.0000
        1.0000   1.0000   1.0000   1.0000   1.0000   1.0000   1.0000   1.0000
        1.0000   1.0000   1.0000   1.0000   1.0000   1.0000   1.0000   1.0000
        1.0000   1.0000   1.0000   1.0000   1.0000   1.0000   1.0000   1.0000
        1.0000   1.0000   1.0000   1.0000   1.0000   1.0000   1.0000   1.0000
        1.0000   1.0000   1.0000   1.0000   1.0000   1.0000   1.0000   1.0000
        1.0000   1.0000   1.0000   1.0000   1.0000   1.0000   1.0000   1.0000
        1.0000   1.0000   1.0000   1.0000   1.0000   1.0000   1.0000   1.0000
        1.0000   1.0000   1.0000   1.0000   1.0000   1.0000   1.0000   1.0000
        0.0000   0.0000   0.0000   0.0000   0.0000   0.0000   0.0000   0.0000
        0.0000   0.0000   0.0000   0.0000   0.0000   0.0000   0.0000   0.0000
        0.0000   0.0000   0.0000   0.0000   0.0000   0.0000   0.0000   0.0000
        0.0000   0.0000   0.0000   0.0000   0.0000   0.0000   0.0000   0.0000
        0.0000   0.0000   0.0000   0.0000   0.0000   0.0000   0.0000   0.0000
        0.0000   0.0000   0.0000   0.0000   0.0000   0.0000   0.0000   0.0000
        0.0000   0.0000   0.0000   0.0000   0.0000   0.0000   0.0000   0.0000
        0.0000   0.0000   0.0000   0.0000   0.0000   0.0000   0.0000   0.0000
        0.0000   0.0000   0.0000   0.0000   0.0000   0.0000   0.0000   0.0000
        0.0000   0.0000   0.0000   0.0000   0.0000   0.0000   0.0000   0.0000
        0.0000   0.0000   0.0000   0.0000   0.0000   0.0000   0.0000   0.0000
        0.0000   0.0000   0.0000   0.0000   0.0000   0.0000   0.0000   0.0000
        0.0000   0.0000   0.0000   0.0000   0.0000   0.0000   0.0000   0.0000
        0.0000   0.0000   0.0000   0.0000   0.0000   0.0000   0.0000   0.0000
        0.0000   0.0000   0.0000   0.0000   0.0000   0.0000   0.0000   0.0000
        0.0000   0.0000   0.0000   0.0000   0.0000   0.0000   0.0000   0.0000
        0.0000   0.0000   0.0000   0.0000   0.0000   0.0000   0.0000   0.0000
        0.0000   0.0000   0.0000   0.0000   0.0000   0.0000   0.0000   0.0000
        0.0000   0.0000   0.0000   0.0000   0.0000   0.0000   0.0000   0.0000
        0.0000   0.0000   0.0000   0.0000   0.0000   0.0000   0.0000   0.0000
        0.0000   0.0000   0.0000   0.0000   0.0000   0.0000   0.0000   0.0000
        0.0000   0.0000   0.0000   0.0000   0.0000   0.0000   0.0000   0.0000
        0.0000   0.0000   0.0000   0.0000   0.0000   0.0000   0.0000   0.0000
        0.0000   0.0000   0.0000   0.0000   0.0000   0.0000   0.0000   0.0000
        0.0000   0.0000   0.0000   0.0000   0.0000   0.0000   0.0000   0.0000
        0.0000   0.0000   0.0000   0.0000   0.0000   0.0000   0.0000   0.0000
        0.0000   0.0000   0.0000   0.0000   0.0000   0.0000   0.0000   0.0000
        0.0000   0.0000   0.0000   0.0000   0.0000   0.0000   0.0000   0.0000
        0.0000   0.0000   0.0000   0.0000   0.0000   0.0000   0.0000   0.0000
        0.0000   0.0000   0.0000   0.0000   0.0000   0.0000   0.0000   0.0000
        0.0000   0.0000   0.0000   0.0000   0.0000   0.0000   0.0000   0.0000
        0.0000   0.0000   0.0000   0.0000   0.0000   0.0000   0.0000   0.0000
        0.0000   0.0000   0.0000   0.0000   0.0000   0.0000   0.0000   0.0000
        0.0000   0.0000   0.0000   0.0000   0.0000   0.0000   0.0000   0.0000
        0.0000   0.0000   0.0000   0.0000   0.0000   0.0000   0.0000   0.0000
        0.0000   0.0000   0.0000   0.0000   0.0000   0.0000   0.0000   0.0000
        0.0000   0.0000   0.0000   0.0000   0.0000   0.0000   0.0000   0.0000
        0.0000   0.0000   0.0000   0.0000   0.0000   0.0000   0.0000   0.0000
        0.0000   0.0000   0.0000   0.0000   0.0000   0.0000   0.0000   0.0000
        0.0000   0.0000   0.0000   0.0000   0.0000   0.0000   0.0000   0.0000
        0.0000   0.0000   0.0000   0.0000   0.0000   0.0000   0.0000   0.0000
        0.0000   0.0000   0.0000   0.0000   0.0000   0.0000   0.0000   0.0000
        0.0000   0.0000   0.0000   0.0000   0.0000   0.0000   0.0000   0.0000
        0.0000   0.0000   0.0000   0.0000   0.0000   0.0000   0.0000   0.0000
        0.0000   0.0000   0.0000   0.0000   0.0000   0.0000   0.0000   0.0000
        0.0000   0.0000   0.0000   0.0000   0.0000   0.0000   0.0000   0.0000
        0.0000   0.0000   0.0000   0.0000   0.0000   0.0000   0.0000   0.0000
        0.0000   0.0000   0.0000   0.0000   0.0000   0.0000   0.0000   0.0000
        0.0000   0.0000   0.0000   0.0000   0.0000   0.0000   0.0000   0.0000
        0.0000   0.0000   0.0000   0.0000   0.0000   0.0000   0.0000   0.0000
        0.0000   0.0000   0.0000   0.0000   0.0000   0.0000   0.0000   0.0000
        0.0000   0.0000   0.0000   0.0000   0.0000   0.0000   0.0000   0.0000
        0.0000   0.0000   0.0000   0.0000   0.0000   0.0000   0.0000   0.0000
        0.0000   0.0000   0.0000   0.0000   0.0000   0.0000

      Spin-down

        1.0000   1.0000   1.0000   1.0000   1.0000   1.0000   1.0000   1.0000
        1.0000   1.0000   1.0000   1.0000   1.0000   1.0000   1.0000   1.0000
        1.0000   1.0000   1.0000   1.0000   1.0000   1.0000   1.0000   1.0000
        1.0000   1.0000   1.0000   1.0000   1.0000   1.0000   1.0000   1.0000
        1.0000   1.0000   1.0000   1.0000   1.0000   1.0000   1.0000   1.0000
        1.0000   1.0000   1.0000   1.0000   1.0000   1.0000   1.0000   1.0000
        1.0000   1.0000   1.0000   1.0000   1.0000   1.0000   1.0000   1.0000
        1.0000   1.0000   1.0000   1.0000   1.0000   1.0000   1.0000   1.0000
        1.0000   1.0000   1.0000   1.0000   1.0000   1.0000   1.0000   1.0000
        1.0000   1.0000   1.0000   1.0000   1.0000   1.0000   1.0000   1.0000
        1.0000   1.0000   1.0000   1.0000   1.0000   1.0000   1.0000   1.0000
        1.0000   1.0000   1.0000   1.0000   1.0000   1.0000   1.0000   1.0000
        1.0000   1.0000   1.0000   1.0000   1.0000   1.0000   1.0000   1.0000
        1.0000   1.0000   1.0000   1.0000   1.0000   1.0000   1.0000   1.0000
        1.0000   1.0000   1.0000   1.0000   1.0000   1.0000   1.0000   1.0000
        1.0000   1.0000   1.0000   1.0000   1.0000   1.0000   1.0000   1.0000
        1.0000   1.0000   1.0000   1.0000   1.0000   1.0000   1.0000   1.0000
        1.0000   1.0000   1.0000   1.0000   1.0000   1.0000   1.0000   1.0000
        1.0000   1.0000   1.0000   1.0000   1.0000   1.0000   1.0000   1.0000
        1.0000   1.0000   1.0000   1.0000   1.0000   1.0000   1.0000   1.0000
        1.0000   1.0000   1.0000   1.0000   1.0000   1.0000   1.0000   1.0000
        1.0000   1.0000   1.0000   1.0000   1.0000   1.0000   1.0000   1.0000
        1.0000   1.0000   1.0000   1.0000   1.0000   1.0000   1.0000   1.0000
        1.0000   1.0000   1.0000   1.0000   1.0000   1.0000   1.0000   1.0000
        1.0000   1.0000   1.0000   1.0000   1.0000   1.0000   1.0000   1.0000
        1.0000   1.0000   1.0000   1.0000   1.0000   1.0000   1.0000   1.0000
        1.0000   1.0000   1.0000   1.0000   1.0000   1.0000   1.0000   1.0000
        1.0000   1.0000   1.0000   1.0000   1.0000   1.0000   1.0000   1.0000
        1.0000   1.0000   1.0000   1.0000   1.0000   1.0000   1.0000   1.0000
        1.0000   1.0000   1.0000   1.0000   1.0000   1.0000   1.0000   1.0000
        1.0000   1.0000   1.0000   1.0000   1.0000   1.0000   1.0000   1.0000
        1.0000   1.0000   1.0000   1.0000   1.0000   1.0000   1.0000   1.0000
        1.0000   1.0000   1.0000   1.0000   1.0000   1.0000   1.0000   1.0000
        1.0000   1.0000   1.0000   1.0000   1.0000   1.0000   1.0000   1.0000
        1.0000   1.0000   1.0000   1.0000   1.0000   1.0000   1.0000   1.0000
        1.0000   1.0000   1.0000   1.0000   1.0000   1.0000   1.0000   1.0000
        1.0000   1.0000   1.0000   1.0000   1.0000   1.0000   1.0000   1.0000
        1.0000   1.0000   1.0000   1.0000   1.0000   1.0000   1.0000   1.0000
        1.0000   1.0000   1.0000   1.0000   1.0000   1.0000   1.0000   1.0000
        1.0000   1.0000   1.0000   1.0000   1.0000   1.0000   1.0000   1.0000
        1.0000   1.0000   1.0000   1.0000   1.0000   1.0000   1.0000   1.0000
        1.0000   1.0000   1.0000   1.0000   1.0000   1.0000   1.0000   1.0000
        1.0000   1.0000   1.0000   1.0000   1.0000   1.0000   1.0000   1.0000
        1.0000   1.0000   1.0000   1.0000   1.0000   1.0000   1.0000   1.0000
        1.0000   1.0000   1.0000   1.0000   1.0000   1.0000   1.0000   1.0000
        1.0000   1.0000   1.0000   1.0000   1.0000   1.0000   1.0000   1.0000
        1.0000   1.0000   1.0000   1.0000   1.0000   1.0000   1.0000   1.0000
        1.0000   1.0000   1.0000   1.0000   1.0000   1.0000   1.0000   1.0000
        1.0000   1.0000   1.0000   1.0000   1.0000   1.0000   1.0000   1.0000
        1.0000   1.0000   1.0000   1.0000   1.0000   1.0000   1.0000   1.0000
        1.0000   1.0000   1.0000   1.0000   1.0000   1.0000   1.0000   1.0000
        1.0000   1.0000   1.0000   1.0000   1.0000   1.0000   1.0000   1.0000
        1.0000   1.0000   1.0000   1.0000   1.0000   1.0000   1.0000   1.0000
        1.0000   1.0000   1.0000   1.0000   1.0000   0.0000   0.5000   0.5000
        0.0000   0.0000   0.0000   0.0000   0.0000   0.0000   0.0000   0.0000
        0.0000   0.0000   0.0000   0.0000   0.0000   0.0000   0.0000   0.0000
        0.0000   0.0000   0.0000   0.0000   0.0000   0.0000   0.0000   0.0000
        0.0000   0.0000   0.0000   0.0000   0.0000   0.0000   0.0000   0.0000
        0.0000   0.0000   0.0000   0.0000   0.0000   0.0000   0.0000   0.0000
        0.0000   0.0000   0.0000   0.0000   0.0000   0.0000   0.0000   0.0000
        0.0000   0.0000   0.0000   0.0000   0.0000   0.0000   0.0000   0.0000
        0.0000   0.0000   0.0000   0.0000   0.0000   0.0000   0.0000   0.0000
        0.0000   0.0000   0.0000   0.0000   0.0000   0.0000   0.0000   0.0000
        0.0000   0.0000   0.0000   0.0000   0.0000   0.0000   0.0000   0.0000
        0.0000   0.0000   0.0000   0.0000   0.0000   0.0000   0.0000   0.0000
        0.0000   0.0000   0.0000   0.0000   0.0000   0.0000   0.0000   0.0000
        0.0000   0.0000   0.0000   0.0000   0.0000   0.0000   0.0000   0.0000
        0.0000   0.0000   0.0000   0.0000   0.0000   0.0000   0.0000   0.0000
        0.0000   0.0000   0.0000   0.0000   0.0000   0.0000   0.0000   0.0000
        0.0000   0.0000   0.0000   0.0000   0.0000   0.0000   0.0000   0.0000
        0.0000   0.0000   0.0000   0.0000   0.0000   0.0000   0.0000   0.0000
        0.0000   0.0000   0.0000   0.0000   0.0000   0.0000   0.0000   0.0000
        0.0000   0.0000   0.0000   0.0000   0.0000   0.0000   0.0000   0.0000
        0.0000   0.0000   0.0000   0.0000   0.0000   0.0000   0.0000   0.0000
        0.0000   0.0000   0.0000   0.0000   0.0000   0.0000   0.0000   0.0000
        0.0000   0.0000   0.0000   0.0000   0.0000   0.0000   0.0000   0.0000
        0.0000   0.0000   0.0000   0.0000   0.0000   0.0000   0.0000   0.0000
        0.0000   0.0000   0.0000   0.0000   0.0000   0.0000   0.0000   0.0000
        0.0000   0.0000   0.0000   0.0000   0.0000   0.0000   0.0000   0.0000
        0.0000   0.0000   0.0000   0.0000   0.0000   0.0000   0.0000   0.0000
        0.0000   0.0000   0.0000   0.0000   0.0000   0.0000   0.0000   0.0000
        0.0000   0.0000   0.0000   0.0000   0.0000   0.0000   0.0000   0.0000
        0.0000   0.0000   0.0000   0.0000   0.0000   0.0000   0.0000   0.0000
        0.0000   0.0000   0.0000   0.0000   0.0000   0.0000   0.0000   0.0000
        0.0000   0.0000   0.0000   0.0000   0.0000   0.0000   0.0000   0.0000
        0.0000   0.0000   0.0000   0.0000   0.0000   0.0000   0.0000   0.0000
        0.0000   0.0000   0.0000   0.0000   0.0000   0.0000   0.0000   0.0000
        0.0000   0.0000   0.0000   0.0000   0.0000   0.0000   0.0000   0.0000
        0.0000   0.0000   0.0000   0.0000   0.0000   0.0000   0.0000   0.0000
        0.0000   0.0000   0.0000   0.0000   0.0000   0.0000   0.0000   0.0000
        0.0000   0.0000   0.0000   0.0000   0.0000   0.0000   0.0000   0.0000
        0.0000   0.0000   0.0000   0.0000   0.0000   0.0000   0.0000   0.0000
        0.0000   0.0000   0.0000   0.0000   0.0000   0.0000   0.0000   0.0000
        0.0000   0.0000   0.0000   0.0000   0.0000   0.0000   0.0000   0.0000
        0.0000   0.0000   0.0000   0.0000   0.0000   0.0000   0.0000   0.0000
        0.0000   0.0000   0.0000   0.0000   0.0000   0.0000   0.0000   0.0000
        0.0000   0.0000   0.0000   0.0000   0.0000   0.0000   0.0000   0.0000
        0.0000   0.0000   0.0000   0.0000   0.0000   0.0000   0.0000   0.0000
        0.0000   0.0000   0.0000   0.0000   0.0000   0.0000   0.0000   0.0000
        0.0000   0.0000   0.0000   0.0000   0.0000   0.0000   0.0000   0.0000
        0.0000   0.0000   0.0000   0.0000   0.0000   0.0000   0.0000   0.0000
        0.0000   0.0000   0.0000   0.0000   0.0000   0.0000   0.0000   0.0000
        0.0000   0.0000   0.0000   0.0000   0.0000   0.0000   0.0000   0.0000
        0.0000   0.0000   0.0000   0.0000   0.0000   0.0000   0.0000   0.0000
        0.0000   0.0000   0.0000   0.0000   0.0000   0.0000   0.0000   0.0000
        0.0000   0.0000   0.0000   0.0000   0.0000   0.0000   0.0000   0.0000
        0.0000   0.0000   0.0000   0.0000   0.0000   0.0000   0.0000   0.0000
        0.0000   0.0000   0.0000   0.0000   0.0000   0.0000

     Dynamical RAM for                 wfc:      23.20 MB

     Dynamical RAM for     wfc (w. buffer):      69.61 MB

     Dynamical RAM for           str. fact:       0.43 MB

     Dynamical RAM for           local pot:       0.00 MB

     Dynamical RAM for          nlocal pot:      46.30 MB

     Dynamical RAM for                qrad:       0.62 MB

     Dynamical RAM for          rho,v,vnew:       2.78 MB

     Dynamical RAM for               rhoin:       0.93 MB

     Dynamical RAM for            rho*nmix:       6.89 MB

     Dynamical RAM for           G-vectors:       0.92 MB

     Dynamical RAM for          h,s,v(r/c):       8.50 MB

     Dynamical RAM for          <psi|beta>:      22.62 MB

     Dynamical RAM for                 psi:      46.40 MB

     Dynamical RAM for                hpsi:      46.40 MB

     Dynamical RAM for                spsi:      46.40 MB

     Dynamical RAM for      wfcinit/wfcrot:      63.42 MB

     Dynamical RAM for           addusdens:      55.58 MB

     Dynamical RAM for          addusforce:     147.69 MB

     Dynamical RAM for         addusstress:      11.09 MB

     Estimated static dynamical RAM per process >     123.69 MB

     Estimated max dynamical RAM per process >     300.93 MB

     Estimated total dynamical RAM >       7.05 GB

     Check: negative core charge=   -0.000075
     Generating pointlists ...
     new r_m :   0.0570 (alat units)  1.1541 (a.u.) for type    1
     new r_m :   0.0574 (alat units)  1.1628 (a.u.) for type    2

     Initial potential from superposition of free atoms

     starting charge     860.9911, renormalised to     862.0000
     Starting wfcs are random
     Checking if some PAW data can be deallocated... 
       PAW data deallocated on   23 nodes for type:  2

     total cpu time spent up to now is       11.2 secs

     per-process dynamical memory:   204.2 Mb

     Self-consistent Calculation

     iteration #  1     ecut=    45.00 Ry     beta= 0.70
     Davidson diagonalization with overlap

---- Real-time Memory Report at c_bands before calling an iterative solver
           386 MiB given to the printing process from OS
           199 MiB allocation reported by mallinfo(arena+hblkhd)
         86831 MiB available memory on the node where the printing process lives
------------------
     ethr =  1.00E-02,  avg # of iterations =  9.0

     total cpu time spent up to now is      146.1 secs

     total energy              =   -3970.08270684 Ry
     estimated scf accuracy    <      12.72660016 Ry

     total magnetization       =     2.00 Bohr mag/cell
     absolute magnetization    =     2.13 Bohr mag/cell

     iteration #  2     ecut=    45.00 Ry     beta= 0.70
     Davidson diagonalization with overlap

---- Real-time Memory Report at c_bands before calling an iterative solver
           633 MiB given to the printing process from OS
           201 MiB allocation reported by mallinfo(arena+hblkhd)
         86078 MiB available memory on the node where the printing process lives
------------------
     ethr =  1.48E-03,  avg # of iterations =  4.0

     total cpu time spent up to now is      181.6 secs

     total energy              =   -3968.12554385 Ry
     estimated scf accuracy    <       5.07043541 Ry

     total magnetization       =     2.00 Bohr mag/cell
     absolute magnetization    =     2.37 Bohr mag/cell

     iteration #  3     ecut=    45.00 Ry     beta= 0.70
     Davidson diagonalization with overlap

---- Real-time Memory Report at c_bands before calling an iterative solver
           640 MiB given to the printing process from OS
           210 MiB allocation reported by mallinfo(arena+hblkhd)
         85948 MiB available memory on the node where the printing process lives
------------------
     ethr =  5.88E-04,  avg # of iterations =  5.0

     total cpu time spent up to now is      233.7 secs

     total energy              =   -3969.13131268 Ry
     estimated scf accuracy    <      20.19920446 Ry

     total magnetization       =     2.00 Bohr mag/cell
     absolute magnetization    =     2.12 Bohr mag/cell

     iteration #  4     ecut=    45.00 Ry     beta= 0.70
     Davidson diagonalization with overlap

---- Real-time Memory Report at c_bands before calling an iterative solver
           648 MiB given to the printing process from OS
           212 MiB allocation reported by mallinfo(arena+hblkhd)
         85915 MiB available memory on the node where the printing process lives
------------------
     ethr =  5.88E-04,  avg # of iterations =  6.0

     total cpu time spent up to now is      275.7 secs

     total energy              =   -3971.12116682 Ry
     estimated scf accuracy    <       1.22315243 Ry

     total magnetization       =     2.00 Bohr mag/cell
     absolute magnetization    =     2.08 Bohr mag/cell

     iteration #  5     ecut=    45.00 Ry     beta= 0.70
     Davidson diagonalization with overlap

---- Real-time Memory Report at c_bands before calling an iterative solver
           654 MiB given to the printing process from OS
           213 MiB allocation reported by mallinfo(arena+hblkhd)
         85882 MiB available memory on the node where the printing process lives
------------------
     ethr =  1.42E-04,  avg # of iterations =  7.0

     total cpu time spent up to now is      314.3 secs

     total energy              =   -3971.22514864 Ry
     estimated scf accuracy    <       0.29223596 Ry

     total magnetization       =     2.00 Bohr mag/cell
     absolute magnetization    =     2.08 Bohr mag/cell

     iteration #  6     ecut=    45.00 Ry     beta= 0.70
     Davidson diagonalization with overlap

---- Real-time Memory Report at c_bands before calling an iterative solver
           663 MiB given to the printing process from OS
           214 MiB allocation reported by mallinfo(arena+hblkhd)
         85887 MiB available memory on the node where the printing process lives
------------------
     ethr =  3.39E-05,  avg # of iterations = 12.5

     total cpu time spent up to now is      357.2 secs

     total energy              =   -3971.21605165 Ry
     estimated scf accuracy    <       0.10939908 Ry

     total magnetization       =     2.00 Bohr mag/cell
     absolute magnetization    =     2.11 Bohr mag/cell

     iteration #  7     ecut=    45.00 Ry     beta= 0.70
     Davidson diagonalization with overlap

---- Real-time Memory Report at c_bands before calling an iterative solver
           667 MiB given to the printing process from OS
           215 MiB allocation reported by mallinfo(arena+hblkhd)
         85835 MiB available memory on the node where the printing process lives
------------------
     ethr =  1.27E-05,  avg # of iterations =  8.5

     total cpu time spent up to now is      397.1 secs

     total energy              =   -3971.22179342 Ry
     estimated scf accuracy    <       0.02036004 Ry

     total magnetization       =     2.00 Bohr mag/cell
     absolute magnetization    =     2.14 Bohr mag/cell

     iteration #  8     ecut=    45.00 Ry     beta= 0.70
     Davidson diagonalization with overlap

---- Real-time Memory Report at c_bands before calling an iterative solver
           670 MiB given to the printing process from OS
           216 MiB allocation reported by mallinfo(arena+hblkhd)
         85808 MiB available memory on the node where the printing process lives
------------------
     ethr =  2.36E-06,  avg # of iterations = 12.5

     total cpu time spent up to now is      444.5 secs

     total energy              =   -3971.22525382 Ry
     estimated scf accuracy    <       0.00258763 Ry

     total magnetization       =     2.00 Bohr mag/cell
     absolute magnetization    =     2.17 Bohr mag/cell

     iteration #  9     ecut=    45.00 Ry     beta= 0.70
     Davidson diagonalization with overlap

---- Real-time Memory Report at c_bands before calling an iterative solver
           675 MiB given to the printing process from OS
           217 MiB allocation reported by mallinfo(arena+hblkhd)
         85785 MiB available memory on the node where the printing process lives
------------------
     ethr =  3.00E-07,  avg # of iterations =  2.5

     total cpu time spent up to now is      478.9 secs

     total energy              =   -3971.22584453 Ry
     estimated scf accuracy    <       0.00040178 Ry

     total magnetization       =     2.00 Bohr mag/cell
     absolute magnetization    =     2.19 Bohr mag/cell

     iteration # 10     ecut=    45.00 Ry     beta= 0.70
     Davidson diagonalization with overlap

---- Real-time Memory Report at c_bands before calling an iterative solver
           680 MiB given to the printing process from OS
           218 MiB allocation reported by mallinfo(arena+hblkhd)
         85765 MiB available memory on the node where the printing process lives
------------------
     ethr =  4.66E-08,  avg # of iterations =  2.0

     total cpu time spent up to now is      513.0 secs

     total energy              =   -3971.22596762 Ry
     estimated scf accuracy    <       0.00007459 Ry

     total magnetization       =     2.00 Bohr mag/cell
     absolute magnetization    =     2.20 Bohr mag/cell

     iteration # 11     ecut=    45.00 Ry     beta= 0.70
     Davidson diagonalization with overlap

---- Real-time Memory Report at c_bands before calling an iterative solver
           680 MiB given to the printing process from OS
           219 MiB allocation reported by mallinfo(arena+hblkhd)
         85736 MiB available memory on the node where the printing process lives
------------------
     ethr =  8.65E-09,  avg # of iterations =  3.0

     total cpu time spent up to now is      548.3 secs

     total energy              =   -3971.22599160 Ry
     estimated scf accuracy    <       0.00002381 Ry

     total magnetization       =     2.00 Bohr mag/cell
     absolute magnetization    =     2.21 Bohr mag/cell

     iteration # 12     ecut=    45.00 Ry     beta= 0.70
     Davidson diagonalization with overlap

---- Real-time Memory Report at c_bands before calling an iterative solver
           681 MiB given to the printing process from OS
           219 MiB allocation reported by mallinfo(arena+hblkhd)
         85776 MiB available memory on the node where the printing process lives
------------------
     ethr =  2.76E-09,  avg # of iterations =  2.0

     total cpu time spent up to now is      582.2 secs

     total energy              =   -3971.22599828 Ry
     estimated scf accuracy    <       0.00000369 Ry

     total magnetization       =     2.00 Bohr mag/cell
     absolute magnetization    =     2.21 Bohr mag/cell

     iteration # 13     ecut=    45.00 Ry     beta= 0.70
     Davidson diagonalization with overlap

---- Real-time Memory Report at c_bands before calling an iterative solver
           682 MiB given to the printing process from OS
           219 MiB allocation reported by mallinfo(arena+hblkhd)
         85750 MiB available memory on the node where the printing process lives
------------------
     ethr =  4.28E-10,  avg # of iterations =  3.0

     total cpu time spent up to now is      617.4 secs

     total energy              =   -3971.22599944 Ry
     estimated scf accuracy    <       0.00000127 Ry

     total magnetization       =     2.00 Bohr mag/cell
     absolute magnetization    =     2.21 Bohr mag/cell

     iteration # 14     ecut=    45.00 Ry     beta= 0.70
     Davidson diagonalization with overlap

---- Real-time Memory Report at c_bands before calling an iterative solver
           682 MiB given to the printing process from OS
           219 MiB allocation reported by mallinfo(arena+hblkhd)
         85742 MiB available memory on the node where the printing process lives
------------------
     ethr =  1.47E-10,  avg # of iterations =  2.5

     total cpu time spent up to now is      651.9 secs

     total energy              =   -3971.22599979 Ry
     estimated scf accuracy    <       0.00000020 Ry

     total magnetization       =     2.00 Bohr mag/cell
     absolute magnetization    =     2.21 Bohr mag/cell

     iteration # 15     ecut=    45.00 Ry     beta= 0.70
     Davidson diagonalization with overlap

---- Real-time Memory Report at c_bands before calling an iterative solver
           683 MiB given to the printing process from OS
           219 MiB allocation reported by mallinfo(arena+hblkhd)
         85751 MiB available memory on the node where the printing process lives
------------------
     ethr =  2.31E-11,  avg # of iterations =  2.5

     total cpu time spent up to now is      686.4 secs

     total energy              =   -3971.22599985 Ry
     estimated scf accuracy    <       0.00000008 Ry

     total magnetization       =     2.00 Bohr mag/cell
     absolute magnetization    =     2.21 Bohr mag/cell

     iteration # 16     ecut=    45.00 Ry     beta= 0.70
     Davidson diagonalization with overlap

---- Real-time Memory Report at c_bands before calling an iterative solver
           683 MiB given to the printing process from OS
           219 MiB allocation reported by mallinfo(arena+hblkhd)
         85743 MiB available memory on the node where the printing process lives
------------------
     ethr =  9.04E-12,  avg # of iterations =  2.0

     total cpu time spent up to now is      720.4 secs

     total energy              =   -3971.22599987 Ry
     estimated scf accuracy    <       0.00000001 Ry

     total magnetization       =     2.00 Bohr mag/cell
     absolute magnetization    =     2.21 Bohr mag/cell

     iteration # 17     ecut=    45.00 Ry     beta= 0.70
     Davidson diagonalization with overlap

---- Real-time Memory Report at c_bands before calling an iterative solver
           683 MiB given to the printing process from OS
           219 MiB allocation reported by mallinfo(arena+hblkhd)
         85762 MiB available memory on the node where the printing process lives
------------------
     ethr =  1.25E-12,  avg # of iterations =  2.0
 
     Magnetic moment per site  (integrated on atomic sphere of radius R)
     atom   1 (R=0.057)  charge=  1.8294  magn=  0.0001
     atom   2 (R=0.057)  charge=  1.8300  magn= -0.0000
     atom   3 (R=0.057)  charge=  1.8306  magn= -0.0000
     atom   4 (R=0.057)  charge=  1.8300  magn= -0.0000
     atom   5 (R=0.057)  charge=  1.8278  magn= -0.0002
     atom   6 (R=0.057)  charge=  1.8292  magn= -0.0009
     atom   7 (R=0.057)  charge=  1.8306  magn= -0.0000
     atom   8 (R=0.057)  charge=  1.8292  magn= -0.0009
     atom   9 (R=0.057)  charge=  1.8277  magn= -0.0003
     atom  10 (R=0.057)  charge=  1.8356  magn=  0.0016
     atom  11 (R=0.057)  charge=  1.8307  magn= -0.0001
     atom  12 (R=0.057)  charge=  1.8307  magn= -0.0002
     atom  13 (R=0.057)  charge=  1.8307  magn= -0.0001
     atom  14 (R=0.057)  charge=  1.7973  magn=  0.0003
     atom  15 (R=0.057)  charge=  1.8361  magn= -0.0034
     atom  16 (R=0.057)  charge=  1.8307  magn= -0.0002
     atom  17 (R=0.057)  charge=  1.8361  magn= -0.0034
     atom  18 (R=0.057)  charge=  1.8305  magn=  0.0004
     atom  19 (R=0.057)  charge=  1.8293  magn=  0.0001
     atom  20 (R=0.057)  charge=  1.8309  magn=  0.0000
     atom  21 (R=0.057)  charge=  1.8305  magn= -0.0001
     atom  22 (R=0.057)  charge=  1.8309  magn=  0.0000
     atom  23 (R=0.057)  charge=  1.8317  magn= -0.0002
     atom  24 (R=0.057)  charge=  1.8254  magn= -0.0002
     atom  25 (R=0.057)  charge=  1.8305  magn= -0.0001
     atom  26 (R=0.057)  charge=  1.8254  magn= -0.0002
     atom  27 (R=0.057)  charge=  1.8304  magn= -0.0009
     atom  28 (R=0.057)  charge=  1.8305  magn= -0.0001
     atom  29 (R=0.057)  charge=  1.8252  magn= -0.0002
     atom  30 (R=0.057)  charge=  1.8303  magn= -0.0009
     atom  31 (R=0.057)  charge=  1.8308  magn= -0.0002
     atom  32 (R=0.057)  charge=  1.8357  magn= -0.0034
     atom  33 (R=0.057)  charge=  1.8305  magn=  0.0004
     atom  34 (R=0.057)  charge=  1.8306  magn= -0.0000
     atom  35 (R=0.057)  charge=  1.8294  magn= -0.0009
     atom  36 (R=0.057)  charge=  1.8277  magn= -0.0003
     atom  37 (R=0.057)  charge=  1.8310  magn=  0.0000
     atom  38 (R=0.057)  charge=  1.8316  magn= -0.0002
     atom  39 (R=0.057)  charge=  1.8253  magn= -0.0002
     atom  40 (R=0.057)  charge=  1.8306  magn= -0.0001
     atom  41 (R=0.057)  charge=  1.7975  magn=  0.0003
     atom  42 (R=0.057)  charge=  1.8359  magn= -0.0034
     atom  43 (R=0.057)  charge=  1.8299  magn= -0.0000
     atom  44 (R=0.057)  charge=  1.8280  magn= -0.0002
     atom  45 (R=0.057)  charge=  1.8296  magn= -0.0009
     atom  46 (R=0.057)  charge=  1.8293  magn=  0.0001
     atom  47 (R=0.057)  charge=  1.8311  magn=  0.0000
     atom  48 (R=0.057)  charge=  1.8303  magn= -0.0001
     atom  49 (R=0.057)  charge=  1.8355  magn=  0.0016
     atom  50 (R=0.057)  charge=  1.8308  magn= -0.0001
     atom  51 (R=0.057)  charge=  1.8307  magn= -0.0002
     atom  52 (R=0.057)  charge=  1.8293  magn=  0.0001
     atom  53 (R=0.057)  charge=  1.8297  magn= -0.0000
     atom  54 (R=0.057)  charge=  1.8308  magn= -0.0000
     atom  55 (R=0.057)  charge=  1.8305  magn= -0.0001
     atom  56 (R=0.057)  charge=  1.8308  magn= -0.0002
     atom  57 (R=0.057)  charge=  1.8306  magn= -0.0000
     atom  58 (R=0.057)  charge=  1.8252  magn= -0.0002
     atom  59 (R=0.057)  charge=  1.8357  magn= -0.0034
     atom  60 (R=0.057)  charge=  1.8294  magn= -0.0009
     atom  61 (R=0.057)  charge=  1.8303  magn= -0.0009
     atom  62 (R=0.057)  charge=  1.8305  magn=  0.0004
     atom  63 (R=0.057)  charge=  1.8277  magn= -0.0003
     atom  64 (R=0.057)  charge=  1.8310  magn=  0.0000
     atom  65 (R=0.057)  charge=  1.8306  magn= -0.0001
     atom  66 (R=0.057)  charge=  1.8299  magn= -0.0000
     atom  67 (R=0.057)  charge=  1.8316  magn= -0.0002
     atom  68 (R=0.057)  charge=  1.7975  magn=  0.0003
     atom  69 (R=0.057)  charge=  1.8280  magn= -0.0002
     atom  70 (R=0.057)  charge=  1.8254  magn= -0.0002
     atom  71 (R=0.057)  charge=  1.8359  magn= -0.0034
     atom  72 (R=0.057)  charge=  1.8296  magn= -0.0009
     atom  73 (R=0.057)  charge=  1.8293  magn=  0.0001
     atom  74 (R=0.057)  charge=  1.8355  magn=  0.0016
     atom  75 (R=0.057)  charge=  1.8293  magn=  0.0001
     atom  76 (R=0.057)  charge=  1.8311  magn=  0.0000
     atom  77 (R=0.057)  charge=  1.8308  magn= -0.0001
     atom  78 (R=0.057)  charge=  1.8297  magn= -0.0000
     atom  79 (R=0.057)  charge=  1.8303  magn= -0.0001
     atom  80 (R=0.057)  charge=  1.8307  magn= -0.0002
     atom  81 (R=0.057)  charge=  1.8308  magn= -0.0000
     atom  82 (R=0.057)  charge=  1.8300  magn=  0.0000
     atom  83 (R=0.057)  charge=  1.8372  magn=  0.0021
     atom  84 (R=0.057)  charge=  1.8297  magn=  0.0000
     atom  85 (R=0.057)  charge=  1.8372  magn=  0.0021
     atom  86 (R=0.057)  charge=  1.8320  magn= -0.0008
     atom  87 (R=0.057)  charge=  1.8344  magn=  0.0037
     atom  88 (R=0.057)  charge=  1.8297  magn=  0.0000
     atom  89 (R=0.057)  charge=  1.8344  magn=  0.0037
     atom  90 (R=0.057)  charge=  1.8300  magn=  0.0004
     atom  91 (R=0.057)  charge=  1.8322  magn=  0.0010
     atom  92 (R=0.057)  charge=  1.8339  magn= -0.0006
     atom  93 (R=0.057)  charge=  1.8372  magn=  0.0021
     atom  94 (R=0.057)  charge=  1.8339  magn= -0.0006
     atom  95 (R=0.057)  charge=  1.8320  magn= -0.0008
     atom  96 (R=0.057)  charge=  1.8372  magn=  0.0021
     atom  97 (R=0.057)  charge=  1.8320  magn= -0.0008
     atom  98 (R=0.057)  charge=  1.8344  magn=  0.0037
     atom  99 (R=0.057)  charge=  1.8307  magn=  0.0001
     atom 100 (R=0.057)  charge=  1.8322  magn=  0.0010
     atom 101 (R=0.057)  charge=  1.8297  magn=  0.0000
     atom 102 (R=0.057)  charge=  1.8322  magn=  0.0010
     atom 103 (R=0.057)  charge=  1.8336  magn= -0.0006
     atom 104 (R=0.057)  charge=  1.8370  magn=  0.0021
     atom 105 (R=0.057)  charge=  1.8297  magn=  0.0000
     atom 106 (R=0.057)  charge=  1.8370  magn=  0.0021
     atom 107 (R=0.057)  charge=  1.8297  magn=  0.0000
     atom 108 (R=0.057)  charge=  1.8296  magn=  0.0002
     atom 109 (R=0.057)  charge=  1.8264  magn=  0.0001
     atom 110 (R=0.057)  charge=  1.8302  magn=  0.0012
     atom 111 (R=0.057)  charge=  1.8264  magn=  0.0001
     atom 112 (R=0.057)  charge=  1.8239  magn=  0.0055
     atom 113 (R=0.057)  charge=  1.8255  magn=  0.0157
     atom 114 (R=0.057)  charge=  1.8302  magn=  0.0012
     atom 115 (R=0.057)  charge=  1.8255  magn=  0.0157
     atom 116 (R=0.057)  charge=  1.8276  magn=  0.0008
     atom 117 (R=0.057)  charge=  1.8295  magn=  0.0009
     atom 118 (R=0.057)  charge=  1.8294  magn=  0.0010
     atom 119 (R=0.057)  charge=  1.8264  magn=  0.0001
     atom 120 (R=0.057)  charge=  1.8294  magn=  0.0010
     atom 121 (R=0.057)  charge=  1.8241  magn=  0.0055
     atom 122 (R=0.057)  charge=  1.8264  magn=  0.0001
     atom 123 (R=0.057)  charge=  1.8241  magn=  0.0055
     atom 124 (R=0.057)  charge=  1.8255  magn=  0.0157
     atom 125 (R=0.057)  charge=  1.8289  magn=  0.0006
     atom 126 (R=0.057)  charge=  1.8295  magn=  0.0009
     atom 127 (R=0.057)  charge=  1.8296  magn=  0.0002
     atom 128 (R=0.057)  charge=  1.8295  magn=  0.0009
     atom 129 (R=0.057)  charge=  1.8294  magn=  0.0010
     atom 130 (R=0.057)  charge=  1.8264  magn=  0.0001
     atom 131 (R=0.057)  charge=  1.8296  magn=  0.0002
     atom 132 (R=0.057)  charge=  1.8264  magn=  0.0001
     atom 133 (R=0.057)  charge=  1.8302  magn=  0.0012
     atom 134 (R=0.057)  charge=  1.8287  magn=  0.0001
     atom 135 (R=0.057)  charge=  1.8237  magn=  0.0040
     atom 136 (R=0.057)  charge=  1.8285  magn=  0.0158
     atom 137 (R=0.057)  charge=  1.8291  magn=  0.0012
     atom 138 (R=0.057)  charge=  1.8561  magn=  0.1919
     atom 139 (R=0.057)  charge=  1.8257  magn=  0.0049
     atom 140 (R=0.057)  charge=  1.8319  magn=  0.0014
     atom 141 (R=0.057)  charge=  1.8290  magn=  0.0010
     atom 142 (R=0.057)  charge=  1.8276  magn=  0.0002
     atom 143 (R=0.057)  charge=  1.8304  magn=  0.0010
     atom 144 (R=0.057)  charge=  1.8311  magn=  0.0070
     atom 145 (R=0.057)  charge=  1.8287  magn=  0.0002
     atom 146 (R=0.057)  charge=  1.8287  magn=  0.0001
     atom 147 (R=0.057)  charge=  1.8237  magn=  0.0040
     atom 148 (R=0.057)  charge=  1.8285  magn=  0.0158
     atom 149 (R=0.057)  charge=  1.8291  magn=  0.0003
     atom 150 (R=0.057)  charge=  1.8278  magn=  0.0001
     atom 151 (R=0.057)  charge=  1.8298  magn=  0.0011
     atom 152 (R=0.057)  charge=  1.8291  magn=  0.0003
     atom 153 (R=0.057)  charge=  1.8279  magn=  0.0001
     atom 154 (R=0.057)  charge=  1.8298  magn=  0.0011
     atom 155 (R=0.057)  charge=  1.8319  magn=  0.0014
     atom 156 (R=0.057)  charge=  1.8290  magn=  0.0010
     atom 157 (R=0.057)  charge=  1.8276  magn=  0.0002
     atom 158 (R=0.057)  charge=  1.8290  magn=  0.0005
     atom 159 (R=0.057)  charge=  1.8294  magn=  0.0016
     atom 160 (R=0.057)  charge=  1.8297  magn=  0.0003
     atom 161 (R=0.057)  charge=  1.8287  magn=  0.0001
     atom 162 (R=0.057)  charge=  1.8291  magn=  0.0012
     atom 163 (R=0.057)  charge=  1.8319  magn=  0.0014
     atom 164 (R=0.057)  charge=  1.8237  magn=  0.0040
     atom 165 (R=0.057)  charge=  1.8561  magn=  0.1919
     atom 166 (R=0.057)  charge=  1.8290  magn=  0.0010
     atom 167 (R=0.057)  charge=  1.8285  magn=  0.0158
     atom 168 (R=0.057)  charge=  1.8257  magn=  0.0049
     atom 169 (R=0.057)  charge=  1.8276  magn=  0.0002
     atom 170 (R=0.057)  charge=  1.8304  magn=  0.0010
     atom 171 (R=0.057)  charge=  1.8287  magn=  0.0001
     atom 172 (R=0.057)  charge=  1.8291  magn=  0.0003
     atom 173 (R=0.057)  charge=  1.8311  magn=  0.0070
     atom 174 (R=0.057)  charge=  1.8237  magn=  0.0040
     atom 175 (R=0.057)  charge=  1.8278  magn=  0.0001
     atom 176 (R=0.057)  charge=  1.8287  magn=  0.0002
     atom 177 (R=0.057)  charge=  1.8285  magn=  0.0158
     atom 178 (R=0.057)  charge=  1.8298  magn=  0.0011
     atom 179 (R=0.057)  charge=  1.8291  magn=  0.0003
     atom 180 (R=0.057)  charge=  1.8319  magn=  0.0014
     atom 181 (R=0.057)  charge=  1.8290  magn=  0.0005
     atom 182 (R=0.057)  charge=  1.8279  magn=  0.0001
     atom 183 (R=0.057)  charge=  1.8290  magn=  0.0010
     atom 184 (R=0.057)  charge=  1.8294  magn=  0.0016
     atom 185 (R=0.057)  charge=  1.8298  magn=  0.0011
     atom 186 (R=0.057)  charge=  1.8276  magn=  0.0002
     atom 187 (R=0.057)  charge=  1.8297  magn=  0.0003
     atom 188 (R=0.057)  charge=  1.8284  magn=  0.0002
     atom 189 (R=0.057)  charge=  1.8285  magn=  0.0158
     atom 190 (R=0.057)  charge=  1.8298  magn=  0.0011
     atom 191 (R=0.057)  charge=  1.8285  magn=  0.0158
     atom 192 (R=0.057)  charge=  1.8257  magn=  0.0049
     atom 193 (R=0.057)  charge=  1.8276  magn=  0.0002
     atom 194 (R=0.057)  charge=  1.8298  magn=  0.0011
     atom 195 (R=0.057)  charge=  1.8276  magn=  0.0002
     atom 196 (R=0.057)  charge=  1.8297  magn=  0.0003
     atom 197 (R=0.057)  charge=  1.8312  magn=  0.0070
     atom 198 (R=0.057)  charge=  1.8237  magn=  0.0040
     atom 199 (R=0.057)  charge=  1.8279  magn=  0.0001
     atom 200 (R=0.057)  charge=  1.8237  magn=  0.0040
     atom 201 (R=0.057)  charge=  1.8561  magn=  0.1919
     atom 202 (R=0.057)  charge=  1.8290  magn=  0.0010
     atom 203 (R=0.057)  charge=  1.8279  magn=  0.0001
     atom 204 (R=0.057)  charge=  1.8290  magn=  0.0010
     atom 205 (R=0.057)  charge=  1.8294  magn=  0.0016
     atom 206 (R=0.057)  charge=  1.8304  magn=  0.0010
     atom 207 (R=0.057)  charge=  1.8287  magn=  0.0001
     atom 208 (R=0.057)  charge=  1.8291  magn=  0.0003
     atom 209 (R=0.057)  charge=  1.8287  magn=  0.0001
     atom 210 (R=0.057)  charge=  1.8291  magn=  0.0012
     atom 211 (R=0.057)  charge=  1.8318  magn=  0.0014
     atom 212 (R=0.057)  charge=  1.8291  magn=  0.0003
     atom 213 (R=0.057)  charge=  1.8318  magn=  0.0014
     atom 214 (R=0.057)  charge=  1.8290  magn=  0.0005
     atom 215 (R=0.057)  charge=  2.9187  magn=  0.1203

     total cpu time spent up to now is      754.5 secs

     End of self-consistent calculation

 ------ SPIN UP ------------


          k = 0.0000 0.0000 0.0000 ( 42379 PWs)   bands (ev):

    -8.3078  -7.5569  -7.2910  -7.2910  -7.2390  -7.2390  -7.1604  -6.6908
    -6.2961  -6.2961  -6.2801  -6.2801  -6.2658  -6.2344  -6.2331  -6.2331
    -6.1802  -6.1802  -6.0125  -5.5463  -5.2638  -5.2605  -5.2605  -5.2318
    -5.2318  -5.2307  -5.0681  -4.4953  -4.2756  -4.2756  -4.2513  -4.2513
    -4.1956  -3.9090  -3.4004  -3.4004  -3.3820  -3.3820  -3.3781  -3.3635
    -3.3635  -3.3624  -3.3573  -3.3496  -3.3496  -3.3324  -3.3263  -3.3262
    -3.2992  -3.2992  -3.2949  -3.2914  -3.2913  -3.2733  -3.1996  -3.1996
    -3.0322  -2.8492  -2.6338  -2.6338  -2.5911  -2.5825  -2.5825  -2.5755
    -2.5669  -2.5669  -2.5660  -2.5475  -2.5474  -2.5281  -2.5281  -2.5224
    -2.5070  -2.5070  -2.4864  -2.4600  -2.4600  -2.4103  -2.3090  -2.3089
    -1.6517  -1.0799  -0.9164  -0.9164  -0.8764  -0.8764  -0.8617  -0.8575
    -0.8533  -0.8533  -0.7985  -0.7985  -0.4552   0.3304   0.3920   0.3920
     0.4102   0.4102   0.4500   0.6570   0.8245   0.8246   0.8908   0.8919
     0.8919   0.8962   0.8962   0.9085   0.9085   0.9108   0.9148   0.9456
     0.9456   0.9685   0.9798   1.0176   1.0176   1.0315   1.0362   1.0362
     1.0596   1.0597   1.0828   1.1043   1.1055   1.1056   1.1331   1.1331
     1.1331   1.1333   1.1401   1.1402   1.1406   1.1743   1.1743   1.1949
     1.1949   1.1968   1.2053   1.2053   1.2072   1.2073   1.2186   1.4329
     1.5667   1.5668   1.9412   2.1882   2.1882   2.1911   2.2320   2.2392
     2.2392   2.2495   2.2776   2.2776   2.4142   2.4143   3.3660   3.6959
     3.6959   3.7232   3.7804   3.7914   3.7940   3.7940   3.7955   3.7955
     3.8073   3.8137   3.8256   3.8262   3.8263   3.8426   3.8426   3.9588
     3.9588   3.9655   4.0139   4.3375   4.3375   4.3753   4.4347   4.4484
     4.4484   4.4509   4.4557   4.4557   4.4652   4.4652   4.4766   4.4870
     4.4870   4.4883   4.4915   4.4915   4.5021   4.5111   4.5111   4.5239
     4.7418   4.7418   5.2143   5.2143   5.2513   5.3123   5.3123   5.3133
     5.3152   5.3174   5.3174   5.3306   5.3345   5.3345   5.3577   5.3577
     5.4010   5.4078   5.4078   5.4273   5.4358   5.4679   5.4679   5.5151
     5.5399   5.5399   5.6111   5.7277   5.7277   5.8157   5.8354   5.8354
     5.8426   5.8568   5.8568   5.8573   5.8622   5.8622   5.8624   5.8780
     5.8780   5.8790   5.9017   5.9124   5.9124   5.9129   5.9370   5.9370
     5.9488   5.9769   5.9769   6.0110   6.0111   6.3061   6.3520   6.3520
     6.8412   6.8412   6.8982   6.9090   6.9364   6.9364   7.0618   7.3517
     7.3518   7.4451   7.4504   7.4504   7.4681   7.4724   7.4724   7.5073
     7.5560   7.5561   7.6956   7.6956   7.8151   7.8530   7.8618   7.8659
     7.8659   7.8707   7.8707   7.8974   7.9243   7.9243   7.9353   8.0420
     8.0420   8.0890   8.1085   8.1125   8.1125   8.1338   8.1342   8.1343
     8.1364   8.1381   8.1382   8.1505   8.1506   8.1577   8.1809   8.1809
     8.1883   8.2030   8.2030   8.2036   8.2036   8.2207   8.2661   8.2662
     8.2932   8.3094   8.3187   8.3187   8.3205   8.3278   8.3312   8.3312
     8.3364   8.3364   8.3405   8.3505   8.3505   8.3509   8.3536   8.3536
     8.3614   8.3627   8.3645   8.3645   8.3774   8.3774   8.3838   8.3850
     8.3904   8.3904   8.4013   8.4013   8.4294   8.4294   8.4498   8.4518
     8.4518   8.4809   8.4813   8.4813   8.5087   8.5347   8.5498   8.5520
     8.5520   8.6698   8.6698   8.9122   8.9207   8.9208   9.0821   9.0821
     9.1445   9.1574   9.1574   9.1616   9.1948   9.1955   9.1955   9.2061
     9.2064   9.2064   9.2145   9.2282   9.2282   9.2329   9.2329   9.2570
     9.3350   9.3350   9.3626   9.9247  10.1341  10.1342  10.4781  10.5045
    10.5046  10.5697  10.5720  10.5721  10.5953  10.6029  10.6030  10.6110
    10.6670  10.6670  10.6865  10.7624  10.7624  10.8286  10.8316  10.8316
    10.8336  10.8337  10.8360  10.8360  10.8433  10.8785  10.8785  10.8933
    10.8965  10.8966  10.9039  10.9419  10.9419  11.4249  11.5224  11.5225
    11.7238  11.7350  11.7350  11.7479  11.7770  11.7815  11.7815  11.7982
    11.8611  11.8611  12.9654  13.0107  13.0108  13.8751  15.2350  15.2351
    17.2962  17.2962  17.3020  17.3593  17.3593  17.3697  17.8334  17.9473
    17.9473  17.9535  17.9536  18.0174  18.0776  18.0776  18.1327  18.1969
    18.1972  18.1972  18.8100  18.8101  18.8274  19.3327  19.4687  19.4687
    19.4853  19.5115  19.5116  19.5299  19.5412  19.5412  19.5481  19.5481
    19.5909  19.9361  20.1763  20.1764  20.2131  20.2162  20.2162  20.2268
    20.2269  20.2279  20.2279  20.2287  20.2461  20.2461  20.2483  20.2594
    20.2873  20.2874  20.2911  20.3233  20.3233  20.3565  20.3713  20.3724
    20.3724  20.5865  20.6476  20.6477  20.7059  20.7169  20.7174  20.7174
    20.7270  20.7270  20.7431  20.7503  20.7527  20.7527  20.7783  20.7783
    20.8072  20.8072  20.8158  20.8211  20.8268  20.8268  20.8401  20.8457
    20.8457  20.8559  20.8559  20.8643  20.8664  20.8664  20.8834  20.8834
    20.8975  20.9139  20.9140  20.9502  20.9576  21.0061  21.0147  21.0147
    21.0782  21.0783  21.0860  21.1723  21.2807  21.2807  21.3135  21.3236
    21.3236  21.3370  21.3370  21.3375  21.3491  21.3491  21.3532  21.3576
    21.3752  21.3752  21.3967  21.3968  21.4016  21.4073  21.4073  21.4108
    21.4125  21.4125  21.4252  21.4252  21.4327  21.4459  21.4538  21.4538
    21.4711  21.4711  21.5036  21.5037  21.5100  21.5174  21.5938  21.6215
    21.6215  21.6295  21.6522  21.6522  21.6603  21.6630  21.6864  21.6864
    21.7039  21.7039  21.7208  21.7497  21.7497  21.7700  21.8001  21.8261
    21.8262  21.9302  21.9302  21.9722  22.0167  22.0167  22.1081  22.1081
    22.1357  22.1827  22.1873  22.1873  22.1975  22.2051  22.2051  22.3405
    22.3542  22.3542  22.4009  22.4545  22.4546  22.4855  22.4859  22.4860
    22.6318  22.6879  22.6879  22.8095  22.9408  22.9408  22.9809  23.1005
    23.1006  23.1070  23.1214  23.1214  23.1305  23.1305  23.1389  23.1389
    23.1421  23.1489  23.1697  23.1806  23.2012  23.2012  23.2129  23.2783
    23.3050  23.3051  23.3586  23.3587  23.4113  23.4580  23.4580  23.7660
    23.7660  23.7788  23.7866  23.7964  23.8054  23.8055  23.8132  23.8253
    23.8253  23.8446  23.8446  23.8557  23.8557  23.8616  23.8961  23.8964
    23.9669  23.9669  23.9871  24.1032  24.1032  24.1876  24.1876  24.2242
    24.2242  24.2243  24.2540  24.2709  24.2709  24.2736  24.2858  24.2858
    24.2976  24.3163  24.3163  24.3490  24.3755  24.3755  24.3984  24.3984
    24.3990  24.4022  24.4022  24.4058  24.4672  24.4707  24.4720  24.4720
    24.4863  24.4863  24.4869  24.5054  24.5092  24.5092  24.5217  24.5217
    24.5405  24.5574  24.5604  24.5604  24.6803  24.6803  24.7397  24.7960
    24.7960  24.9177  24.9178  25.5165  25.5284  25.5285  25.6087  25.7313
    25.8006  25.8006  25.8062  25.8062  25.9946  25.9946  26.0012  26.0202
    26.0340  26.0340  26.1043  26.1310  26.1531  26.1532  26.2279  26.2816
    26.2816  26.4269  26.5605  26.5605  26.5677  26.6238  26.6425  26.6425
    26.6479  26.6705  26.6705  26.6915  26.6960  26.6960  26.7469  26.7484
    26.7485  26.7809  26.7810  26.7873  26.8193  26.8456  26.8456  26.9465
    26.9465  27.0357  27.0357  27.0736  27.0912  27.0998  27.0998  27.1188
    27.1218  27.1218  27.1235  27.1327  27.1327  27.1560  27.1560  27.1767
    27.1937  27.2142  27.2142  27.2415  27.2415  27.2486  27.2625  27.2625
    27.2648  27.2800  27.2846  27.2846  27.2925  27.3057  27.3057  27.3084
    27.3084  27.3165  27.3236  27.3304  27.3380  27.3381  27.3601  27.3602
    27.3695  27.3696  27.3836  27.3837  27.3956  27.3956  27.4013  27.4146
    27.4281  27.4282  27.4682  27.4873  27.4873  27.4958  27.4958  27.5149
    27.5149  27.5193  27.5453  27.5453  27.5496  27.5594  27.5829  27.5890
    27.5890  27.5921  27.5921  27.5941  27.6022  27.6023  27.6098  27.6432
    27.6433  27.7205  27.7205  27.7325  27.7782  27.8838  27.8880  27.8880
    27.9194  27.9374  27.9374  27.9913  28.0532  28.0532  28.0974  28.0974
    28.1169  28.1564  28.1564  28.2706  28.3228  28.3353  28.3354  28.3436
    28.3732  28.3732  28.6004  28.7022  28.7024  28.8506  29.7118  29.8037
    29.8037  29.8315  29.9371  29.9371  30.0114  30.0616

     occupation numbers 
     1.0000   1.0000   1.0000   1.0000   1.0000   1.0000   1.0000   1.0000
     1.0000   1.0000   1.0000   1.0000   1.0000   1.0000   1.0000   1.0000
     1.0000   1.0000   1.0000   1.0000   1.0000   1.0000   1.0000   1.0000
     1.0000   1.0000   1.0000   1.0000   1.0000   1.0000   1.0000   1.0000
     1.0000   1.0000   1.0000   1.0000   1.0000   1.0000   1.0000   1.0000
     1.0000   1.0000   1.0000   1.0000   1.0000   1.0000   1.0000   1.0000
     1.0000   1.0000   1.0000   1.0000   1.0000   1.0000   1.0000   1.0000
     1.0000   1.0000   1.0000   1.0000   1.0000   1.0000   1.0000   1.0000
     1.0000   1.0000   1.0000   1.0000   1.0000   1.0000   1.0000   1.0000
     1.0000   1.0000   1.0000   1.0000   1.0000   1.0000   1.0000   1.0000
     1.0000   1.0000   1.0000   1.0000   1.0000   1.0000   1.0000   1.0000
     1.0000   1.0000   1.0000   1.0000   1.0000   1.0000   1.0000   1.0000
     1.0000   1.0000   1.0000   1.0000   1.0000   1.0000   1.0000   1.0000
     1.0000   1.0000   1.0000   1.0000   1.0000   1.0000   1.0000   1.0000
     1.0000   1.0000   1.0000   1.0000   1.0000   1.0000   1.0000   1.0000
     1.0000   1.0000   1.0000   1.0000   1.0000   1.0000   1.0000   1.0000
     1.0000   1.0000   1.0000   1.0000   1.0000   1.0000   1.0000   1.0000
     1.0000   1.0000   1.0000   1.0000   1.0000   1.0000   1.0000   1.0000
     1.0000   1.0000   1.0000   1.0000   1.0000   1.0000   1.0000   1.0000
     1.0000   1.0000   1.0000   1.0000   1.0000   1.0000   1.0000   1.0000
     1.0000   1.0000   1.0000   1.0000   1.0000   1.0000   1.0000   1.0000
     1.0000   1.0000   1.0000   1.0000   1.0000   1.0000   1.0000   1.0000
     1.0000   1.0000   1.0000   1.0000   1.0000   1.0000   1.0000   1.0000
     1.0000   1.0000   1.0000   1.0000   1.0000   1.0000   1.0000   1.0000
     1.0000   1.0000   1.0000   1.0000   1.0000   1.0000   1.0000   1.0000
     1.0000   1.0000   1.0000   1.0000   1.0000   1.0000   1.0000   1.0000
     1.0000   1.0000   1.0000   1.0000   1.0000   1.0000   1.0000   1.0000
     1.0000   1.0000   1.0000   1.0000   1.0000   1.0000   1.0000   1.0000
     1.0000   1.0000   1.0000   1.0000   1.0000   1.0000   1.0000   1.0000
     1.0000   1.0000   1.0000   1.0000   1.0000   1.0000   1.0000   1.0000
     1.0000   1.0000   1.0000   1.0000   1.0000   1.0000   1.0000   1.0000
     1.0000   1.0000   1.0000   1.0000   1.0000   1.0000   1.0000   1.0000
     1.0000   1.0000   1.0000   1.0000   1.0000   1.0000   1.0000   1.0000
     1.0000   1.0000   1.0000   1.0000   1.0000   1.0000   1.0000   1.0000
     1.0000   1.0000   1.0000   1.0000   1.0000   1.0000   1.0000   1.0000
     1.0000   1.0000   1.0000   1.0000   1.0000   1.0000   1.0000   1.0000
     1.0000   1.0000   1.0000   1.0000   1.0000   1.0000   1.0000   1.0000
     1.0000   1.0000   1.0000   1.0000   1.0000   1.0000   1.0000   1.0000
     1.0000   1.0000   1.0000   1.0000   1.0000   1.0000   1.0000   1.0000
     1.0000   1.0000   1.0000   1.0000   1.0000   1.0000   1.0000   1.0000
     1.0000   1.0000   1.0000   1.0000   1.0000   1.0000   1.0000   1.0000
     1.0000   1.0000   1.0000   1.0000   1.0000   1.0000   1.0000   1.0000
     1.0000   1.0000   1.0000   1.0000   1.0000   1.0000   1.0000   1.0000
     1.0000   1.0000   1.0000   1.0000   1.0000   1.0000   1.0000   1.0000
     1.0000   1.0000   1.0000   1.0000   1.0000   1.0000   1.0000   1.0000
     1.0000   1.0000   1.0000   1.0000   1.0000   1.0000   1.0000   1.0000
     1.0000   1.0000   1.0000   1.0000   1.0000   1.0000   1.0000   1.0000
     1.0000   1.0000   1.0000   1.0000   1.0000   1.0000   1.0000   1.0000
     1.0000   1.0000   1.0000   1.0000   1.0000   1.0000   1.0000   1.0000
     1.0000   1.0000   1.0000   1.0000   1.0000   1.0000   1.0000   1.0000
     1.0000   1.0000   1.0000   1.0000   1.0000   1.0000   1.0000   1.0000
     1.0000   1.0000   1.0000   1.0000   1.0000   1.0000   1.0000   1.0000
     1.0000   1.0000   1.0000   1.0000   1.0000   1.0000   1.0000   1.0000
     1.0000   1.0000   1.0000   1.0000   1.0000   1.0000   1.0000   1.0000
     0.0000   0.0000   0.0000   0.0000   0.0000   0.0000   0.0000   0.0000
     0.0000   0.0000   0.0000   0.0000   0.0000   0.0000   0.0000   0.0000
     0.0000   0.0000   0.0000   0.0000   0.0000   0.0000   0.0000   0.0000
     0.0000   0.0000   0.0000   0.0000   0.0000   0.0000   0.0000   0.0000
     0.0000   0.0000   0.0000   0.0000   0.0000   0.0000   0.0000   0.0000
     0.0000   0.0000   0.0000   0.0000   0.0000   0.0000   0.0000   0.0000
     0.0000   0.0000   0.0000   0.0000   0.0000   0.0000   0.0000   0.0000
     0.0000   0.0000   0.0000   0.0000   0.0000   0.0000   0.0000   0.0000
     0.0000   0.0000   0.0000   0.0000   0.0000   0.0000   0.0000   0.0000
     0.0000   0.0000   0.0000   0.0000   0.0000   0.0000   0.0000   0.0000
     0.0000   0.0000   0.0000   0.0000   0.0000   0.0000   0.0000   0.0000
     0.0000   0.0000   0.0000   0.0000   0.0000   0.0000   0.0000   0.0000
     0.0000   0.0000   0.0000   0.0000   0.0000   0.0000   0.0000   0.0000
     0.0000   0.0000   0.0000   0.0000   0.0000   0.0000   0.0000   0.0000
     0.0000   0.0000   0.0000   0.0000   0.0000   0.0000   0.0000   0.0000
     0.0000   0.0000   0.0000   0.0000   0.0000   0.0000   0.0000   0.0000
     0.0000   0.0000   0.0000   0.0000   0.0000   0.0000   0.0000   0.0000
     0.0000   0.0000   0.0000   0.0000   0.0000   0.0000   0.0000   0.0000
     0.0000   0.0000   0.0000   0.0000   0.0000   0.0000   0.0000   0.0000
     0.0000   0.0000   0.0000   0.0000   0.0000   0.0000   0.0000   0.0000
     0.0000   0.0000   0.0000   0.0000   0.0000   0.0000   0.0000   0.0000
     0.0000   0.0000   0.0000   0.0000   0.0000   0.0000   0.0000   0.0000
     0.0000   0.0000   0.0000   0.0000   0.0000   0.0000   0.0000   0.0000
     0.0000   0.0000   0.0000   0.0000   0.0000   0.0000   0.0000   0.0000
     0.0000   0.0000   0.0000   0.0000   0.0000   0.0000   0.0000   0.0000
     0.0000   0.0000   0.0000   0.0000   0.0000   0.0000   0.0000   0.0000
     0.0000   0.0000   0.0000   0.0000   0.0000   0.0000   0.0000   0.0000
     0.0000   0.0000   0.0000   0.0000   0.0000   0.0000   0.0000   0.0000
     0.0000   0.0000   0.0000   0.0000   0.0000   0.0000   0.0000   0.0000
     0.0000   0.0000   0.0000   0.0000   0.0000   0.0000   0.0000   0.0000
     0.0000   0.0000   0.0000   0.0000   0.0000   0.0000   0.0000   0.0000
     0.0000   0.0000   0.0000   0.0000   0.0000   0.0000   0.0000   0.0000
     0.0000   0.0000   0.0000   0.0000   0.0000   0.0000   0.0000   0.0000
     0.0000   0.0000   0.0000   0.0000   0.0000   0.0000   0.0000   0.0000
     0.0000   0.0000   0.0000   0.0000   0.0000   0.0000   0.0000   0.0000
     0.0000   0.0000   0.0000   0.0000   0.0000   0.0000   0.0000   0.0000
     0.0000   0.0000   0.0000   0.0000   0.0000   0.0000   0.0000   0.0000
     0.0000   0.0000   0.0000   0.0000   0.0000   0.0000   0.0000   0.0000
     0.0000   0.0000   0.0000   0.0000   0.0000   0.0000   0.0000   0.0000
     0.0000   0.0000   0.0000   0.0000   0.0000   0.0000   0.0000   0.0000
     0.0000   0.0000   0.0000   0.0000   0.0000   0.0000   0.0000   0.0000
     0.0000   0.0000   0.0000   0.0000   0.0000   0.0000   0.0000   0.0000
     0.0000   0.0000   0.0000   0.0000   0.0000   0.0000   0.0000   0.0000
     0.0000   0.0000   0.0000   0.0000   0.0000   0.0000   0.0000   0.0000
     0.0000   0.0000   0.0000   0.0000   0.0000   0.0000   0.0000   0.0000
     0.0000   0.0000   0.0000   0.0000   0.0000   0.0000   0.0000   0.0000
     0.0000   0.0000   0.0000   0.0000   0.0000   0.0000   0.0000   0.0000
     0.0000   0.0000   0.0000   0.0000   0.0000   0.0000   0.0000   0.0000
     0.0000   0.0000   0.0000   0.0000   0.0000   0.0000   0.0000   0.0000
     0.0000   0.0000   0.0000   0.0000   0.0000   0.0000   0.0000   0.0000
     0.0000   0.0000   0.0000   0.0000   0.0000   0.0000   0.0000   0.0000
     0.0000   0.0000   0.0000   0.0000   0.0000   0.0000   0.0000   0.0000
     0.0000   0.0000   0.0000   0.0000   0.0000   0.0000   0.0000   0.0000
     0.0000   0.0000   0.0000   0.0000   0.0000   0.0000

 ------ SPIN DOWN ----------


          k = 0.0000 0.0000 0.0000 ( 42379 PWs)   bands (ev):

    -8.2983  -7.5216  -7.2881  -7.2881  -7.2328  -7.2328  -7.1476  -6.6621
    -6.2932  -6.2932  -6.2775  -6.2775  -6.2621  -6.2298  -6.2270  -6.2270
    -6.1660  -6.1660  -5.9902  -5.5281  -5.2587  -5.2533  -5.2533  -5.2234
    -5.2188  -5.2188  -5.0455  -4.4701  -4.2696  -4.2696  -4.2428  -4.2428
    -4.1882  -3.8825  -3.3936  -3.3936  -3.3792  -3.3792  -3.3766  -3.3600
    -3.3597  -3.3597  -3.3548  -3.3467  -3.3467  -3.3308  -3.3224  -3.3224
    -3.2858  -3.2858  -3.2852  -3.2818  -3.2818  -3.2686  -3.1800  -3.1800
    -3.0205  -2.8399  -2.6292  -2.6292  -2.5876  -2.5779  -2.5779  -2.5675
    -2.5643  -2.5632  -2.5632  -2.5399  -2.5399  -2.5221  -2.5221  -2.5134
    -2.5026  -2.5026  -2.4762  -2.4490  -2.4490  -2.3987  -2.2562  -2.2562
    -1.5979  -1.0659  -0.9107  -0.9107  -0.8665  -0.8665  -0.8566  -0.8523
    -0.8471  -0.8471  -0.7725  -0.7725  -0.4008   0.3464   0.3964   0.3964
     0.4172   0.4172   0.4554   0.6819   0.8330   0.8331   0.8911   0.8944
     0.8944   0.8983   0.8984   0.9136   0.9142   0.9142   0.9169   0.9488
     0.9488   0.9761   0.9900   1.0268   1.0268   1.0368   1.0474   1.0474
     1.0730   1.0731   1.0871   1.1103   1.1103   1.1147   1.1354   1.1375
     1.1388   1.1388   1.1445   1.1445   1.1501   1.1778   1.1778   1.2007
     1.2007   1.2025   1.2105   1.2106   1.2273   1.2273   1.2468   1.4532
     1.6077   1.6078   1.9603   2.1960   2.1960   2.2111   2.2402   2.2432
     2.2432   2.2531   2.2838   2.2838   2.4656   2.4657   3.4308   3.7076
     3.7076   3.7366   3.7878   3.7965   3.7965   3.7967   3.8005   3.8005
     3.8165   3.8167   3.8305   3.8309   3.8309   3.8515   3.8515   3.9731
     3.9731   3.9782   4.0314   4.3486   4.3487   4.3992   4.4381   4.4519
     4.4522   4.4522   4.4607   4.4607   4.4708   4.4708   4.4796   4.4921
     4.4921   4.4994   4.4994   4.5049   4.5153   4.5207   4.5207   4.5322
     4.7909   4.7910   5.2269   5.2269   5.2674   5.3143   5.3143   5.3171
     5.3180   5.3202   5.3202   5.3325   5.3384   5.3384   5.3615   5.3615
     5.4100   5.4147   5.4147   5.4376   5.4414   5.4798   5.4798   5.5255
     5.5490   5.5490   5.6438   5.7372   5.7372   5.8291   5.8382   5.8382
     5.8469   5.8610   5.8610   5.8673   5.8674   5.8693   5.8693   5.8836
     5.8836   5.8863   5.9135   5.9160   5.9239   5.9240   5.9465   5.9465
     5.9668   5.9911   5.9911   6.0237   6.0238   6.3387   6.3899   6.3899
     6.8507   6.8507   6.9057   6.9260   6.9518   6.9518   7.1292   7.3685
     7.3685   7.4536   7.4536   7.4571   7.4723   7.4788   7.4788   7.5255
     7.5694   7.5694   7.7064   7.7064   7.8367   7.8583   7.8713   7.8713
     7.8807   7.8808   7.8819   7.9049   7.9334   7.9334   7.9513   8.0530
     8.0530   8.0934   8.1114   8.1152   8.1152   8.1365   8.1369   8.1369
     8.1393   8.1417   8.1417   8.1530   8.1530   8.1638   8.1874   8.1874
     8.1933   8.2075   8.2075   8.2157   8.2157   8.2276   8.2720   8.2720
     8.3012   8.3215   8.3215   8.3222   8.3250   8.3302   8.3350   8.3350
     8.3390   8.3390   8.3453   8.3551   8.3552   8.3552   8.3592   8.3592
     8.3650   8.3675   8.3678   8.3678   8.3834   8.3834   8.3888   8.3985
     8.3985   8.4042   8.4154   8.4154   8.4363   8.4363   8.4562   8.4572
     8.4572   8.4932   8.4932   8.4951   8.5398   8.5438   8.5540   8.5731
     8.5731   8.7011   8.7012   8.9307   8.9367   8.9368   9.0890   9.0890
     9.1477   9.1607   9.1607   9.1635   9.2000   9.2003   9.2003   9.2189
     9.2212   9.2212   9.2216   9.2359   9.2359   9.2480   9.2480   9.2610
     9.3649   9.3649   9.3907  10.0048  10.1897  10.1898  10.5198  10.5199
    10.5741  10.5752  10.5752  10.5929  10.5978  10.6143  10.6144  10.6424
    10.6718  10.6718  10.6956  10.7676  10.7676  10.8372  10.8372  10.8377
    10.8402  10.8403  10.8475  10.8475  10.8476  10.8885  10.8885  10.9079
    10.9079  10.9094  10.9173  10.9521  10.9521  11.4954  11.5460  11.5460
    11.7430  11.7430  11.7502  11.7802  11.7881  11.7881  11.8084  11.8780
    11.8780  12.0077  13.0397  13.0398  13.0634  14.6297  16.1818  16.1819
    17.3003  17.3003  17.3172  17.3704  17.3704  17.3808  17.8444  17.9543
    17.9544  17.9597  17.9597  18.0270  18.0830  18.0831  18.1642  18.2072
    18.2135  18.2135  18.8268  18.8269  18.8404  19.3517  19.4722  19.4722
    19.4877  19.5206  19.5206  19.5355  19.5458  19.5458  19.5535  19.5536
    19.5990  19.9516  20.1804  20.1805  20.2157  20.2190  20.2190  20.2299
    20.2299  20.2312  20.2356  20.2356  20.2535  20.2540  20.2541  20.2647
    20.2955  20.2955  20.2964  20.3291  20.3291  20.3653  20.3809  20.3809
    20.3810  20.5979  20.6583  20.6584  20.7079  20.7184  20.7202  20.7203
    20.7300  20.7300  20.7454  20.7537  20.7554  20.7555  20.7828  20.7828
    20.8116  20.8116  20.8193  20.8310  20.8310  20.8342  20.8438  20.8584
    20.8584  20.8617  20.8618  20.8683  20.8760  20.8761  20.8922  20.8922
    20.9024  20.9218  20.9218  20.9572  20.9655  21.0171  21.0205  21.0205
    21.0859  21.0859  21.0933  21.1814  21.2881  21.2881  21.3165  21.3284
    21.3284  21.3406  21.3406  21.3420  21.3538  21.3538  21.3558  21.3721
    21.3793  21.3793  21.4032  21.4033  21.4042  21.4130  21.4130  21.4181
    21.4197  21.4197  21.4335  21.4336  21.4380  21.4599  21.4658  21.4658
    21.4849  21.4849  21.5210  21.5210  21.5294  21.5341  21.5997  21.6324
    21.6324  21.6328  21.6570  21.6570  21.6653  21.6772  21.6933  21.6933
    21.7116  21.7117  21.7323  21.7560  21.7560  21.7749  21.8213  21.8452
    21.8452  21.9518  21.9518  21.9781  22.0314  22.0314  22.1116  22.1116
    22.1378  22.1901  22.2019  22.2019  22.2053  22.2124  22.2124  22.3480
    22.3644  22.3644  22.4249  22.4631  22.4632  22.4902  22.4902  22.4931
    22.6523  22.7211  22.7211  22.8726  22.9569  22.9569  22.9979  23.1068
    23.1068  23.1090  23.1248  23.1248  23.1351  23.1351  23.1423  23.1423
    23.1463  23.1546  23.1743  23.1941  23.2152  23.2152  23.2317  23.3203
    23.3392  23.3392  23.3775  23.3775  23.4373  23.4886  23.4886  23.7761
    23.7761  23.7888  23.8011  23.8101  23.8101  23.8161  23.8246  23.8308
    23.8308  23.8531  23.8532  23.8626  23.8626  23.8682  23.9024  23.9149
    23.9839  23.9840  23.9956  24.1144  24.1144  24.2019  24.2020  24.2302
    24.2302  24.2314  24.2565  24.2751  24.2751  24.2804  24.2907  24.2907
    24.3034  24.3245  24.3245  24.3537  24.3854  24.3854  24.4049  24.4078
    24.4078  24.4162  24.4162  24.4162  24.4725  24.4870  24.4870  24.4879
    24.4908  24.4967  24.4968  24.5143  24.5184  24.5184  24.5281  24.5281
    24.5449  24.5652  24.5652  24.5811  24.7237  24.7237  24.7618  24.8995
    24.8995  24.9739  24.9739  25.5680  25.5708  25.5708  25.6404  25.7449
    25.8110  25.8110  25.8222  25.8222  26.0029  26.0038  26.0038  26.0253
    26.0452  26.0452  26.1331  26.1393  26.1684  26.1684  26.2546  26.3112
    26.3112  26.4439  26.5697  26.5697  26.5893  26.6306  26.6489  26.6489
    26.6535  26.6762  26.6762  26.7039  26.7040  26.7059  26.7572  26.7573
    26.7608  26.7875  26.7875  26.7927  26.8269  26.8586  26.8586  26.9701
    26.9702  27.0468  27.0468  27.0822  27.0937  27.1043  27.1043  27.1235
    27.1254  27.1254  27.1272  27.1360  27.1360  27.1624  27.1624  27.1883
    27.1977  27.2194  27.2195  27.2479  27.2480  27.2528  27.2671  27.2671
    27.2753  27.2834  27.2919  27.2919  27.2985  27.3114  27.3114  27.3179
    27.3180  27.3258  27.3260  27.3367  27.3482  27.3482  27.3686  27.3686
    27.3752  27.3803  27.3889  27.3889  27.4031  27.4031  27.4233  27.4341
    27.4367  27.4367  27.4738  27.4934  27.4934  27.5124  27.5125  27.5233
    27.5233  27.5376  27.5506  27.5506  27.5537  27.5636  27.5889  27.5957
    27.5957  27.6003  27.6003  27.6049  27.6101  27.6101  27.6137  27.6724
    27.6724  27.7457  27.7457  27.7884  27.8105  27.9014  27.9171  27.9171
    27.9272  27.9537  27.9537  28.0239  28.0714  28.0714  28.1302  28.1324
    28.1324  28.1831  28.1831  28.3027  28.3394  28.3733  28.3733  28.3901
    28.4441  28.4442  28.6661  28.7931  28.7933  28.9373  29.7592  29.8194
    29.8194  29.9270  29.9601  29.9602  30.0222  30.0679

     occupation numbers 
     1.0000   1.0000   1.0000   1.0000   1.0000   1.0000   1.0000   1.0000
     1.0000   1.0000   1.0000   1.0000   1.0000   1.0000   1.0000   1.0000
     1.0000   1.0000   1.0000   1.0000   1.0000   1.0000   1.0000   1.0000
     1.0000   1.0000   1.0000   1.0000   1.0000   1.0000   1.0000   1.0000
     1.0000   1.0000   1.0000   1.0000   1.0000   1.0000   1.0000   1.0000
     1.0000   1.0000   1.0000   1.0000   1.0000   1.0000   1.0000   1.0000
     1.0000   1.0000   1.0000   1.0000   1.0000   1.0000   1.0000   1.0000
     1.0000   1.0000   1.0000   1.0000   1.0000   1.0000   1.0000   1.0000
     1.0000   1.0000   1.0000   1.0000   1.0000   1.0000   1.0000   1.0000
     1.0000   1.0000   1.0000   1.0000   1.0000   1.0000   1.0000   1.0000
     1.0000   1.0000   1.0000   1.0000   1.0000   1.0000   1.0000   1.0000
     1.0000   1.0000   1.0000   1.0000   1.0000   1.0000   1.0000   1.0000
     1.0000   1.0000   1.0000   1.0000   1.0000   1.0000   1.0000   1.0000
     1.0000   1.0000   1.0000   1.0000   1.0000   1.0000   1.0000   1.0000
     1.0000   1.0000   1.0000   1.0000   1.0000   1.0000   1.0000   1.0000
     1.0000   1.0000   1.0000   1.0000   1.0000   1.0000   1.0000   1.0000
     1.0000   1.0000   1.0000   1.0000   1.0000   1.0000   1.0000   1.0000
     1.0000   1.0000   1.0000   1.0000   1.0000   1.0000   1.0000   1.0000
     1.0000   1.0000   1.0000   1.0000   1.0000   1.0000   1.0000   1.0000
     1.0000   1.0000   1.0000   1.0000   1.0000   1.0000   1.0000   1.0000
     1.0000   1.0000   1.0000   1.0000   1.0000   1.0000   1.0000   1.0000
     1.0000   1.0000   1.0000   1.0000   1.0000   1.0000   1.0000   1.0000
     1.0000   1.0000   1.0000   1.0000   1.0000   1.0000   1.0000   1.0000
     1.0000   1.0000   1.0000   1.0000   1.0000   1.0000   1.0000   1.0000
     1.0000   1.0000   1.0000   1.0000   1.0000   1.0000   1.0000   1.0000
     1.0000   1.0000   1.0000   1.0000   1.0000   1.0000   1.0000   1.0000
     1.0000   1.0000   1.0000   1.0000   1.0000   1.0000   1.0000   1.0000
     1.0000   1.0000   1.0000   1.0000   1.0000   1.0000   1.0000   1.0000
     1.0000   1.0000   1.0000   1.0000   1.0000   1.0000   1.0000   1.0000
     1.0000   1.0000   1.0000   1.0000   1.0000   1.0000   1.0000   1.0000
     1.0000   1.0000   1.0000   1.0000   1.0000   1.0000   1.0000   1.0000
     1.0000   1.0000   1.0000   1.0000   1.0000   1.0000   1.0000   1.0000
     1.0000   1.0000   1.0000   1.0000   1.0000   1.0000   1.0000   1.0000
     1.0000   1.0000   1.0000   1.0000   1.0000   1.0000   1.0000   1.0000
     1.0000   1.0000   1.0000   1.0000   1.0000   1.0000   1.0000   1.0000
     1.0000   1.0000   1.0000   1.0000   1.0000   1.0000   1.0000   1.0000
     1.0000   1.0000   1.0000   1.0000   1.0000   1.0000   1.0000   1.0000
     1.0000   1.0000   1.0000   1.0000   1.0000   1.0000   1.0000   1.0000
     1.0000   1.0000   1.0000   1.0000   1.0000   1.0000   1.0000   1.0000
     1.0000   1.0000   1.0000   1.0000   1.0000   1.0000   1.0000   1.0000
     1.0000   1.0000   1.0000   1.0000   1.0000   1.0000   1.0000   1.0000
     1.0000   1.0000   1.0000   1.0000   1.0000   1.0000   1.0000   1.0000
     1.0000   1.0000   1.0000   1.0000   1.0000   1.0000   1.0000   1.0000
     1.0000   1.0000   1.0000   1.0000   1.0000   1.0000   1.0000   1.0000
     1.0000   1.0000   1.0000   1.0000   1.0000   1.0000   1.0000   1.0000
     1.0000   1.0000   1.0000   1.0000   1.0000   1.0000   1.0000   1.0000
     1.0000   1.0000   1.0000   1.0000   1.0000   1.0000   1.0000   1.0000
     1.0000   1.0000   1.0000   1.0000   1.0000   1.0000   1.0000   1.0000
     1.0000   1.0000   1.0000   1.0000   1.0000   1.0000   1.0000   1.0000
     1.0000   1.0000   1.0000   1.0000   1.0000   1.0000   1.0000   1.0000
     1.0000   1.0000   1.0000   1.0000   1.0000   1.0000   1.0000   1.0000
     1.0000   1.0000   1.0000   1.0000   1.0000   1.0000   1.0000   1.0000
     1.0000   1.0000   1.0000   1.0000   1.0000   1.0000   1.0000   1.0000
     1.0000   1.0000   1.0000   1.0000   1.0000   0.0000   0.5000   0.5000
     0.0000   0.0000   0.0000   0.0000   0.0000   0.0000   0.0000   0.0000
     0.0000   0.0000   0.0000   0.0000   0.0000   0.0000   0.0000   0.0000
     0.0000   0.0000   0.0000   0.0000   0.0000   0.0000   0.0000   0.0000
     0.0000   0.0000   0.0000   0.0000   0.0000   0.0000   0.0000   0.0000
     0.0000   0.0000   0.0000   0.0000   0.0000   0.0000   0.0000   0.0000
     0.0000   0.0000   0.0000   0.0000   0.0000   0.0000   0.0000   0.0000
     0.0000   0.0000   0.0000   0.0000   0.0000   0.0000   0.0000   0.0000
     0.0000   0.0000   0.0000   0.0000   0.0000   0.0000   0.0000   0.0000
     0.0000   0.0000   0.0000   0.0000   0.0000   0.0000   0.0000   0.0000
     0.0000   0.0000   0.0000   0.0000   0.0000   0.0000   0.0000   0.0000
     0.0000   0.0000   0.0000   0.0000   0.0000   0.0000   0.0000   0.0000
     0.0000   0.0000   0.0000   0.0000   0.0000   0.0000   0.0000   0.0000
     0.0000   0.0000   0.0000   0.0000   0.0000   0.0000   0.0000   0.0000
     0.0000   0.0000   0.0000   0.0000   0.0000   0.0000   0.0000   0.0000
     0.0000   0.0000   0.0000   0.0000   0.0000   0.0000   0.0000   0.0000
     0.0000   0.0000   0.0000   0.0000   0.0000   0.0000   0.0000   0.0000
     0.0000   0.0000   0.0000   0.0000   0.0000   0.0000   0.0000   0.0000
     0.0000   0.0000   0.0000   0.0000   0.0000   0.0000   0.0000   0.0000
     0.0000   0.0000   0.0000   0.0000   0.0000   0.0000   0.0000   0.0000
     0.0000   0.0000   0.0000   0.0000   0.0000   0.0000   0.0000   0.0000
     0.0000   0.0000   0.0000   0.0000   0.0000   0.0000   0.0000   0.0000
     0.0000   0.0000   0.0000   0.0000   0.0000   0.0000   0.0000   0.0000
     0.0000   0.0000   0.0000   0.0000   0.0000   0.0000   0.0000   0.0000
     0.0000   0.0000   0.0000   0.0000   0.0000   0.0000   0.0000   0.0000
     0.0000   0.0000   0.0000   0.0000   0.0000   0.0000   0.0000   0.0000
     0.0000   0.0000   0.0000   0.0000   0.0000   0.0000   0.0000   0.0000
     0.0000   0.0000   0.0000   0.0000   0.0000   0.0000   0.0000   0.0000
     0.0000   0.0000   0.0000   0.0000   0.0000   0.0000   0.0000   0.0000
     0.0000   0.0000   0.0000   0.0000   0.0000   0.0000   0.0000   0.0000
     0.0000   0.0000   0.0000   0.0000   0.0000   0.0000   0.0000   0.0000
     0.0000   0.0000   0.0000   0.0000   0.0000   0.0000   0.0000   0.0000
     0.0000   0.0000   0.0000   0.0000   0.0000   0.0000   0.0000   0.0000
     0.0000   0.0000   0.0000   0.0000   0.0000   0.0000   0.0000   0.0000
     0.0000   0.0000   0.0000   0.0000   0.0000   0.0000   0.0000   0.0000
     0.0000   0.0000   0.0000   0.0000   0.0000   0.0000   0.0000   0.0000
     0.0000   0.0000   0.0000   0.0000   0.0000   0.0000   0.0000   0.0000
     0.0000   0.0000   0.0000   0.0000   0.0000   0.0000   0.0000   0.0000
     0.0000   0.0000   0.0000   0.0000   0.0000   0.0000   0.0000   0.0000
     0.0000   0.0000   0.0000   0.0000   0.0000   0.0000   0.0000   0.0000
     0.0000   0.0000   0.0000   0.0000   0.0000   0.0000   0.0000   0.0000
     0.0000   0.0000   0.0000   0.0000   0.0000   0.0000   0.0000   0.0000
     0.0000   0.0000   0.0000   0.0000   0.0000   0.0000   0.0000   0.0000
     0.0000   0.0000   0.0000   0.0000   0.0000   0.0000   0.0000   0.0000
     0.0000   0.0000   0.0000   0.0000   0.0000   0.0000   0.0000   0.0000
     0.0000   0.0000   0.0000   0.0000   0.0000   0.0000   0.0000   0.0000
     0.0000   0.0000   0.0000   0.0000   0.0000   0.0000   0.0000   0.0000
     0.0000   0.0000   0.0000   0.0000   0.0000   0.0000   0.0000   0.0000
     0.0000   0.0000   0.0000   0.0000   0.0000   0.0000   0.0000   0.0000
     0.0000   0.0000   0.0000   0.0000   0.0000   0.0000   0.0000   0.0000
     0.0000   0.0000   0.0000   0.0000   0.0000   0.0000   0.0000   0.0000
     0.0000   0.0000   0.0000   0.0000   0.0000   0.0000   0.0000   0.0000
     0.0000   0.0000   0.0000   0.0000   0.0000   0.0000   0.0000   0.0000
     0.0000   0.0000   0.0000   0.0000   0.0000   0.0000   0.0000   0.0000
     0.0000   0.0000   0.0000   0.0000   0.0000   0.0000

     highest occupied, lowest unoccupied level (ev):    15.23514238   14.62973772

!    total energy              =   -3971.22599987 Ry
     total all-electron energy =    -16414.041603 Ry
     estimated scf accuracy    <          2.6E-09 Ry

     The total energy is the sum of the following terms:
     one-electron contribution =     884.97350009 Ry
     hartree contribution      =     218.52850253 Ry
     xc contribution           =   -1009.08005878 Ry
     ewald contribution        =   -2738.87255203 Ry
     one-center paw contrib.   =   -1326.77539168 Ry
      -> PAW hartree energy AE =      80.73622280 Ry
      -> PAW hartree energy PS =     -80.66280583 Ry
      -> PAW xc energy AE      =     -94.87646062 Ry
      -> PAW xc energy PS      =      39.33988960 Ry
      -> total E_H with PAW    =     218.60191950 Ry
      -> total E_XC with PAW   =   -1064.61662980 Ry

     total magnetization       =     2.00 Bohr mag/cell
     absolute magnetization    =     2.21 Bohr mag/cell

     convergence has been achieved in  17 iterations

     Forces acting on atoms (cartesian axes, Ry/au):

     atom    1 type  1   force =     0.00004163   -0.00007636   -0.00002300
     atom    2 type  1   force =     0.00020094   -0.00003634   -0.00001316
     atom    3 type  1   force =     0.00005176   -0.00003299   -0.00007111
     atom    4 type  1   force =     0.00002721   -0.00007864   -0.00018705
     atom    5 type  1   force =    -0.00007250    0.00002644    0.00006602
     atom    6 type  1   force =    -0.00013976   -0.00005094   -0.00006754
     atom    7 type  1   force =     0.00007834   -0.00002662   -0.00004451
     atom    8 type  1   force =     0.00007353    0.00000087    0.00014585
     atom    9 type  1   force =    -0.00003972   -0.00000372    0.00004063
     atom   10 type  1   force =    -0.00002121   -0.00001373    0.00002465
     atom   11 type  1   force =     0.00008398   -0.00013072    0.00016213
     atom   12 type  1   force =    -0.00013922    0.00005020   -0.00004360
     atom   13 type  1   force =    -0.00012427   -0.00018134   -0.00004615
     atom   14 type  1   force =    -0.00005685    0.00020472    0.00000719
     atom   15 type  1   force =     0.00012096    0.00006062   -0.00008114
     atom   16 type  1   force =     0.00002661    0.00009037    0.00012211
     atom   17 type  1   force =     0.00006787    0.00004768   -0.00013417
     atom   18 type  1   force =    -0.00000577   -0.00002186    0.00001107
     atom   19 type  1   force =    -0.00005352   -0.00000044    0.00005372
     atom   20 type  1   force =     0.00000245   -0.00007712    0.00008403
     atom   21 type  1   force =    -0.00006266    0.00001946    0.00003573
     atom   22 type  1   force =    -0.00006342   -0.00009315    0.00001819
     atom   23 type  1   force =     0.00009764   -0.00009585   -0.00007444
     atom   24 type  1   force =     0.00003962    0.00000279   -0.00010870
     atom   25 type  1   force =    -0.00004103    0.00002466    0.00005738
     atom   26 type  1   force =     0.00010604    0.00001896   -0.00004231
     atom   27 type  1   force =     0.00001196    0.00009611   -0.00003530
     atom   28 type  1   force =    -0.00001313   -0.00007999   -0.00008390
     atom   29 type  1   force =     0.00008401    0.00006129    0.00000893
     atom   30 type  1   force =     0.00002866    0.00004237   -0.00009247
     atom   31 type  1   force =     0.00009204   -0.00008453   -0.00011817
     atom   32 type  1   force =     0.00006106    0.00007366   -0.00006375
     atom   33 type  1   force =     0.00001354   -0.00006604    0.00000780
     atom   34 type  1   force =     0.00004755    0.00002811    0.00003567
     atom   35 type  1   force =     0.00012850   -0.00014051   -0.00004032
     atom   36 type  1   force =    -0.00002430   -0.00006410   -0.00005737
     atom   37 type  1   force =    -0.00007761   -0.00008698    0.00003823
     atom   38 type  1   force =     0.00004221    0.00003906    0.00010563
     atom   39 type  1   force =     0.00001049    0.00007523    0.00001950
     atom   40 type  1   force =    -0.00017039   -0.00005949    0.00012223
     atom   41 type  1   force =     0.00001728    0.00002860   -0.00023161
     atom   42 type  1   force =     0.00006268    0.00010938   -0.00004218
     atom   43 type  1   force =    -0.00005635    0.00012072    0.00009990
     atom   44 type  1   force =    -0.00003671   -0.00007912   -0.00007366
     atom   45 type  1   force =    -0.00016875   -0.00000499   -0.00000561
     atom   46 type  1   force =    -0.00001465   -0.00008329   -0.00006802
     atom   47 type  1   force =     0.00003029   -0.00013162    0.00000945
     atom   48 type  1   force =    -0.00002412   -0.00006727   -0.00009935
     atom   49 type  1   force =     0.00001721   -0.00005050   -0.00004098
     atom   50 type  1   force =     0.00011704   -0.00018229    0.00008001
     atom   51 type  1   force =    -0.00011075    0.00001460   -0.00011141
     atom   52 type  1   force =     0.00002835   -0.00001639    0.00005126
     atom   53 type  1   force =     0.00018597    0.00002669    0.00005939
     atom   54 type  1   force =     0.00003819    0.00003453    0.00001765
     atom   55 type  1   force =     0.00010000   -0.00005248    0.00002924
     atom   56 type  1   force =     0.00013735   -0.00007348   -0.00007284
     atom   57 type  1   force =    -0.00003986    0.00000694   -0.00005176
     atom   58 type  1   force =    -0.00002077    0.00003582   -0.00009581
     atom   59 type  1   force =     0.00004638    0.00007004   -0.00007863
     atom   60 type  1   force =     0.00007596   -0.00015326   -0.00009288
     atom   61 type  1   force =     0.00008060    0.00005503   -0.00004051
     atom   62 type  1   force =     0.00000815   -0.00006721    0.00000253
     atom   63 type  1   force =     0.00007016   -0.00004121    0.00003710
     atom   64 type  1   force =    -0.00001881   -0.00007271    0.00009709
     atom   65 type  1   force =    -0.00010961   -0.00004468    0.00018301
     atom   66 type  1   force =    -0.00012701    0.00010360    0.00002927
     atom   67 type  1   force =    -0.00011062    0.00000193   -0.00004717
     atom   68 type  1   force =     0.00021859    0.00007753   -0.00003019
     atom   69 type  1   force =     0.00008917   -0.00004866    0.00005222
     atom   70 type  1   force =    -0.00003640    0.00006387   -0.00002741
     atom   71 type  1   force =     0.00001704    0.00009825   -0.00008784
     atom   72 type  1   force =     0.00000185    0.00003631    0.00016495
     atom   73 type  1   force =     0.00008528   -0.00005901    0.00003197
     atom   74 type  1   force =     0.00005215   -0.00004185   -0.00000602
     atom   75 type  1   force =    -0.00004502   -0.00003416   -0.00002211
     atom   76 type  1   force =     0.00002274   -0.00013363    0.00000186
     atom   77 type  1   force =    -0.00003151   -0.00021834   -0.00006853
     atom   78 type  1   force =    -0.00005868   -0.00003271   -0.00018530
     atom   79 type  1   force =     0.00011168   -0.00003431    0.00003647
     atom   80 type  1   force =     0.00010157    0.00006613    0.00010092
     atom   81 type  1   force =    -0.00002416    0.00001934   -0.00004472
     atom   82 type  1   force =     0.00014661   -0.00021210   -0.00009516
     atom   83 type  1   force =    -0.00008349    0.00009490   -0.00000742
     atom   84 type  1   force =    -0.00007434   -0.00012851   -0.00038145
     atom   85 type  1   force =    -0.00001762    0.00011092    0.00005854
     atom   86 type  1   force =     0.00003308    0.00000281   -0.00003386
     atom   87 type  1   force =    -0.00006635   -0.00021392    0.00001635
     atom   88 type  1   force =     0.00039878   -0.00001365    0.00009163
     atom   89 type  1   force =     0.00003253   -0.00018995    0.00011534
     atom   90 type  1   force =     0.00006966    0.00012754   -0.00010053
     atom   91 type  1   force =    -0.00009476    0.00013016    0.00006324
     atom   92 type  1   force =     0.00001592    0.00000034   -0.00009232
     atom   93 type  1   force =     0.00015005   -0.00002089   -0.00003601
     atom   94 type  1   force =     0.00009002    0.00001828   -0.00001823
     atom   95 type  1   force =     0.00000922    0.00002978   -0.00003083
     atom   96 type  1   force =     0.00004421   -0.00004658   -0.00014196
     atom   97 type  1   force =     0.00002314    0.00003321   -0.00001687
     atom   98 type  1   force =    -0.00011155   -0.00012566    0.00014209
     atom   99 type  1   force =    -0.00008092   -0.00026333    0.00014488
     atom  100 type  1   force =     0.00019574   -0.00000326    0.00002067
     atom  101 type  1   force =    -0.00023176   -0.00004098   -0.00005731
     atom  102 type  1   force =    -0.00001367   -0.00005416   -0.00018885
     atom  103 type  1   force =    -0.00001735    0.00007826   -0.00000171
     atom  104 type  1   force =     0.00013360    0.00004715    0.00004506
     atom  105 type  1   force =     0.00005873    0.00002959    0.00023319
     atom  106 type  1   force =    -0.00005110    0.00000247   -0.00013966
     atom  107 type  1   force =    -0.00021498    0.00025725    0.00015263
     atom  108 type  1   force =     0.00001633   -0.00008001    0.00000314
     atom  109 type  1   force =     0.00006509    0.00007403   -0.00004014
     atom  110 type  1   force =    -0.00001528    0.00003987   -0.00015541
     atom  111 type  1   force =     0.00002336    0.00006382   -0.00008182
     atom  112 type  1   force =    -0.00006123    0.00010103    0.00003671
     atom  113 type  1   force =    -0.00004731   -0.00007466    0.00011842
     atom  114 type  1   force =     0.00014122    0.00007783    0.00000109
     atom  115 type  1   force =    -0.00009873   -0.00008723    0.00006698
     atom  116 type  1   force =     0.00005834    0.00019735   -0.00010620
     atom  117 type  1   force =    -0.00008427    0.00010971    0.00005770
     atom  118 type  1   force =    -0.00002826   -0.00006045    0.00013051
     atom  119 type  1   force =    -0.00001842    0.00011911   -0.00003115
     atom  120 type  1   force =    -0.00011334   -0.00008119    0.00004539
     atom  121 type  1   force =     0.00009070    0.00002218    0.00002467
     atom  122 type  1   force =     0.00000170    0.00012396   -0.00001107
     atom  123 type  1   force =    -0.00002663   -0.00000629   -0.00009266
     atom  124 type  1   force =    -0.00001442   -0.00013404    0.00004694
     atom  125 type  1   force =    -0.00006693   -0.00010149    0.00009156
     atom  126 type  1   force =     0.00010730    0.00002005    0.00005512
     atom  127 type  1   force =    -0.00011658   -0.00002386    0.00002707
     atom  128 type  1   force =    -0.00005521   -0.00001953   -0.00010734
     atom  129 type  1   force =    -0.00000772   -0.00013313    0.00003991
     atom  130 type  1   force =    -0.00000993    0.00007216   -0.00007052
     atom  131 type  1   force =    -0.00002397   -0.00000141    0.00011970
     atom  132 type  1   force =     0.00005114    0.00008706   -0.00000942
     atom  133 type  1   force =    -0.00007278    0.00017044    0.00003147
     atom  134 type  1   force =    -0.00009809    0.00001703   -0.00007259
     atom  135 type  1   force =    -0.00003074    0.00013675    0.00001020
     atom  136 type  1   force =     0.00005617    0.00001636    0.00002535
     atom  137 type  1   force =     0.00017400    0.00002033    0.00004796
     atom  138 type  1   force =     0.00006537    0.00006625    0.00006855
     atom  139 type  1   force =    -0.00003721   -0.00008771    0.00007470
     atom  140 type  1   force =    -0.00001314    0.00005151   -0.00004202
     atom  141 type  1   force =     0.00020383   -0.00003396    0.00010141
     atom  142 type  1   force =    -0.00013454    0.00001772   -0.00000622
     atom  143 type  1   force =    -0.00012001   -0.00004943    0.00002460
     atom  144 type  1   force =     0.00011459    0.00013592   -0.00004098
     atom  145 type  1   force =    -0.00017959   -0.00000368   -0.00002368
     atom  146 type  1   force =    -0.00011900    0.00007171   -0.00000972
     atom  147 type  1   force =     0.00001008    0.00003989   -0.00011954
     atom  148 type  1   force =     0.00006311    0.00000433    0.00002509
     atom  149 type  1   force =    -0.00002175    0.00006075    0.00014926
     atom  150 type  1   force =    -0.00008935   -0.00007663    0.00003945
     atom  151 type  1   force =    -0.00022059    0.00017789    0.00006811
     atom  152 type  1   force =     0.00002670   -0.00009890   -0.00005769
     atom  153 type  1   force =    -0.00010186   -0.00006935    0.00005044
     atom  154 type  1   force =    -0.00015126   -0.00004087   -0.00021677
     atom  155 type  1   force =    -0.00003318    0.00007349   -0.00000106
     atom  156 type  1   force =     0.00020216   -0.00003736    0.00009733
     atom  157 type  1   force =    -0.00013965   -0.00000079   -0.00003172
     atom  158 type  1   force =     0.00015986   -0.00000629    0.00008300
     atom  159 type  1   force =     0.00005941   -0.00006393    0.00010117
     atom  160 type  1   force =     0.00002394    0.00007682   -0.00000851
     atom  161 type  1   force =     0.00006370    0.00005630    0.00008916
     atom  162 type  1   force =    -0.00004639   -0.00003305   -0.00017245
     atom  163 type  1   force =     0.00002836    0.00006156   -0.00000050
     atom  164 type  1   force =    -0.00004306    0.00013375   -0.00000207
     atom  165 type  1   force =    -0.00008030    0.00003124   -0.00007711
     atom  166 type  1   force =    -0.00008465   -0.00010409   -0.00018710
     atom  167 type  1   force =    -0.00002683   -0.00000377   -0.00005769
     atom  168 type  1   force =    -0.00005297   -0.00009155    0.00005895
     atom  169 type  1   force =    -0.00000199    0.00004987    0.00012634
     atom  170 type  1   force =    -0.00001564   -0.00002409    0.00012888
     atom  171 type  1   force =    -0.00001092    0.00009803    0.00009837
     atom  172 type  1   force =    -0.00015986    0.00002720    0.00001111
     atom  173 type  1   force =     0.00001103    0.00011076   -0.00014448
     atom  174 type  1   force =     0.00010698    0.00006337   -0.00002263
     atom  175 type  1   force =    -0.00002278   -0.00006056    0.00010601
     atom  176 type  1   force =     0.00001878    0.00004448    0.00017463
     atom  177 type  1   force =    -0.00002361   -0.00001668   -0.00006160
     atom  178 type  1   force =    -0.00011434    0.00020361    0.00017433
     atom  179 type  1   force =     0.00008008   -0.00008586   -0.00000422
     atom  180 type  1   force =    -0.00001723    0.00007744    0.00001484
     atom  181 type  1   force =    -0.00007455   -0.00006322   -0.00015131
     atom  182 type  1   force =    -0.00003565   -0.00005333    0.00011669
     atom  183 type  1   force =    -0.00008004   -0.00010585   -0.00018488
     atom  184 type  1   force =    -0.00008150   -0.00009820   -0.00003985
     atom  185 type  1   force =     0.00021591    0.00004825    0.00015035
     atom  186 type  1   force =     0.00002697    0.00003965    0.00013493
     atom  187 type  1   force =    -0.00000909    0.00006878   -0.00004154
     atom  188 type  1   force =     0.00008805   -0.00013538   -0.00005521
     atom  189 type  1   force =    -0.00005939    0.00005772    0.00001927
     atom  190 type  1   force =    -0.00000668   -0.00009781   -0.00023850
     atom  191 type  1   force =    -0.00003401    0.00006385    0.00004460
     atom  192 type  1   force =    -0.00006102   -0.00005137    0.00007349
     atom  193 type  1   force =     0.00004187   -0.00008422   -0.00006010
     atom  194 type  1   force =     0.00025459   -0.00003434    0.00002274
     atom  195 type  1   force =     0.00007939   -0.00007511   -0.00002258
     atom  196 type  1   force =    -0.00000513    0.00009009   -0.00001665
     atom  197 type  1   force =    -0.00000912    0.00018492   -0.00003578
     atom  198 type  1   force =     0.00008237    0.00009535    0.00000345
     atom  199 type  1   force =    -0.00000464   -0.00010598    0.00003415
     atom  200 type  1   force =    -0.00002346    0.00006962   -0.00010244
     atom  201 type  1   force =    -0.00004718    0.00005307    0.00003414
     atom  202 type  1   force =    -0.00016350    0.00012177    0.00012679
     atom  203 type  1   force =    -0.00000837   -0.00010683    0.00003050
     atom  204 type  1   force =    -0.00015655    0.00012360    0.00013373
     atom  205 type  1   force =    -0.00010839    0.00001767    0.00010417
     atom  206 type  1   force =     0.00000446   -0.00010574    0.00002124
     atom  207 type  1   force =     0.00003341   -0.00004259   -0.00007315
     atom  208 type  1   force =    -0.00015152   -0.00002144   -0.00004002
     atom  209 type  1   force =     0.00008196   -0.00003079   -0.00002456
     atom  210 type  1   force =    -0.00011365    0.00013793    0.00008014
     atom  211 type  1   force =     0.00001828    0.00005052   -0.00000585
     atom  212 type  1   force =     0.00003960    0.00002492    0.00015103
     atom  213 type  1   force =    -0.00000568    0.00004485   -0.00002983
     atom  214 type  1   force =    -0.00014875    0.00013603    0.00011583
     atom  215 type  2   force =    -0.00000926    0.00001555    0.00000574
     The non-local contrib.  to forces
     atom    1 type  1   force =     0.00178948    0.00227902   -0.00234376
     atom    2 type  1   force =     0.00696917    0.00184091   -0.00187886
     atom    3 type  1   force =     0.00446117    0.00309900   -0.00636929
     atom    4 type  1   force =     0.00159053    0.00053782   -0.00725774
     atom    5 type  1   force =     0.02125147   -0.03229748   -0.01341316
     atom    6 type  1   force =     0.01447552   -0.00389573   -0.02743044
     atom    7 type  1   force =     0.00558336    0.00337214   -0.00524705
     atom    8 type  1   force =     0.02797890   -0.00062055   -0.01392691
     atom    9 type  1   force =     0.01512751    0.02871412   -0.02209491
     atom   10 type  1   force =    -0.00487124    0.00302108    0.00413667
     atom   11 type  1   force =     0.00549328    0.00335972    0.01146461
     atom   12 type  1   force =    -0.00233711    0.00846910   -0.00185520
     atom   13 type  1   force =    -0.01177154   -0.00082750   -0.00580037
     atom   14 type  1   force =    -0.13053319    0.17831495    0.08726835
     atom   15 type  1   force =    -0.13109628   -0.03875969   -0.01368106
     atom   16 type  1   force =    -0.00026162    0.00897340    0.00022025
     atom   17 type  1   force =     0.01867785   -0.00241966    0.13609297
     atom   18 type  1   force =     0.02241402    0.10652793   -0.04826234
     atom   19 type  1   force =    -0.00186474    0.00256416    0.00124125
     atom   20 type  1   force =     0.00288812    0.00142228    0.00991112
     atom   21 type  1   force =     0.00108017    0.00432565    0.00420039
     atom   22 type  1   force =    -0.00988071   -0.00167374   -0.00285739
     atom   23 type  1   force =     0.00393102   -0.00616369   -0.00243388
     atom   24 type  1   force =    -0.00693706    0.00057468    0.00387663
     atom   25 type  1   force =    -0.00506976    0.00283429   -0.00194961
     atom   26 type  1   force =    -0.00409891    0.00126214    0.00671500
     atom   27 type  1   force =    -0.02154142    0.00484178    0.02036649
     atom   28 type  1   force =    -0.00458172    0.00146883   -0.00381500
     atom   29 type  1   force =    -0.00119007   -0.00669143   -0.00415142
     atom   30 type  1   force =    -0.01165014   -0.02220566   -0.01656201
     atom   31 type  1   force =     0.00202554    0.00272705   -0.00831574
     atom   32 type  1   force =     0.06180857   -0.12025524   -0.02482642
     atom   33 type  1   force =     0.03032925    0.08489549   -0.07775065
     atom   34 type  1   force =     0.00415337    0.00725104    0.00005804
     atom   35 type  1   force =     0.02069701    0.01928667    0.01327905
     atom   36 type  1   force =     0.01341196    0.03337328   -0.01573095
     atom   37 type  1   force =    -0.01036591   -0.00038033   -0.00108042
     atom   38 type  1   force =     0.00126563    0.00111254    0.00749700
     atom   39 type  1   force =    -0.00488315   -0.00505308   -0.00378146
     atom   40 type  1   force =    -0.01285393    0.00213196   -0.00175409
     atom   41 type  1   force =    -0.04626421   -0.05188105   -0.22716577
     atom   42 type  1   force =    -0.13344874   -0.03245054   -0.00508525
     atom   43 type  1   force =    -0.00084194    0.00715676    0.00179847
     atom   44 type  1   force =     0.00700037    0.00663951    0.03977121
     atom   45 type  1   force =     0.00307535    0.02720503    0.01506033
     atom   46 type  1   force =    -0.00064648   -0.00074270   -0.00328222
     atom   47 type  1   force =     0.00629560   -0.00787050   -0.00277659
     atom   48 type  1   force =     0.00345451   -0.00213739   -0.00463911
     atom   49 type  1   force =    -0.00229471   -0.00395521   -0.00540859
     atom   50 type  1   force =     0.00965553   -0.00798494   -0.00403955
     atom   51 type  1   force =    -0.00066325    0.00394890   -0.00805462
     atom   52 type  1   force =     0.00141673    0.00331923   -0.00093079
     atom   53 type  1   force =     0.00617851    0.00401378    0.00107348
     atom   54 type  1   force =     0.00271209    0.00790430    0.00018419
     atom   55 type  1   force =     0.00322819    0.00336274    0.00399518
     atom   56 type  1   force =     0.00749333    0.00405206   -0.00284790
     atom   57 type  1   force =    -0.00164807    0.00584341   -0.00574351
     atom   58 type  1   force =     0.00557665   -0.00504864    0.00261519
     atom   59 type  1   force =     0.05422962   -0.12209376   -0.03240511
     atom   60 type  1   force =    -0.01685360    0.01017775   -0.02427173
     atom   61 type  1   force =     0.02098915   -0.01428608    0.01607728
     atom   62 type  1   force =     0.05638528    0.09121655   -0.05169474
     atom   63 type  1   force =     0.00779743    0.03201192   -0.02134537
     atom   64 type  1   force =     0.00084235    0.00233810    0.01012769
     atom   65 type  1   force =     0.00083415    0.00545146    0.01193397
     atom   66 type  1   force =    -0.00345946    0.00652170   -0.00081893
     atom   67 type  1   force =    -0.00750806   -0.00101538   -0.00127652
     atom   68 type  1   force =     0.23157703    0.01553487    0.05067516
     atom   69 type  1   force =    -0.03999886   -0.00476234   -0.00722800
     atom   70 type  1   force =     0.00472487   -0.00272211    0.00582656
     atom   71 type  1   force =     0.00877313    0.00205726    0.13713658
     atom   72 type  1   force =    -0.02095490    0.02137519   -0.00897012
     atom   73 type  1   force =     0.00334456    0.00022452    0.00070883
     atom   74 type  1   force =     0.00612053   -0.00191517    0.00300661
     atom   75 type  1   force =     0.00016105    0.00301472   -0.00218655
     atom   76 type  1   force =     0.00473318   -0.00824871   -0.00433900
     atom   77 type  1   force =     0.00608354   -0.00885138   -0.00761152
     atom   78 type  1   force =    -0.00181260    0.00207710   -0.00691746
     atom   79 type  1   force =     0.00510902   -0.00173636   -0.00298466
     atom   80 type  1   force =     0.00687523    0.00577692   -0.00051617
     atom   81 type  1   force =    -0.00196530    0.00677031   -0.00449317
     atom   82 type  1   force =     0.00418567   -0.00498334   -0.00297614
     atom   83 type  1   force =     0.02023057   -0.03033985   -0.00521442
     atom   84 type  1   force =    -0.00115858   -0.00049905   -0.00937343
     atom   85 type  1   force =     0.01279568   -0.03214310   -0.01264942
     atom   86 type  1   force =     0.02665864   -0.00466105   -0.02552637
     atom   87 type  1   force =     0.01031834    0.02621655   -0.01465519
     atom   88 type  1   force =     0.00918948    0.00201047    0.00097470
     atom   89 type  1   force =     0.00835188    0.02573725   -0.01662158
     atom   90 type  1   force =     0.00416717    0.01077011   -0.00678190
     atom   91 type  1   force =    -0.00499014    0.00286367    0.00429544
     atom   92 type  1   force =    -0.00555434   -0.01278309    0.00174570
     atom   93 type  1   force =    -0.03650984   -0.00484650    0.00050560
     atom   94 type  1   force =     0.00115909   -0.01115335    0.00845906
     atom   95 type  1   force =    -0.02501797    0.01857980   -0.02030368
     atom   96 type  1   force =    -0.00039321    0.00391564    0.03662207
     atom   97 type  1   force =     0.01462848    0.02819761    0.01934288
     atom   98 type  1   force =     0.01089822    0.02458910   -0.01686619
     atom   99 type  1   force =    -0.00082904   -0.00218195    0.00135875
     atom  100 type  1   force =     0.00609702   -0.00212541    0.00316792
     atom  101 type  1   force =    -0.00688793   -0.00000061   -0.00185858
     atom  102 type  1   force =    -0.00240150   -0.00418691   -0.00533030
     atom  103 type  1   force =    -0.00760031   -0.00720325    0.00934935
     atom  104 type  1   force =    -0.03425049   -0.01098451   -0.00789321
     atom  105 type  1   force =     0.00160824    0.00205961    0.00663744
     atom  106 type  1   force =     0.00927719   -0.00042474    0.03563448
     atom  107 type  1   force =    -0.00429440    0.00806879    0.00233518
     atom  108 type  1   force =     0.00395541   -0.00200568   -0.00346962
     atom  109 type  1   force =     0.00618031   -0.00886270    0.00583690
     atom  110 type  1   force =    -0.00147736    0.00039380   -0.01617453
     atom  111 type  1   force =    -0.00340383   -0.01118671   -0.00374749
     atom  112 type  1   force =     0.03977992   -0.01037365   -0.03726139
     atom  113 type  1   force =    -0.02226968   -0.03176847   -0.07881657
     atom  114 type  1   force =     0.01557637    0.00453144    0.00087917
     atom  115 type  1   force =     0.08341435   -0.00612714    0.02686757
     atom  116 type  1   force =     0.00552238    0.01436374   -0.00900870
     atom  117 type  1   force =    -0.00379362    0.00507906    0.00256055
     atom  118 type  1   force =    -0.00060835   -0.00422311    0.01294261
     atom  119 type  1   force =    -0.00964963   -0.00174364    0.00743335
     atom  120 type  1   force =    -0.01159439   -0.00688716    0.00195674
     atom  121 type  1   force =    -0.03979685    0.02537354   -0.02922093
     atom  122 type  1   force =    -0.00708636   -0.00112182    0.00999639
     atom  123 type  1   force =     0.02126712    0.04018831    0.03184322
     atom  124 type  1   force =    -0.05429703    0.05576884    0.04076433
     atom  125 type  1   force =     0.00027060    0.00077363   -0.00045893
     atom  126 type  1   force =     0.00661625    0.00039543    0.00152148
     atom  127 type  1   force =    -0.00468518    0.00187706   -0.00259005
     atom  128 type  1   force =    -0.00138173   -0.00154370   -0.00647644
     atom  129 type  1   force =     0.00272334   -0.01332819    0.00051233
     atom  130 type  1   force =    -0.00674385   -0.00969457   -0.00340698
     atom  131 type  1   force =     0.00193866    0.00348411    0.00403400
     atom  132 type  1   force =     0.00540225   -0.00674919    0.00873893
     atom  133 type  1   force =    -0.00665358    0.01452003    0.00312956
     atom  134 type  1   force =    -0.00469263   -0.00579673   -0.00362597
     atom  135 type  1   force =    -0.01153915   -0.06026984    0.04000245
     atom  136 type  1   force =     0.00929217   -0.00979614   -0.07974261
     atom  137 type  1   force =    -0.00265549   -0.00628773    0.00391384
     atom  138 type  1   force =     0.42938151    0.06362714    0.06859389
     atom  139 type  1   force =    -0.02761245    0.04283273   -0.03873319
     atom  140 type  1   force =     0.01293919    0.00385221   -0.00398752
     atom  141 type  1   force =     0.01706812    0.01026788    0.00957579
     atom  142 type  1   force =     0.00171869    0.01364720    0.00080561
     atom  143 type  1   force =    -0.00491749    0.00082333   -0.00189642
     atom  144 type  1   force =     0.00209218   -0.01734373    0.01328605
     atom  145 type  1   force =    -0.01359791   -0.00910065    0.00304185
     atom  146 type  1   force =    -0.00690564    0.00024889    0.00463048
     atom  147 type  1   force =    -0.01187415   -0.05931484    0.04132053
     atom  148 type  1   force =    -0.02051698    0.07163518    0.03151074
     atom  149 type  1   force =    -0.00193181    0.00401422    0.00607914
     atom  150 type  1   force =     0.00306831    0.00840966    0.01056411
     atom  151 type  1   force =    -0.01111144    0.01594032    0.00735675
     atom  152 type  1   force =     0.00123160   -0.00464476   -0.00574039
     atom  153 type  1   force =     0.00835300   -0.00605046   -0.00919150
     atom  154 type  1   force =    -0.00379062   -0.00408067   -0.01998263
     atom  155 type  1   force =     0.01137332    0.00810041    0.00181838
     atom  156 type  1   force =     0.02123530   -0.00111210   -0.00597670
     atom  157 type  1   force =     0.00514752    0.00425865   -0.01202554
     atom  158 type  1   force =     0.00572798    0.00216178   -0.00001252
     atom  159 type  1   force =     0.01665910   -0.00255891    0.00637261
     atom  160 type  1   force =     0.00118346    0.00713848   -0.00486803
     atom  161 type  1   force =     0.00475470   -0.00350575    0.00582127
     atom  162 type  1   force =    -0.00239559   -0.00622551    0.00417378
     atom  163 type  1   force =     0.00333416    0.00152237   -0.01359245
     atom  164 type  1   force =    -0.02498183   -0.06353117    0.02655996
     atom  165 type  1   force =    -0.06935027   -0.05738504   -0.43013998
     atom  166 type  1   force =    -0.01123415    0.00340280   -0.01872653
     atom  167 type  1   force =     0.08003740    0.00736798   -0.00899753
     atom  168 type  1   force =     0.02674004    0.05601969    0.01561941
     atom  169 type  1   force =    -0.00395146    0.01227190   -0.00486469
     atom  170 type  1   force =     0.00150803    0.00238125    0.00452887
     atom  171 type  1   force =    -0.00475425    0.00076998    0.00678177
     atom  172 type  1   force =    -0.00690791    0.00280751    0.00110309
     atom  173 type  1   force =    -0.00875714   -0.01997596    0.00243709
     atom  174 type  1   force =    -0.02649671   -0.06286239    0.02669767
     atom  175 type  1   force =    -0.01215700    0.00471774   -0.00466111
     atom  176 type  1   force =    -0.00119849   -0.00609339    0.01544127
     atom  177 type  1   force =    -0.04808090    0.06494585    0.00394685
     atom  178 type  1   force =    -0.01122249    0.01591386    0.00724561
     atom  179 type  1   force =     0.00670650   -0.00331757   -0.00026531
     atom  180 type  1   force =    -0.00335030    0.00452701   -0.01290531
     atom  181 type  1   force =    -0.00033479    0.00069143   -0.00607537
     atom  182 type  1   force =     0.01059506   -0.00550621   -0.00694964
     atom  183 type  1   force =     0.00667597   -0.00464404   -0.02053578
     atom  184 type  1   force =    -0.00511115   -0.00783893   -0.01539772
     atom  185 type  1   force =     0.02026499    0.00175473    0.00407293
     atom  186 type  1   force =     0.01082509    0.00563513   -0.00634815
     atom  187 type  1   force =     0.00307859    0.00759890   -0.00297268
     atom  188 type  1   force =     0.00256484   -0.01637445    0.00140918
     atom  189 type  1   force =    -0.02665031    0.00635674   -0.07613600
     atom  190 type  1   force =    -0.00393414   -0.00401048   -0.01997455
     atom  191 type  1   force =     0.07169951    0.03022012    0.02221383
     atom  192 type  1   force =     0.04321774    0.01102016   -0.04589122
     atom  193 type  1   force =    -0.00223606    0.00757487   -0.01128619
     atom  194 type  1   force =     0.02023622    0.00185226    0.00419582
     atom  195 type  1   force =     0.00911384    0.01032715    0.00006367
     atom  196 type  1   force =     0.00366361    0.00602228   -0.00512678
     atom  197 type  1   force =    -0.01204023   -0.01099145    0.01470820
     atom  198 type  1   force =    -0.03059794   -0.05170173    0.04192497
     atom  199 type  1   force =    -0.01148033    0.00286867   -0.00719614
     atom  200 type  1   force =    -0.02941399   -0.05141485    0.04310892
     atom  201 type  1   force =    -0.22052249    0.35571640    0.13421168
     atom  202 type  1   force =    -0.01564123    0.01545499   -0.00225603
     atom  203 type  1   force =     0.00598598    0.00710465    0.01026995
     atom  204 type  1   force =    -0.00189893    0.01878792    0.01148648
     atom  205 type  1   force =    -0.01170147    0.01019457    0.00922623
     atom  206 type  1   force =     0.00344852   -0.00293951   -0.00273402
     atom  207 type  1   force =    -0.00189128   -0.00706023   -0.00389842
     atom  208 type  1   force =    -0.00525143   -0.00173243   -0.00508687
     atom  209 type  1   force =     0.00539781   -0.00529199    0.00339064
     atom  210 type  1   force =    -0.00230911   -0.00645526    0.00387613
     atom  211 type  1   force =    -0.00114281    0.01372512    0.00308140
     atom  212 type  1   force =     0.00519944    0.00080141    0.00536403
     atom  213 type  1   force =    -0.00626126    0.01248152   -0.00203733
     atom  214 type  1   force =    -0.00217695    0.00572007    0.00078738
     atom  215 type  2   force =    -0.35690117   -0.92451502    0.58123000
     The ionic contribution  to forces
     atom    1 type  1   force =    -0.02082377   -0.00749918    0.02264340
     atom    2 type  1   force =    -0.08608440    0.02702463    0.02732383
     atom    3 type  1   force =    -0.04750471   -0.04699682    0.06988464
     atom    4 type  1   force =    -0.03537389    0.03932914    0.07803434
     atom    5 type  1   force =    -0.20639990    0.21826496    0.15344002
     atom    6 type  1   force =    -0.00531710    0.06335985    0.28751180
     atom    7 type  1   force =    -0.05816751   -0.04958399    0.05922193
     atom    8 type  1   force =    -0.29437640   -0.00677768   -0.00154735
     atom    9 type  1   force =    -0.18073317   -0.22405077    0.23509710
     atom   10 type  1   force =    -0.01428634   -0.01545704    0.01803688
     atom   11 type  1   force =    -0.05931456    0.01231454   -0.09590748
     atom   12 type  1   force =     0.03224413   -0.08009791    0.02617508
     atom   13 type  1   force =     0.08856619    0.04819654    0.05197336
     atom   14 type  1   force =     0.69113862    0.46891422   -0.80491607
     atom   15 type  1   force =     0.44039899    0.33149455    1.04665795
     atom   16 type  1   force =    -0.00562540   -0.08928658   -0.01169437
     atom   17 type  1   force =    -1.08226913   -0.03796678   -0.47601017
     atom   18 type  1   force =     0.48589954   -1.22413367   -0.18887512
     atom   19 type  1   force =     0.02345165   -0.01886708   -0.01887367
     atom   20 type  1   force =    -0.01067207   -0.02293237   -0.07975133
     atom   21 type  1   force =     0.06991403   -0.01328158   -0.03968705
     atom   22 type  1   force =     0.08257093   -0.00030776    0.01349165
     atom   23 type  1   force =    -0.03813710    0.13455328    0.00548918
     atom   24 type  1   force =     0.28893746    0.08604381   -0.03780579
     atom   25 type  1   force =     0.04368190   -0.01964660   -0.06591917
     atom   26 type  1   force =     0.02470634    0.02193035   -0.30203686
     atom   27 type  1   force =     0.15617089   -0.16310438   -0.11659525
     atom   28 type  1   force =     0.01301542    0.06404807    0.04846376
     atom   29 type  1   force =    -0.07278198    0.28823019    0.06196943
     atom   30 type  1   force =     0.06354780    0.08990251    0.22901764
     atom   31 type  1   force =    -0.03080357   -0.02042844    0.08233681
     atom   32 type  1   force =    -1.15336043    0.15646585   -0.20999927
     atom   33 type  1   force =     0.08079759   -0.11738208    1.32311396
     atom   34 type  1   force =    -0.04536639   -0.08471090    0.01132249
     atom   35 type  1   force =    -0.27032686   -0.07270424   -0.09157642
     atom   36 type  1   force =    -0.14098304   -0.33288249    0.08641006
     atom   37 type  1   force =     0.07955592    0.00773669    0.02452756
     atom   38 type  1   force =    -0.00014237    0.03049615   -0.13651641
     atom   39 type  1   force =     0.27147258    0.13357544    0.02730031
     atom   40 type  1   force =     0.10972535   -0.00959671   -0.02698799
     atom   41 type  1   force =     0.47542679    1.05816450   -0.00025971
     atom   42 type  1   force =     0.83060484   -0.73505582   -0.41030808
     atom   43 type  1   force =     0.00334861   -0.06668076   -0.06673417
     atom   44 type  1   force =    -0.08368951   -0.11735954   -0.30504079
     atom   45 type  1   force =     0.10642596   -0.24206642   -0.12962040
     atom   46 type  1   force =     0.01052639    0.01658067    0.02952954
     atom   47 type  1   force =    -0.04179637    0.06230154    0.03665064
     atom   48 type  1   force =     0.04723754    0.04876154    0.04492954
     atom   49 type  1   force =    -0.01061064   -0.02506809    0.00479887
     atom   50 type  1   force =    -0.08282879    0.07706176   -0.00766279
     atom   51 type  1   force =     0.01868490   -0.04263614    0.07719916
     atom   52 type  1   force =    -0.01320775   -0.02824078   -0.00574285
     atom   53 type  1   force =    -0.06263511   -0.03694247   -0.06017641
     atom   54 type  1   force =    -0.03133498   -0.09100938    0.00979976
     atom   55 type  1   force =    -0.06180202    0.04589426   -0.02635370
     atom   56 type  1   force =    -0.07604816   -0.03140671    0.03709211
     atom   57 type  1   force =     0.00767054   -0.07184200    0.06435935
     atom   58 type  1   force =    -0.13021507    0.27429464    0.00453632
     atom   59 type  1   force =     0.13413425    0.46886418    1.07749495
     atom   60 type  1   force =     0.09836399    0.01675526    0.27711461
     atom   61 type  1   force =    -0.24184193    0.01580261   -0.07637205
     atom   62 type  1   force =    -1.25530122   -0.44157410   -0.01298498
     atom   63 type  1   force =    -0.00950954   -0.30098162    0.21788371
     atom   64 type  1   force =    -0.02337474   -0.01723853   -0.07840307
     atom   65 type  1   force =     0.03161593   -0.02854928   -0.10509753
     atom   66 type  1   force =     0.08063846   -0.04792704    0.01055562
     atom   67 type  1   force =     0.12542062    0.06096297   -0.01095336
     atom   68 type  1   force =    -0.23556476    0.88564910   -0.71125087
     atom   69 type  1   force =     0.32158682   -0.01902289    0.10023554
     atom   70 type  1   force =    -0.05024084    0.05551457   -0.29441301
     atom   71 type  1   force =     0.59558111   -0.79208241   -0.64533205
     atom   72 type  1   force =     0.18601257   -0.22275551   -0.05003363
     atom   73 type  1   force =    -0.03229219    0.00619111   -0.01328899
     atom   74 type  1   force =     0.00094354   -0.02226458    0.01635312
     atom   75 type  1   force =     0.01185743   -0.02215895    0.01932230
     atom   76 type  1   force =    -0.05148231    0.05995135    0.02696467
     atom   77 type  1   force =    -0.01308840    0.09398364    0.06207755
     atom   78 type  1   force =     0.06537211   -0.00588264    0.06783062
     atom   79 type  1   force =    -0.05378724    0.02424880   -0.05609510
     atom   80 type  1   force =    -0.06440790   -0.06279787   -0.00589358
     atom   81 type  1   force =     0.01103557   -0.08072855    0.05217027
     atom   82 type  1   force =    -0.06958614    0.10706021    0.04360903
     atom   83 type  1   force =     0.01252518    0.04518831    0.17321132
     atom   84 type  1   force =     0.01758090    0.01913756    0.08841875
     atom   85 type  1   force =    -0.17855110   -0.00117451   -0.01786489
     atom   86 type  1   force =    -0.32840257    0.03352618    0.32026783
     atom   87 type  1   force =     0.00584584   -0.03559795    0.21577414
     atom   88 type  1   force =    -0.08989847   -0.00694131   -0.01906053
     atom   89 type  1   force =    -0.20104632   -0.08579853    0.00888205
     atom   90 type  1   force =    -0.05090468   -0.13194708    0.08292043
     atom   91 type  1   force =     0.04432882    0.10908655   -0.07079764
     atom   92 type  1   force =     0.10988855    0.24256552    0.00853725
     atom   93 type  1   force =     0.05427697    0.02642037    0.16908203
     atom   94 type  1   force =    -0.06232421    0.20077977   -0.16367543
     atom   95 type  1   force =     0.29166581   -0.24513573    0.25775851
     atom   96 type  1   force =    -0.16892235   -0.02773694   -0.05411726
     atom   97 type  1   force =    -0.18426838   -0.36061687   -0.21817593
     atom   98 type  1   force =     0.06850007   -0.20703435   -0.01826518
     atom   99 type  1   force =     0.00570254    0.01471484   -0.00927287
     atom  100 type  1   force =     0.04037336    0.11098371   -0.07045715
     atom  101 type  1   force =     0.13202392    0.01651012    0.02328659
     atom  102 type  1   force =     0.04343782    0.11172728   -0.06739276
     atom  103 type  1   force =     0.16211426    0.10003346   -0.18638652
     atom  104 type  1   force =     0.11234318   -0.13191112   -0.04721177
     atom  105 type  1   force =    -0.02273685   -0.02104121   -0.13147412
     atom  106 type  1   force =     0.08016600   -0.13971869   -0.07938885
     atom  107 type  1   force =     0.05020652   -0.06998335   -0.03322571
     atom  108 type  1   force =    -0.01070305    0.04546127   -0.00032765
     atom  109 type  1   force =    -0.04157418    0.08456206    0.14455262
     atom  110 type  1   force =     0.00240599   -0.01045058    0.07049358
     atom  111 type  1   force =    -0.16153943    0.05545361    0.02458745
     atom  112 type  1   force =    -0.63445314    0.32166211    0.55640481
     atom  113 type  1   force =     0.05501616    0.02929773    0.41445875
     atom  114 type  1   force =    -0.06594575   -0.02703552    0.00214181
     atom  115 type  1   force =    -0.40793951   -0.08303417   -0.04849686
     atom  116 type  1   force =    -0.09325926   -0.24150567    0.15185842
     atom  117 type  1   force =     0.00062539    0.02242842   -0.00606739
     atom  118 type  1   force =     0.02803703    0.08743464   -0.11078434
     atom  119 type  1   force =     0.11375433    0.01472444    0.12893834
     atom  120 type  1   force =     0.08780962    0.10193796   -0.05101181
     atom  121 type  1   force =     0.74350746   -0.29775017    0.41728537
     atom  122 type  1   force =    -0.12546905   -0.04332101   -0.11028506
     atom  123 type  1   force =    -0.31391160   -0.55432323   -0.64013386
     atom  124 type  1   force =     0.19546784   -0.35438669   -0.10947924
     atom  125 type  1   force =    -0.00236497   -0.00611549    0.00384887
     atom  126 type  1   force =     0.01520510    0.01593547   -0.00761738
     atom  127 type  1   force =     0.04062546    0.02244117   -0.00549526
     atom  128 type  1   force =     0.00407838    0.01323565   -0.01874423
     atom  129 type  1   force =     0.01004196    0.13697405   -0.04327744
     atom  130 type  1   force =     0.15026006   -0.08475204   -0.00697866
     atom  131 type  1   force =     0.00121040    0.01287737   -0.04491044
     atom  132 type  1   force =     0.03105202   -0.11367679   -0.12618662
     atom  133 type  1   force =     0.02320320   -0.06718992   -0.00690027
     atom  134 type  1   force =     0.03291908    0.13528380   -0.01065957
     atom  135 type  1   force =     0.22290052    0.68981657    0.16423430
     atom  136 type  1   force =     0.12719563    0.08340230    0.32595447
     atom  137 type  1   force =    -0.12891013    0.01440266   -0.04501922
     atom  138 type  1   force =    -3.79013670   -0.31326564   -0.78569917
     atom  139 type  1   force =     0.30611942   -0.66647760    0.57003532
     atom  140 type  1   force =    -0.01231394   -0.02544833   -0.06168277
     atom  141 type  1   force =    -0.18624506   -0.09619943   -0.09178632
     atom  142 type  1   force =     0.01657691   -0.20860330    0.02327826
     atom  143 type  1   force =     0.05320449    0.00846744    0.00809745
     atom  144 type  1   force =    -0.10316455    0.14864879   -0.13637385
     atom  145 type  1   force =     0.22704720    0.05700268    0.01918672
     atom  146 type  1   force =     0.05944354    0.06294448   -0.10962797
     atom  147 type  1   force =     0.42616594    0.13470916   -0.59388812
     atom  148 type  1   force =     0.24491213   -0.23810775   -0.11306875
     atom  149 type  1   force =    -0.01920658   -0.02614364   -0.05101560
     atom  150 type  1   force =     0.02814497   -0.11996738   -0.16317077
     atom  151 type  1   force =     0.05743036   -0.06232260   -0.03920474
     atom  152 type  1   force =    -0.04081470    0.03306385    0.02987783
     atom  153 type  1   force =    -0.05799118    0.11552528    0.15834065
     atom  154 type  1   force =     0.02402472    0.02896172    0.08536577
     atom  155 type  1   force =    -0.03790491    0.04478632    0.03414260
     atom  156 type  1   force =    -0.22356251    0.00612644    0.04788890
     atom  157 type  1   force =    -0.02797533   -0.08667325    0.18976431
     atom  158 type  1   force =    -0.02742657   -0.00684469   -0.00233860
     atom  159 type  1   force =    -0.04738212   -0.05459858    0.02721576
     atom  160 type  1   force =    -0.04546763   -0.05012835    0.02454751
     atom  161 type  1   force =    -0.02059050    0.12230020   -0.06416920
     atom  162 type  1   force =     0.03665086    0.05457454    0.12054174
     atom  163 type  1   force =     0.06556502   -0.00655166    0.01619634
     atom  164 type  1   force =    -0.31575529    0.55911682   -0.37442124
     atom  165 type  1   force =     0.72868858    0.78318571    3.73312613
     atom  166 type  1   force =     0.10651024   -0.02516504    0.20096903
     atom  167 type  1   force =    -0.33265424   -0.02817617   -0.13389574
     atom  168 type  1   force =    -0.38789088   -0.83487264   -0.12397491
     atom  169 type  1   force =     0.02702973   -0.20606708    0.03373104
     atom  170 type  1   force =    -0.00834026   -0.00646587   -0.05344726
     atom  171 type  1   force =     0.09335665    0.07117329   -0.07571478
     atom  172 type  1   force =     0.05516964   -0.00809688    0.02336065
     atom  173 type  1   force =     0.09448757    0.19660753    0.06127776
     atom  174 type  1   force =     0.55734057    0.16653786   -0.46271315
     atom  175 type  1   force =     0.18758619   -0.08128046   -0.00372954
     atom  176 type  1   force =    -0.02558118   -0.00429544   -0.23344177
     atom  177 type  1   force =     0.17296108   -0.25556561   -0.18501945
     atom  178 type  1   force =     0.05441546   -0.06305423   -0.04221972
     atom  179 type  1   force =    -0.03798379    0.03375075    0.03270877
     atom  180 type  1   force =    -0.04480651    0.04311176    0.02724112
     atom  181 type  1   force =     0.00310074    0.00056250    0.02818872
     atom  182 type  1   force =    -0.18270071    0.08526566    0.03363114
     atom  183 type  1   force =    -0.05435638    0.04718273    0.21709501
     atom  184 type  1   force =    -0.01492342   -0.04672275    0.05967436
     atom  185 type  1   force =    -0.08906411    0.00152173   -0.02772302
     atom  186 type  1   force =    -0.16470891   -0.11985036    0.05303087
     atom  187 type  1   force =    -0.01333033   -0.04233058    0.05668473
     atom  188 type  1   force =    -0.10210068    0.20494127    0.05237371
     atom  189 type  1   force =     0.03344076    0.12553723    0.33534402
     atom  190 type  1   force =     0.02010826    0.03070814    0.08582033
     atom  191 type  1   force =    -0.35438777    0.03143422   -0.05248453
     atom  192 type  1   force =    -0.59828822   -0.25988962    0.66134806
     atom  193 type  1   force =    -0.01441832   -0.09274746    0.18844225
     atom  194 type  1   force =    -0.09002924    0.00398424   -0.02431718
     atom  195 type  1   force =    -0.16160521   -0.12846100    0.04125542
     atom  196 type  1   force =    -0.00357709   -0.06898460    0.02031562
     atom  197 type  1   force =     0.15434352    0.03278451   -0.16229820
     atom  198 type  1   force =     0.39384673    0.61299646    0.14708233
     atom  199 type  1   force =     0.14970412    0.02210904    0.13747534
     atom  200 type  1   force =    -0.27609902    0.45044008   -0.52286338
     atom  201 type  1   force =     2.09933973   -2.96085844   -1.38091486
     atom  202 type  1   force =     0.15784919   -0.16540918    0.00944536
     atom  203 type  1   force =    -0.13447446   -0.04684431   -0.14670329
     atom  204 type  1   force =     0.03432582   -0.19538095   -0.11407806
     atom  205 type  1   force =    -0.00514104   -0.07361809    0.02300376
     atom  206 type  1   force =    -0.02693361    0.04453959    0.01612653
     atom  207 type  1   force =     0.07716542    0.11549842   -0.01521799
     atom  208 type  1   force =     0.05607610   -0.01048547    0.02010943
     atom  209 type  1   force =    -0.01023377    0.09429170   -0.10261735
     atom  210 type  1   force =     0.08701761   -0.08268453   -0.06695506
     atom  211 type  1   force =     0.06356152   -0.00093182    0.02385714
     atom  212 type  1   force =    -0.01545943   -0.02784295   -0.05142609
     atom  213 type  1   force =    -0.02113795   -0.02148317   -0.06084208
     atom  214 type  1   force =     0.01232195   -0.02468740   -0.00633182
     atom  215 type  2   force =     1.66317335    4.30940980   -2.70881080
     The local contribution  to forces
     atom    1 type  1   force =     0.01907929    0.00518728   -0.02034280
     atom    2 type  1   force =     0.07941207   -0.02886027   -0.02553456
     atom    3 type  1   force =     0.04320692    0.04393114   -0.06367056
     atom    4 type  1   force =     0.03387824   -0.03990207   -0.07106967
     atom    5 type  1   force =     0.18548037   -0.18650901   -0.14022045
     atom    6 type  1   force =    -0.00908796   -0.05955794   -0.26050398
     atom    7 type  1   force =     0.05272765    0.04624371   -0.05414904
     atom    8 type  1   force =     0.26683636    0.00738752    0.01541920
     atom    9 type  1   force =     0.16585375    0.19584050   -0.21337388
     atom   10 type  1   force =     0.01898614    0.01247776   -0.02201857
     atom   11 type  1   force =     0.05399718   -0.01574589    0.08482371
     atom   12 type  1   force =    -0.03011412    0.07183906   -0.02439825
     atom   13 type  1   force =    -0.07714319   -0.04755893   -0.04631621
     atom   14 type  1   force =    -0.56304552   -0.64305120    0.71908020
     atom   15 type  1   force =    -0.31231633   -0.29335675   -1.03292691
     atom   16 type  1   force =     0.00590487    0.08058156    0.01161974
     atom   17 type  1   force =     1.06360685    0.04049420    0.34299776
     atom   18 type  1   force =    -0.50757311    1.11969517    0.23588857
     atom   19 type  1   force =    -0.02166829    0.01635525    0.01769571
     atom   20 type  1   force =     0.00780163    0.02147149    0.07012813
     atom   21 type  1   force =    -0.07103902    0.00902129    0.03561175
     atom   22 type  1   force =    -0.07296176    0.00188209   -0.01063467
     atom   23 type  1   force =     0.03437457   -0.12855801   -0.00317514
     atom   24 type  1   force =    -0.28205862   -0.08649692    0.03396911
     atom   25 type  1   force =    -0.03875444    0.01685757    0.06789660
     atom   26 type  1   force =    -0.02067356   -0.02307832    0.29535411
     atom   27 type  1   force =    -0.13489865    0.15837299    0.09647112
     atom   28 type  1   force =    -0.00855255   -0.06557692   -0.04475904
     atom   29 type  1   force =     0.07393772   -0.28154048   -0.05794547
     atom   30 type  1   force =    -0.05203944   -0.06795807   -0.21270012
     atom   31 type  1   force =     0.02890849    0.01767223   -0.07428437
     atom   32 type  1   force =     1.09264178   -0.03903221    0.23393654
     atom   33 type  1   force =    -0.11034353    0.03447410   -1.24669664
     atom   34 type  1   force =     0.04128094    0.07765443   -0.01132398
     atom   35 type  1   force =     0.25001337    0.05355596    0.07846083
     atom   36 type  1   force =     0.12778555    0.30007157   -0.07098193
     atom   37 type  1   force =    -0.06947349   -0.00746747   -0.02344507
     atom   38 type  1   force =    -0.00105981   -0.03152162    0.12924643
     atom   39 type  1   force =    -0.26659860   -0.12855615   -0.02365117
     atom   40 type  1   force =    -0.09728654    0.00745635    0.02884632
     atom   41 type  1   force =    -0.42987896   -1.00678340    0.22249471
     atom   42 type  1   force =    -0.70007732    0.76652242    0.41492487
     atom   43 type  1   force =    -0.00253514    0.05978229    0.06506380
     atom   44 type  1   force =     0.07678605    0.11079960    0.26593459
     atom   45 type  1   force =    -0.10961746    0.21522845    0.11477360
     atom   46 type  1   force =    -0.00990558   -0.01590640   -0.02636182
     atom   47 type  1   force =     0.03562156   -0.05472040   -0.03392982
     atom   48 type  1   force =    -0.05066015   -0.04674148   -0.04043622
     atom   49 type  1   force =     0.01284522    0.02885434    0.00045193
     atom   50 type  1   force =     0.07346371   -0.06939713    0.01172243
     atom   51 type  1   force =    -0.01816438    0.03879146   -0.06939729
     atom   52 type  1   force =     0.01182539    0.02495012    0.00670521
     atom   53 type  1   force =     0.05671191    0.03307532    0.05918762
     atom   54 type  1   force =     0.02875050    0.08327579   -0.00995690
     atom   55 type  1   force =     0.05868937   -0.04926505    0.02248306
     atom   56 type  1   force =     0.06882243    0.02735090   -0.03436974
     atom   57 type  1   force =    -0.00612789    0.06615166   -0.05873285
     atom   58 type  1   force =     0.12476484   -0.26920443   -0.00711855
     atom   59 type  1   force =    -0.18679895   -0.34947486   -1.04550307
     atom   60 type  1   force =    -0.08169061   -0.02692139   -0.25324378
     atom   61 type  1   force =     0.22114910   -0.00167272    0.06048796
     atom   62 type  1   force =     1.19976726    0.35235779    0.06341393
     atom   63 type  1   force =     0.00187534    0.26952380   -0.19689251
     atom   64 type  1   force =     0.02254727    0.01485665    0.06857512
     atom   65 type  1   force =    -0.03256048    0.02315545    0.09357232
     atom   66 type  1   force =    -0.07737137    0.04162448   -0.00977161
     atom   67 type  1   force =    -0.11814916   -0.05992917    0.01215828
     atom   68 type  1   force =     0.00888132   -0.90032188    0.66125379
     atom   69 type  1   force =    -0.28225137    0.02368980   -0.09310236
     atom   70 type  1   force =     0.04565231   -0.05279219    0.28859930
     atom   71 type  1   force =    -0.60374842    0.78989271    0.51125510
     atom   72 type  1   force =    -0.16535835    0.20170651    0.05903154
     atom   73 type  1   force =     0.02907266   -0.00645278    0.01261692
     atom   74 type  1   force =    -0.00687253    0.02406424   -0.01926618
     atom   75 type  1   force =    -0.01206049    0.01915474   -0.01718125
     atom   76 type  1   force =     0.04687949   -0.05198612   -0.02267290
     atom   77 type  1   force =     0.00707506   -0.08550481   -0.05466570
     atom   78 type  1   force =    -0.06367078    0.00387309   -0.06119474
     atom   79 type  1   force =     0.04884810   -0.02259796    0.05907224
     atom   80 type  1   force =     0.05775282    0.05720859    0.00651909
     atom   81 type  1   force =    -0.00913777    0.07408581   -0.04784394
     atom   82 type  1   force =     0.06561677   -0.10237153   -0.04077678
     atom   83 type  1   force =    -0.03236597   -0.01541170   -0.16800460
     atom   84 type  1   force =    -0.01652601   -0.01876068   -0.07957931
     atom   85 type  1   force =     0.16590998    0.03270081    0.03027096
     atom   86 type  1   force =     0.30233851   -0.02893833   -0.29531327
     atom   87 type  1   force =    -0.01601015    0.00973938   -0.20131156
     atom   88 type  1   force =     0.08125120    0.00495963    0.01819883
     atom   89 type  1   force =     0.19280207    0.06039907    0.00750016
     atom   90 type  1   force =     0.04687080    0.12150953   -0.07635979
     atom   91 type  1   force =    -0.03952480   -0.11177670    0.06664676
     atom   92 type  1   force =    -0.10449672   -0.23013614   -0.01042167
     atom   93 type  1   force =    -0.01844265   -0.02167183   -0.16949553
     atom   94 type  1   force =     0.06138146   -0.18988511    0.15545684
     atom   95 type  1   force =    -0.26717493    0.22700462   -0.23791309
     atom   96 type  1   force =     0.16922843    0.02386047    0.01817408
     atom   97 type  1   force =     0.16996449    0.33306631    0.19922735
     atom   98 type  1   force =    -0.07925272    0.18276620    0.03490070
     atom   99 type  1   force =    -0.00497731   -0.01283003    0.00809215
     atom  100 type  1   force =    -0.04618927   -0.10889631    0.06737036
     atom  101 type  1   force =    -0.12550378   -0.01653818   -0.02151787
     atom  102 type  1   force =    -0.04109605   -0.10765832    0.07246394
     atom  103 type  1   force =    -0.15479653   -0.09285080    0.17733077
     atom  104 type  1   force =    -0.07868758    0.14262252    0.05493465
     atom  105 type  1   force =     0.02120997    0.01905654    0.12519618
     atom  106 type  1   force =    -0.08923049    0.14005797    0.04439158
     atom  107 type  1   force =    -0.04620662    0.06231589    0.03108181
     atom  108 type  1   force =     0.00688704   -0.04368191    0.00370943
     atom  109 type  1   force =     0.03566763   -0.07590856   -0.15030488
     atom  110 type  1   force =    -0.00091445    0.01018577   -0.05473798
     atom  111 type  1   force =     0.16492032   -0.04454098   -0.02105316
     atom  112 type  1   force =     0.59544479   -0.31169675   -0.51980934
     atom  113 type  1   force =    -0.03328439    0.00149022   -0.33647708
     atom  114 type  1   force =     0.05074274    0.02271928   -0.00307979
     atom  115 type  1   force =     0.32555524    0.08855307    0.02236119
     atom  116 type  1   force =     0.08799580    0.22782379   -0.14327904
     atom  117 type  1   force =     0.00302078   -0.02736177    0.00361569
     atom  118 type  1   force =    -0.02744075   -0.08333632    0.09821075
     atom  119 type  1   force =    -0.10441546   -0.01291781   -0.13623136
     atom  120 type  1   force =    -0.07654360   -0.09524544    0.04910853
     atom  121 type  1   force =    -0.70463277    0.27272056   -0.38856091
     atom  122 type  1   force =     0.13239301    0.04454081    0.10057580
     atom  123 type  1   force =     0.29302138    0.51478630    0.60909443
     atom  124 type  1   force =    -0.14216604    0.29891719    0.06963276
     atom  125 type  1   force =     0.00205442    0.00525844   -0.00333191
     atom  126 type  1   force =    -0.02160023   -0.01635393    0.00618402
     atom  127 type  1   force =    -0.03622657   -0.02435417    0.00804641
     atom  128 type  1   force =    -0.00276985   -0.01177967    0.02501486
     atom  129 type  1   force =    -0.01267906   -0.12403157    0.04278025
     atom  130 type  1   force =    -0.14373503    0.09425687    0.01019643
     atom  131 type  1   force =    -0.00311472   -0.01632044    0.04115860
     atom  132 type  1   force =    -0.03623015    0.12033583    0.11770124
     atom  133 type  1   force =    -0.01664869    0.05309457    0.00376339
     atom  134 type  1   force =    -0.02832372   -0.12967833    0.01412739
     atom  135 type  1   force =    -0.21113450   -0.63099208   -0.20369691
     atom  136 type  1   force =    -0.13557739   -0.07359698   -0.24728434
     atom  137 type  1   force =     0.13164442   -0.00822474    0.04120543
     atom  138 type  1   force =     3.36544000    0.25077266    0.71764165
     atom  139 type  1   force =    -0.27886222    0.62465606   -0.53213062
     atom  140 type  1   force =    -0.00042369    0.02165194    0.06534432
     atom  141 type  1   force =     0.16969192    0.08607483    0.08247978
     atom  142 type  1   force =    -0.01835030    0.19521752   -0.02410547
     atom  143 type  1   force =    -0.04850871   -0.00927775   -0.00627041
     atom  144 type  1   force =     0.10132400   -0.13134448    0.12319037
     atom  145 type  1   force =    -0.21418466   -0.04811219   -0.02227176
     atom  146 type  1   force =    -0.05272577   -0.06313101    0.10517096
     atom  147 type  1   force =    -0.41424848   -0.07630852    0.55384230
     atom  148 type  1   force =    -0.22392575    0.16767152    0.08212752
     atom  149 type  1   force =     0.02113057    0.02226266    0.04528252
     atom  150 type  1   force =    -0.03120619    0.11157024    0.15284481
     atom  151 type  1   force =    -0.04678367    0.04677879    0.03199398
     atom  152 type  1   force =     0.03971875   -0.02869088   -0.02433828
     atom  153 type  1   force =     0.04972551   -0.10969426   -0.14922870
     atom  154 type  1   force =    -0.02051720   -0.02499922   -0.06593386
     atom  155 type  1   force =     0.02661285   -0.05251767   -0.03585644
     atom  156 type  1   force =     0.20292626   -0.00508620   -0.04194598
     atom  157 type  1   force =     0.02283001    0.08251145   -0.17799264
     atom  158 type  1   force =     0.02197788    0.00470014    0.00242102
     atom  159 type  1   force =     0.03103944    0.05688577   -0.03329511
     atom  160 type  1   force =     0.04439550    0.04326523   -0.01983936
     atom  161 type  1   force =     0.01603290   -0.11891972    0.05848399
     atom  162 type  1   force =    -0.03432339   -0.04849830   -0.12476180
     atom  163 type  1   force =    -0.06859600    0.00511294   -0.00282791
     atom  164 type  1   force =     0.34056521   -0.49712651    0.34800196
     atom  165 type  1   force =    -0.65998895   -0.72595708   -3.30778526
     atom  166 type  1   force =    -0.09555681    0.02172246   -0.18276943
     atom  167 type  1   force =     0.25368484    0.02084930    0.14197857
     atom  168 type  1   force =     0.36170628    0.78008071    0.10843794
     atom  169 type  1   force =    -0.02312662    0.19406034   -0.02888191
     atom  170 type  1   force =     0.00689262    0.00416043    0.04912979
     atom  171 type  1   force =    -0.08879101   -0.07188474    0.06910536
     atom  172 type  1   force =    -0.04863474    0.00533704   -0.02448239
     atom  173 type  1   force =    -0.08580852   -0.17674921   -0.06394066
     atom  174 type  1   force =    -0.53186060   -0.10484381    0.43622952
     atom  175 type  1   force =    -0.17566509    0.07652616    0.00838613
     atom  176 type  1   force =     0.02685086    0.01036812    0.21876366
     atom  177 type  1   force =    -0.12570308    0.19150050    0.18035076
     atom  178 type  1   force =    -0.04344659    0.04759015    0.03533031
     atom  179 type  1   force =     0.03154175   -0.03067899   -0.03251427
     atom  180 type  1   force =     0.04797069   -0.04733829   -0.01449905
     atom  181 type  1   force =    -0.00283474   -0.00131793   -0.02239204
     atom  182 type  1   force =     0.17224325   -0.07996506   -0.02671125
     atom  183 type  1   force =     0.04775124   -0.04273514   -0.19712041
     atom  184 type  1   force =     0.01982110    0.05417164   -0.04451333
     atom  185 type  1   force =     0.06935453   -0.00319804    0.02393803
     atom  186 type  1   force =     0.15410781    0.11436084   -0.04671573
     atom  187 type  1   force =     0.01033903    0.03500340   -0.05389493
     atom  188 type  1   force =     0.09986026   -0.18926807   -0.05393274
     atom  189 type  1   force =    -0.00757934   -0.13112661   -0.26011637
     atom  190 type  1   force =    -0.01617874   -0.02693486   -0.06643037
     atom  191 type  1   force =     0.28337228   -0.06053206    0.03083350
     atom  192 type  1   force =     0.55590114    0.24937148   -0.61640767
     atom  193 type  1   force =     0.01666982    0.08526100   -0.17741960
     atom  194 type  1   force =     0.07041620   -0.00593006    0.02016594
     atom  195 type  1   force =     0.15272574    0.11826830   -0.04136393
     atom  196 type  1   force =     0.00000289    0.06324748   -0.01535531
     atom  197 type  1   force =    -0.14247365   -0.02164880    0.14772938
     atom  198 type  1   force =    -0.36440945   -0.56211117   -0.18832800
     atom  199 type  1   force =    -0.13844935   -0.02504832   -0.13033558
     atom  200 type  1   force =     0.30501582   -0.39968191    0.48109842
     atom  201 type  1   force =    -1.88101909    2.60933905    1.24788819
     atom  202 type  1   force =    -0.14264181    0.15034241   -0.00712678
     atom  203 type  1   force =     0.12855384    0.03973108    0.13666672
     atom  204 type  1   force =    -0.03259313    0.17703956    0.10292265
     atom  205 type  1   force =     0.01647972    0.06346428   -0.03188474
     atom  206 type  1   force =     0.02362335   -0.04175036   -0.01348834
     atom  207 type  1   force =    -0.07537494   -0.10862624    0.01896845
     atom  208 type  1   force =    -0.05116410    0.01215894   -0.01517793
     atom  209 type  1   force =     0.00502426   -0.08911934    0.09936820
     atom  210 type  1   force =    -0.08481329    0.08910216    0.06319606
     atom  211 type  1   force =    -0.06220561   -0.01248315   -0.02685015
     atom  212 type  1   force =     0.01041493    0.02709352    0.04640068
     atom  213 type  1   force =     0.02724464    0.00921572    0.06259951
     atom  214 type  1   force =    -0.01032142    0.01919402    0.00565915
     atom  215 type  2   force =    -1.31189983   -3.39938724    2.13673344
     The core correction contribution to forces
     atom    1 type  1   force =    -0.00001649   -0.00002801    0.00002330
     atom    2 type  1   force =    -0.00009587   -0.00003683    0.00008358
     atom    3 type  1   force =    -0.00011938   -0.00005295    0.00008505
     atom    4 type  1   force =    -0.00007525   -0.00003185    0.00010420
     atom    5 type  1   force =    -0.00040670    0.00056766    0.00026894
     atom    6 type  1   force =    -0.00022176    0.00005726    0.00035148
     atom    7 type  1   force =    -0.00007354   -0.00004184    0.00013089
     atom    8 type  1   force =    -0.00036127    0.00002342    0.00021197
     atom    9 type  1   force =    -0.00029244   -0.00049222    0.00041188
     atom   10 type  1   force =     0.00012689   -0.00004359   -0.00011630
     atom   11 type  1   force =    -0.00010178   -0.00004916   -0.00019697
     atom   12 type  1   force =     0.00004602   -0.00014401    0.00004964
     atom   13 type  1   force =     0.00020001    0.00002404    0.00010482
     atom   14 type  1   force =     0.00236387   -0.00396573   -0.00140163
     atom   15 type  1   force =     0.00311552    0.00068941   -0.00011599
     atom   16 type  1   force =    -0.00001295   -0.00015832   -0.00000932
     atom   17 type  1   force =     0.00003926   -0.00005700   -0.00319224
     atom   18 type  1   force =    -0.00076816   -0.00209434    0.00127634
     atom   19 type  1   force =     0.00001294   -0.00003800   -0.00000370
     atom   20 type  1   force =    -0.00002801   -0.00003189   -0.00018100
     atom   21 type  1   force =    -0.00003620   -0.00003146   -0.00007937
     atom   22 type  1   force =     0.00018254    0.00001918    0.00002954
     atom   23 type  1   force =    -0.00007925    0.00007655    0.00006066
     atom   24 type  1   force =     0.00007928   -0.00010872   -0.00013744
     atom   25 type  1   force =     0.00008349   -0.00000242    0.00004032
     atom   26 type  1   force =     0.00016140   -0.00008878   -0.00005533
     atom   27 type  1   force =     0.00026318    0.00000218   -0.00026370
     atom   28 type  1   force =     0.00008655   -0.00001016    0.00002977
     atom   29 type  1   force =     0.00010610    0.00006247    0.00015177
     atom   30 type  1   force =     0.00015054    0.00031131    0.00015887
     atom   31 type  1   force =    -0.00005605   -0.00004087    0.00015097
     atom   32 type  1   force =    -0.00104063    0.00289936    0.00084610
     atom   33 type  1   force =    -0.00078761   -0.00204308    0.00134806
     atom   34 type  1   force =    -0.00003575   -0.00014453   -0.00000965
     atom   35 type  1   force =    -0.00025533   -0.00026671   -0.00018517
     atom   36 type  1   force =    -0.00025118   -0.00060455    0.00025899
     atom   37 type  1   force =     0.00017855    0.00003081    0.00004498
     atom   38 type  1   force =    -0.00003538   -0.00004297   -0.00010207
     atom   39 type  1   force =    -0.00000295    0.00011524    0.00016357
     atom   40 type  1   force =     0.00022059   -0.00003215    0.00002813
     atom   41 type  1   force =     0.00071839    0.00053057    0.00471493
     atom   42 type  1   force =     0.00296447    0.00110316    0.00044315
     atom   43 type  1   force =    -0.00004399   -0.00011670   -0.00001205
     atom   44 type  1   force =    -0.00014472   -0.00014974   -0.00071268
     atom   45 type  1   force =    -0.00007347   -0.00034815   -0.00020344
     atom   46 type  1   force =    -0.00000129    0.00000090    0.00004933
     atom   47 type  1   force =    -0.00009643    0.00015435    0.00007316
     atom   48 type  1   force =    -0.00006972    0.00005957    0.00004588
     atom   49 type  1   force =     0.00006328    0.00012856    0.00011964
     atom   50 type  1   force =    -0.00017295    0.00014484    0.00006826
     atom   51 type  1   force =     0.00002060   -0.00007587    0.00014333
     atom   52 type  1   force =    -0.00001665   -0.00002756    0.00002394
     atom   53 type  1   force =    -0.00007077   -0.00010557   -0.00000909
     atom   54 type  1   force =    -0.00009634   -0.00011719   -0.00000284
     atom   55 type  1   force =    -0.00002405   -0.00003698   -0.00008083
     atom   56 type  1   force =    -0.00013863   -0.00006089    0.00006840
     atom   57 type  1   force =     0.00004243   -0.00012556    0.00006853
     atom   58 type  1   force =    -0.00015914   -0.00000189   -0.00011346
     atom   59 type  1   force =    -0.00153506    0.00277938    0.00035167
     atom   60 type  1   force =     0.00023544   -0.00014765    0.00030561
     atom   61 type  1   force =    -0.00022339    0.00022058   -0.00021506
     atom   62 type  1   force =    -0.00085049   -0.00205832    0.00128519
     atom   63 type  1   force =    -0.00011627   -0.00057181    0.00039391
     atom   64 type  1   force =    -0.00004584   -0.00002362   -0.00017941
     atom   65 type  1   force =    -0.00001344   -0.00008891   -0.00020591
     atom   66 type  1   force =     0.00003797   -0.00009681    0.00006991
     atom   67 type  1   force =     0.00010826   -0.00000812    0.00004157
     atom   68 type  1   force =    -0.00468464   -0.00078044   -0.00068808
     atom   69 type  1   force =     0.00072345    0.00006090    0.00015549
     atom   70 type  1   force =    -0.00018614    0.00007080   -0.00001962
     atom   71 type  1   force =    -0.00060572    0.00023689   -0.00312703
     atom   72 type  1   force =     0.00027759   -0.00026298    0.00014763
     atom   73 type  1   force =    -0.00004816   -0.00001046    0.00000246
     atom   74 type  1   force =    -0.00014471    0.00007812   -0.00008835
     atom   75 type  1   force =    -0.00001722   -0.00002770    0.00002338
     atom   76 type  1   force =    -0.00011022    0.00015099    0.00005937
     atom   77 type  1   force =    -0.00010541    0.00016122    0.00013580
     atom   78 type  1   force =     0.00003169   -0.00008073    0.00009337
     atom   79 type  1   force =    -0.00006060    0.00006179    0.00005500
     atom   80 type  1   force =    -0.00012077   -0.00011016    0.00000196
     atom   81 type  1   force =     0.00002763   -0.00008712    0.00012114
     atom   82 type  1   force =    -0.00007459    0.00008458    0.00005406
     atom   83 type  1   force =    -0.00047955    0.00065608    0.00000388
     atom   84 type  1   force =     0.00001313    0.00001084    0.00014650
     atom   85 type  1   force =    -0.00017213    0.00073067    0.00031130
     atom   86 type  1   force =    -0.00056438    0.00008610    0.00054347
     atom   87 type  1   force =    -0.00023539   -0.00055380    0.00019891
     atom   88 type  1   force =    -0.00014449   -0.00002739   -0.00001112
     atom   89 type  1   force =    -0.00006942   -0.00051350    0.00036488
     atom   90 type  1   force =    -0.00007471   -0.00017893    0.00011813
     atom   91 type  1   force =     0.00007378   -0.00003885   -0.00006436
     atom   92 type  1   force =     0.00016105    0.00035794    0.00006570
     atom   93 type  1   force =     0.00079398    0.00008703   -0.00012401
     atom   94 type  1   force =    -0.00014359    0.00028401   -0.00023894
     atom   95 type  1   force =     0.00051118   -0.00039822    0.00043426
     atom   96 type  1   force =     0.00012266   -0.00007584   -0.00079534
     atom   97 type  1   force =    -0.00031337   -0.00059827   -0.00039029
     atom   98 type  1   force =    -0.00028409   -0.00041721    0.00038534
     atom   99 type  1   force =     0.00000869    0.00003767   -0.00001783
     atom  100 type  1   force =    -0.00009774    0.00003827   -0.00004686
     atom  101 type  1   force =     0.00010963    0.00000146    0.00003539
     atom  102 type  1   force =     0.00003370    0.00007016    0.00008457
     atom  103 type  1   force =     0.00025410    0.00010465   -0.00027950
     atom  104 type  1   force =     0.00070103    0.00033893    0.00022357
     atom  105 type  1   force =    -0.00003159   -0.00003279   -0.00010582
     atom  106 type  1   force =    -0.00027702    0.00010163   -0.00075447
     atom  107 type  1   force =     0.00006078   -0.00011944   -0.00003178
     atom  108 type  1   force =    -0.00013458    0.00015291    0.00009748
     atom  109 type  1   force =    -0.00021506    0.00028344   -0.00011511
     atom  110 type  1   force =    -0.00004712   -0.00007401    0.00026209
     atom  111 type  1   force =     0.00003886    0.00034503    0.00013881
     atom  112 type  1   force =    -0.00084016    0.00051332    0.00071560
     atom  113 type  1   force =     0.00047429    0.00092211    0.00094866
     atom  114 type  1   force =    -0.00023849   -0.00012044    0.00007073
     atom  115 type  1   force =    -0.00112531    0.00053400   -0.00065095
     atom  116 type  1   force =    -0.00021314   -0.00046076    0.00032495
     atom  117 type  1   force =     0.00004233   -0.00003177   -0.00003461
     atom  118 type  1   force =    -0.00002988    0.00007298   -0.00021870
     atom  119 type  1   force =     0.00026417    0.00006770   -0.00016361
     atom  120 type  1   force =     0.00019439    0.00012738    0.00000557
     atom  121 type  1   force =     0.00098826   -0.00030835    0.00053261
     atom  122 type  1   force =     0.00015054    0.00004013   -0.00027724
     atom  123 type  1   force =    -0.00041644   -0.00064917   -0.00087209
     atom  124 type  1   force =     0.00095594   -0.00040533   -0.00085758
     atom  125 type  1   force =    -0.00003900   -0.00000584    0.00004043
     atom  126 type  1   force =    -0.00012370    0.00004313   -0.00001841
     atom  127 type  1   force =     0.00015010    0.00002475    0.00006843
     atom  128 type  1   force =     0.00000418    0.00007414    0.00010946
     atom  129 type  1   force =    -0.00009850    0.00025937    0.00003555
     atom  130 type  1   force =     0.00018736    0.00027851    0.00012346
     atom  131 type  1   force =    -0.00006801   -0.00002816   -0.00014968
     atom  132 type  1   force =    -0.00018022    0.00018934   -0.00024412
     atom  133 type  1   force =     0.00001101   -0.00023170    0.00004522
     atom  134 type  1   force =    -0.00001917    0.00021650    0.00009655
     atom  135 type  1   force =    -0.00027580    0.00158409   -0.00050926
     atom  136 type  1   force =    -0.00087827    0.00001700    0.00110384
     atom  137 type  1   force =     0.00007774    0.00014106   -0.00003566
     atom  138 type  1   force =    -0.00463184   -0.00106576   -0.00044529
     atom  139 type  1   force =     0.00029279   -0.00107911    0.00090943
     atom  140 type  1   force =    -0.00022872    0.00000829    0.00030237
     atom  141 type  1   force =    -0.00031768   -0.00016305   -0.00014732
     atom  142 type  1   force =    -0.00010256   -0.00021968    0.00002731
     atom  143 type  1   force =     0.00007861   -0.00005501    0.00010786
     atom  144 type  1   force =    -0.00014891    0.00017921   -0.00012657
     atom  145 type  1   force =     0.00053052    0.00021727    0.00002799
     atom  146 type  1   force =     0.00005203    0.00002190   -0.00016886
     atom  147 type  1   force =    -0.00004778    0.00095709   -0.00137469
     atom  148 type  1   force =    -0.00043096   -0.00117632   -0.00053167
     atom  149 type  1   force =    -0.00002440   -0.00005906   -0.00017938
     atom  150 type  1   force =    -0.00010988   -0.00007790   -0.00017335
     atom  151 type  1   force =     0.00022147   -0.00019551   -0.00006896
     atom  152 type  1   force =    -0.00011211    0.00018053    0.00014726
     atom  153 type  1   force =    -0.00019210    0.00014802    0.00013504
     atom  154 type  1   force =     0.00011592    0.00009435    0.00032703
     atom  155 type  1   force =    -0.00011896   -0.00028741   -0.00010057
     atom  156 type  1   force =    -0.00039446    0.00004524    0.00013727
     atom  157 type  1   force =    -0.00015313   -0.00008057    0.00021708
     atom  158 type  1   force =    -0.00012736   -0.00000847    0.00001879
     atom  159 type  1   force =    -0.00025456    0.00021718   -0.00018127
     atom  160 type  1   force =    -0.00009560   -0.00017795    0.00015084
     atom  161 type  1   force =    -0.00014537    0.00018589   -0.00002965
     atom  162 type  1   force =     0.00000361    0.00012308   -0.00010979
     atom  163 type  1   force =    -0.00030220   -0.00000955    0.00022889
     atom  164 type  1   force =     0.00011343    0.00167852   -0.00012004
     atom  165 type  1   force =     0.00055130    0.00019187    0.00473792
     atom  166 type  1   force =     0.00017246   -0.00004414    0.00034281
     atom  167 type  1   force =    -0.00110140   -0.00003712    0.00088071
     atom  168 type  1   force =    -0.00062070   -0.00130075   -0.00000406
     atom  169 type  1   force =     0.00002233   -0.00018938    0.00015220
     atom  170 type  1   force =    -0.00008957   -0.00009581   -0.00006031
     atom  171 type  1   force =     0.00016036    0.00004819   -0.00006053
     atom  172 type  1   force =     0.00018748   -0.00000765    0.00003250
     atom  173 type  1   force =     0.00007644    0.00023390    0.00009878
     atom  174 type  1   force =     0.00110842    0.00123763   -0.00021849
     atom  175 type  1   force =     0.00018362   -0.00000671    0.00012014
     atom  176 type  1   force =    -0.00006323    0.00007321   -0.00056576
     atom  177 type  1   force =     0.00078141   -0.00088214    0.00068070
     atom  178 type  1   force =     0.00011942   -0.00022028   -0.00017101
     atom  179 type  1   force =    -0.00018881    0.00016194    0.00007056
     atom  180 type  1   force =     0.00016203   -0.00021922    0.00018042
     atom  181 type  1   force =    -0.00001989    0.00001760    0.00012627
     atom  182 type  1   force =    -0.00017158    0.00015300    0.00015556
     atom  183 type  1   force =    -0.00015530    0.00010326    0.00037643
     atom  184 type  1   force =     0.00011762    0.00030746    0.00019091
     atom  185 type  1   force =    -0.00033661   -0.00001544   -0.00012550
     atom  186 type  1   force =    -0.00019626   -0.00009102    0.00017395
     atom  187 type  1   force =    -0.00010730   -0.00018079    0.00013914
     atom  188 type  1   force =    -0.00024371    0.00056576    0.00010643
     atom  189 type  1   force =     0.00071558   -0.00070425    0.00093396
     atom  190 type  1   force =    -0.00001767    0.00015448    0.00034098
     atom  191 type  1   force =    -0.00072080   -0.00105277   -0.00050244
     atom  192 type  1   force =    -0.00089730   -0.00054298    0.00102906
     atom  193 type  1   force =     0.00000933   -0.00015391    0.00020104
     atom  194 type  1   force =    -0.00036815    0.00006946   -0.00000949
     atom  195 type  1   force =    -0.00015874   -0.00019468    0.00003297
     atom  196 type  1   force =    -0.00011107   -0.00017118    0.00015263
     atom  197 type  1   force =     0.00014471    0.00004621   -0.00015594
     atom  198 type  1   force =     0.00122572    0.00091454   -0.00065816
     atom  199 type  1   force =     0.00019022   -0.00002423    0.00009652
     atom  200 type  1   force =     0.00045882    0.00072848   -0.00142505
     atom  201 type  1   force =     0.00213438   -0.00413661   -0.00113068
     atom  202 type  1   force =     0.00024479   -0.00024207    0.00007240
     atom  203 type  1   force =    -0.00008261   -0.00009041   -0.00017631
     atom  204 type  1   force =    -0.00000627   -0.00030298   -0.00017866
     atom  205 type  1   force =     0.00022941   -0.00000097   -0.00022915
     atom  206 type  1   force =    -0.00014032    0.00004378    0.00012968
     atom  207 type  1   force =     0.00012233    0.00015284    0.00008188
     atom  208 type  1   force =     0.00016436    0.00005596    0.00011918
     atom  209 type  1   force =    -0.00011208    0.00009597   -0.00015252
     atom  210 type  1   force =    -0.00001971    0.00018541   -0.00002528
     atom  211 type  1   force =    -0.00021580   -0.00024248   -0.00009009
     atom  212 type  1   force =    -0.00012426   -0.00001405   -0.00016944
     atom  213 type  1   force =     0.00013850   -0.00015649    0.00026421
     atom  214 type  1   force =     0.00001284   -0.00007174    0.00000459
     atom  215 type  2   force =     0.00560301    0.01451036   -0.00912392
     The Hubbard contrib.    to forces
     atom    1 type  1   force =     0.00000000    0.00000000    0.00000000
     atom    2 type  1   force =     0.00000000    0.00000000    0.00000000
     atom    3 type  1   force =     0.00000000    0.00000000    0.00000000
     atom    4 type  1   force =     0.00000000    0.00000000    0.00000000
     atom    5 type  1   force =     0.00000000    0.00000000    0.00000000
     atom    6 type  1   force =     0.00000000    0.00000000    0.00000000
     atom    7 type  1   force =     0.00000000    0.00000000    0.00000000
     atom    8 type  1   force =     0.00000000    0.00000000    0.00000000
     atom    9 type  1   force =     0.00000000    0.00000000    0.00000000
     atom   10 type  1   force =     0.00000000    0.00000000    0.00000000
     atom   11 type  1   force =     0.00000000    0.00000000    0.00000000
     atom   12 type  1   force =     0.00000000    0.00000000    0.00000000
     atom   13 type  1   force =     0.00000000    0.00000000    0.00000000
     atom   14 type  1   force =     0.00000000    0.00000000    0.00000000
     atom   15 type  1   force =     0.00000000    0.00000000    0.00000000
     atom   16 type  1   force =     0.00000000    0.00000000    0.00000000
     atom   17 type  1   force =     0.00000000    0.00000000    0.00000000
     atom   18 type  1   force =     0.00000000    0.00000000    0.00000000
     atom   19 type  1   force =     0.00000000    0.00000000    0.00000000
     atom   20 type  1   force =     0.00000000    0.00000000    0.00000000
     atom   21 type  1   force =     0.00000000    0.00000000    0.00000000
     atom   22 type  1   force =     0.00000000    0.00000000    0.00000000
     atom   23 type  1   force =     0.00000000    0.00000000    0.00000000
     atom   24 type  1   force =     0.00000000    0.00000000    0.00000000
     atom   25 type  1   force =     0.00000000    0.00000000    0.00000000
     atom   26 type  1   force =     0.00000000    0.00000000    0.00000000
     atom   27 type  1   force =     0.00000000    0.00000000    0.00000000
     atom   28 type  1   force =     0.00000000    0.00000000    0.00000000
     atom   29 type  1   force =     0.00000000    0.00000000    0.00000000
     atom   30 type  1   force =     0.00000000    0.00000000    0.00000000
     atom   31 type  1   force =     0.00000000    0.00000000    0.00000000
     atom   32 type  1   force =     0.00000000    0.00000000    0.00000000
     atom   33 type  1   force =     0.00000000    0.00000000    0.00000000
     atom   34 type  1   force =     0.00000000    0.00000000    0.00000000
     atom   35 type  1   force =     0.00000000    0.00000000    0.00000000
     atom   36 type  1   force =     0.00000000    0.00000000    0.00000000
     atom   37 type  1   force =     0.00000000    0.00000000    0.00000000
     atom   38 type  1   force =     0.00000000    0.00000000    0.00000000
     atom   39 type  1   force =     0.00000000    0.00000000    0.00000000
     atom   40 type  1   force =     0.00000000    0.00000000    0.00000000
     atom   41 type  1   force =     0.00000000    0.00000000    0.00000000
     atom   42 type  1   force =     0.00000000    0.00000000    0.00000000
     atom   43 type  1   force =     0.00000000    0.00000000    0.00000000
     atom   44 type  1   force =     0.00000000    0.00000000    0.00000000
     atom   45 type  1   force =     0.00000000    0.00000000    0.00000000
     atom   46 type  1   force =     0.00000000    0.00000000    0.00000000
     atom   47 type  1   force =     0.00000000    0.00000000    0.00000000
     atom   48 type  1   force =     0.00000000    0.00000000    0.00000000
     atom   49 type  1   force =     0.00000000    0.00000000    0.00000000
     atom   50 type  1   force =     0.00000000    0.00000000    0.00000000
     atom   51 type  1   force =     0.00000000    0.00000000    0.00000000
     atom   52 type  1   force =     0.00000000    0.00000000    0.00000000
     atom   53 type  1   force =     0.00000000    0.00000000    0.00000000
     atom   54 type  1   force =     0.00000000    0.00000000    0.00000000
     atom   55 type  1   force =     0.00000000    0.00000000    0.00000000
     atom   56 type  1   force =     0.00000000    0.00000000    0.00000000
     atom   57 type  1   force =     0.00000000    0.00000000    0.00000000
     atom   58 type  1   force =     0.00000000    0.00000000    0.00000000
     atom   59 type  1   force =     0.00000000    0.00000000    0.00000000
     atom   60 type  1   force =     0.00000000    0.00000000    0.00000000
     atom   61 type  1   force =     0.00000000    0.00000000    0.00000000
     atom   62 type  1   force =     0.00000000    0.00000000    0.00000000
     atom   63 type  1   force =     0.00000000    0.00000000    0.00000000
     atom   64 type  1   force =     0.00000000    0.00000000    0.00000000
     atom   65 type  1   force =     0.00000000    0.00000000    0.00000000
     atom   66 type  1   force =     0.00000000    0.00000000    0.00000000
     atom   67 type  1   force =     0.00000000    0.00000000    0.00000000
     atom   68 type  1   force =     0.00000000    0.00000000    0.00000000
     atom   69 type  1   force =     0.00000000    0.00000000    0.00000000
     atom   70 type  1   force =     0.00000000    0.00000000    0.00000000
     atom   71 type  1   force =     0.00000000    0.00000000    0.00000000
     atom   72 type  1   force =     0.00000000    0.00000000    0.00000000
     atom   73 type  1   force =     0.00000000    0.00000000    0.00000000
     atom   74 type  1   force =     0.00000000    0.00000000    0.00000000
     atom   75 type  1   force =     0.00000000    0.00000000    0.00000000
     atom   76 type  1   force =     0.00000000    0.00000000    0.00000000
     atom   77 type  1   force =     0.00000000    0.00000000    0.00000000
     atom   78 type  1   force =     0.00000000    0.00000000    0.00000000
     atom   79 type  1   force =     0.00000000    0.00000000    0.00000000
     atom   80 type  1   force =     0.00000000    0.00000000    0.00000000
     atom   81 type  1   force =     0.00000000    0.00000000    0.00000000
     atom   82 type  1   force =     0.00000000    0.00000000    0.00000000
     atom   83 type  1   force =     0.00000000    0.00000000    0.00000000
     atom   84 type  1   force =     0.00000000    0.00000000    0.00000000
     atom   85 type  1   force =     0.00000000    0.00000000    0.00000000
     atom   86 type  1   force =     0.00000000    0.00000000    0.00000000
     atom   87 type  1   force =     0.00000000    0.00000000    0.00000000
     atom   88 type  1   force =     0.00000000    0.00000000    0.00000000
     atom   89 type  1   force =     0.00000000    0.00000000    0.00000000
     atom   90 type  1   force =     0.00000000    0.00000000    0.00000000
     atom   91 type  1   force =     0.00000000    0.00000000    0.00000000
     atom   92 type  1   force =     0.00000000    0.00000000    0.00000000
     atom   93 type  1   force =     0.00000000    0.00000000    0.00000000
     atom   94 type  1   force =     0.00000000    0.00000000    0.00000000
     atom   95 type  1   force =     0.00000000    0.00000000    0.00000000
     atom   96 type  1   force =     0.00000000    0.00000000    0.00000000
     atom   97 type  1   force =     0.00000000    0.00000000    0.00000000
     atom   98 type  1   force =     0.00000000    0.00000000    0.00000000
     atom   99 type  1   force =     0.00000000    0.00000000    0.00000000
     atom  100 type  1   force =     0.00000000    0.00000000    0.00000000
     atom  101 type  1   force =     0.00000000    0.00000000    0.00000000
     atom  102 type  1   force =     0.00000000    0.00000000    0.00000000
     atom  103 type  1   force =     0.00000000    0.00000000    0.00000000
     atom  104 type  1   force =     0.00000000    0.00000000    0.00000000
     atom  105 type  1   force =     0.00000000    0.00000000    0.00000000
     atom  106 type  1   force =     0.00000000    0.00000000    0.00000000
     atom  107 type  1   force =     0.00000000    0.00000000    0.00000000
     atom  108 type  1   force =     0.00000000    0.00000000    0.00000000
     atom  109 type  1   force =     0.00000000    0.00000000    0.00000000
     atom  110 type  1   force =     0.00000000    0.00000000    0.00000000
     atom  111 type  1   force =     0.00000000    0.00000000    0.00000000
     atom  112 type  1   force =     0.00000000    0.00000000    0.00000000
     atom  113 type  1   force =     0.00000000    0.00000000    0.00000000
     atom  114 type  1   force =     0.00000000    0.00000000    0.00000000
     atom  115 type  1   force =     0.00000000    0.00000000    0.00000000
     atom  116 type  1   force =     0.00000000    0.00000000    0.00000000
     atom  117 type  1   force =     0.00000000    0.00000000    0.00000000
     atom  118 type  1   force =     0.00000000    0.00000000    0.00000000
     atom  119 type  1   force =     0.00000000    0.00000000    0.00000000
     atom  120 type  1   force =     0.00000000    0.00000000    0.00000000
     atom  121 type  1   force =     0.00000000    0.00000000    0.00000000
     atom  122 type  1   force =     0.00000000    0.00000000    0.00000000
     atom  123 type  1   force =     0.00000000    0.00000000    0.00000000
     atom  124 type  1   force =     0.00000000    0.00000000    0.00000000
     atom  125 type  1   force =     0.00000000    0.00000000    0.00000000
     atom  126 type  1   force =     0.00000000    0.00000000    0.00000000
     atom  127 type  1   force =     0.00000000    0.00000000    0.00000000
     atom  128 type  1   force =     0.00000000    0.00000000    0.00000000
     atom  129 type  1   force =     0.00000000    0.00000000    0.00000000
     atom  130 type  1   force =     0.00000000    0.00000000    0.00000000
     atom  131 type  1   force =     0.00000000    0.00000000    0.00000000
     atom  132 type  1   force =     0.00000000    0.00000000    0.00000000
     atom  133 type  1   force =     0.00000000    0.00000000    0.00000000
     atom  134 type  1   force =     0.00000000    0.00000000    0.00000000
     atom  135 type  1   force =     0.00000000    0.00000000    0.00000000
     atom  136 type  1   force =     0.00000000    0.00000000    0.00000000
     atom  137 type  1   force =     0.00000000    0.00000000    0.00000000
     atom  138 type  1   force =     0.00000000    0.00000000    0.00000000
     atom  139 type  1   force =     0.00000000    0.00000000    0.00000000
     atom  140 type  1   force =     0.00000000    0.00000000    0.00000000
     atom  141 type  1   force =     0.00000000    0.00000000    0.00000000
     atom  142 type  1   force =     0.00000000    0.00000000    0.00000000
     atom  143 type  1   force =     0.00000000    0.00000000    0.00000000
     atom  144 type  1   force =     0.00000000    0.00000000    0.00000000
     atom  145 type  1   force =     0.00000000    0.00000000    0.00000000
     atom  146 type  1   force =     0.00000000    0.00000000    0.00000000
     atom  147 type  1   force =     0.00000000    0.00000000    0.00000000
     atom  148 type  1   force =     0.00000000    0.00000000    0.00000000
     atom  149 type  1   force =     0.00000000    0.00000000    0.00000000
     atom  150 type  1   force =     0.00000000    0.00000000    0.00000000
     atom  151 type  1   force =     0.00000000    0.00000000    0.00000000
     atom  152 type  1   force =     0.00000000    0.00000000    0.00000000
     atom  153 type  1   force =     0.00000000    0.00000000    0.00000000
     atom  154 type  1   force =     0.00000000    0.00000000    0.00000000
     atom  155 type  1   force =     0.00000000    0.00000000    0.00000000
     atom  156 type  1   force =     0.00000000    0.00000000    0.00000000
     atom  157 type  1   force =     0.00000000    0.00000000    0.00000000
     atom  158 type  1   force =     0.00000000    0.00000000    0.00000000
     atom  159 type  1   force =     0.00000000    0.00000000    0.00000000
     atom  160 type  1   force =     0.00000000    0.00000000    0.00000000
     atom  161 type  1   force =     0.00000000    0.00000000    0.00000000
     atom  162 type  1   force =     0.00000000    0.00000000    0.00000000
     atom  163 type  1   force =     0.00000000    0.00000000    0.00000000
     atom  164 type  1   force =     0.00000000    0.00000000    0.00000000
     atom  165 type  1   force =     0.00000000    0.00000000    0.00000000
     atom  166 type  1   force =     0.00000000    0.00000000    0.00000000
     atom  167 type  1   force =     0.00000000    0.00000000    0.00000000
     atom  168 type  1   force =     0.00000000    0.00000000    0.00000000
     atom  169 type  1   force =     0.00000000    0.00000000    0.00000000
     atom  170 type  1   force =     0.00000000    0.00000000    0.00000000
     atom  171 type  1   force =     0.00000000    0.00000000    0.00000000
     atom  172 type  1   force =     0.00000000    0.00000000    0.00000000
     atom  173 type  1   force =     0.00000000    0.00000000    0.00000000
     atom  174 type  1   force =     0.00000000    0.00000000    0.00000000
     atom  175 type  1   force =     0.00000000    0.00000000    0.00000000
     atom  176 type  1   force =     0.00000000    0.00000000    0.00000000
     atom  177 type  1   force =     0.00000000    0.00000000    0.00000000
     atom  178 type  1   force =     0.00000000    0.00000000    0.00000000
     atom  179 type  1   force =     0.00000000    0.00000000    0.00000000
     atom  180 type  1   force =     0.00000000    0.00000000    0.00000000
     atom  181 type  1   force =     0.00000000    0.00000000    0.00000000
     atom  182 type  1   force =     0.00000000    0.00000000    0.00000000
     atom  183 type  1   force =     0.00000000    0.00000000    0.00000000
     atom  184 type  1   force =     0.00000000    0.00000000    0.00000000
     atom  185 type  1   force =     0.00000000    0.00000000    0.00000000
     atom  186 type  1   force =     0.00000000    0.00000000    0.00000000
     atom  187 type  1   force =     0.00000000    0.00000000    0.00000000
     atom  188 type  1   force =     0.00000000    0.00000000    0.00000000
     atom  189 type  1   force =     0.00000000    0.00000000    0.00000000
     atom  190 type  1   force =     0.00000000    0.00000000    0.00000000
     atom  191 type  1   force =     0.00000000    0.00000000    0.00000000
     atom  192 type  1   force =     0.00000000    0.00000000    0.00000000
     atom  193 type  1   force =     0.00000000    0.00000000    0.00000000
     atom  194 type  1   force =     0.00000000    0.00000000    0.00000000
     atom  195 type  1   force =     0.00000000    0.00000000    0.00000000
     atom  196 type  1   force =     0.00000000    0.00000000    0.00000000
     atom  197 type  1   force =     0.00000000    0.00000000    0.00000000
     atom  198 type  1   force =     0.00000000    0.00000000    0.00000000
     atom  199 type  1   force =     0.00000000    0.00000000    0.00000000
     atom  200 type  1   force =     0.00000000    0.00000000    0.00000000
     atom  201 type  1   force =     0.00000000    0.00000000    0.00000000
     atom  202 type  1   force =     0.00000000    0.00000000    0.00000000
     atom  203 type  1   force =     0.00000000    0.00000000    0.00000000
     atom  204 type  1   force =     0.00000000    0.00000000    0.00000000
     atom  205 type  1   force =     0.00000000    0.00000000    0.00000000
     atom  206 type  1   force =     0.00000000    0.00000000    0.00000000
     atom  207 type  1   force =     0.00000000    0.00000000    0.00000000
     atom  208 type  1   force =     0.00000000    0.00000000    0.00000000
     atom  209 type  1   force =     0.00000000    0.00000000    0.00000000
     atom  210 type  1   force =     0.00000000    0.00000000    0.00000000
     atom  211 type  1   force =     0.00000000    0.00000000    0.00000000
     atom  212 type  1   force =     0.00000000    0.00000000    0.00000000
     atom  213 type  1   force =     0.00000000    0.00000000    0.00000000
     atom  214 type  1   force =     0.00000000    0.00000000    0.00000000
     atom  215 type  2   force =     0.00000000    0.00000000    0.00000000
     The SCF correction term to forces
     atom    1 type  1   force =    -0.00000062   -0.00000397    0.00000781
     atom    2 type  1   force =    -0.00001376    0.00000672    0.00000380
     atom    3 type  1   force =    -0.00000599   -0.00000186    0.00000999
     atom    4 type  1   force =    -0.00000617   -0.00000019    0.00001278
     atom    5 type  1   force =    -0.00001148    0.00001181    0.00000162
     atom    6 type  1   force =    -0.00000220   -0.00000287    0.00001456
     atom    7 type  1   force =    -0.00000537   -0.00000514    0.00000972
     atom    8 type  1   force =    -0.00001780   -0.00000035   -0.00000011
     atom    9 type  1   force =    -0.00000912   -0.00000386    0.00001140
     atom   10 type  1   force =     0.00000959   -0.00000045   -0.00000307
     atom   11 type  1   force =    -0.00000389    0.00000157   -0.00001078
     atom   12 type  1   force =     0.00000813   -0.00000455   -0.00000390
     atom   13 type  1   force =     0.00001052   -0.00000399    0.00000321
     atom   14 type  1   force =     0.00000563    0.00000399   -0.00001269
     atom   15 type  1   force =     0.00000532    0.00000461   -0.00000417
     atom   16 type  1   force =     0.00000797   -0.00000818   -0.00000322
     atom   17 type  1   force =    -0.00000070    0.00000842   -0.00001153
     atom   18 type  1   force =     0.00000820   -0.00000545   -0.00000542
     atom   19 type  1   force =     0.00000117   -0.00000327    0.00000509
     atom   20 type  1   force =    -0.00000096    0.00000487   -0.00001194
     atom   21 type  1   force =     0.00000461   -0.00000295    0.00000097
     atom   22 type  1   force =     0.00001184   -0.00000142    0.00000003
     atom   23 type  1   force =    -0.00000535    0.00000752   -0.00000430
     atom   24 type  1   force =     0.00000481    0.00000144   -0.00000026
     atom   25 type  1   force =     0.00000403   -0.00000668    0.00000021
     atom   26 type  1   force =    -0.00000298    0.00000507   -0.00000827
     atom   27 type  1   force =     0.00000422   -0.00000496   -0.00000300
     atom   28 type  1   force =     0.00000542    0.00000168    0.00000758
     atom   29 type  1   force =    -0.00000151    0.00001202   -0.00000442
     atom   30 type  1   force =     0.00000615    0.00000378    0.00000410
     atom   31 type  1   force =     0.00000389   -0.00000300    0.00000513
     atom   32 type  1   force =    -0.00000198    0.00000740   -0.00000975
     atom   33 type  1   force =     0.00000409    0.00000102    0.00000403
     atom   34 type  1   force =     0.00000163   -0.00001044   -0.00000027
     atom   35 type  1   force =    -0.00001344   -0.00000070   -0.00000766
     atom   36 type  1   force =    -0.00000133   -0.00001042   -0.00000258
     atom   37 type  1   force =     0.00001358    0.00000482    0.00000214
     atom   38 type  1   force =     0.00000039    0.00000646   -0.00000835
     atom   39 type  1   force =     0.00000886    0.00000529   -0.00000079
     atom   40 type  1   force =     0.00001039   -0.00000745    0.00000083
     atom   41 type  1   force =     0.00000152    0.00000949   -0.00000482
     atom   42 type  1   force =     0.00000568    0.00000167   -0.00000592
     atom   43 type  1   force =     0.00000235   -0.00000938   -0.00000520
     atom   44 type  1   force =    -0.00000265    0.00000254   -0.00001504
     atom   45 type  1   force =     0.00000712   -0.00001240   -0.00000474
     atom   46 type  1   force =    -0.00000142   -0.00000425    0.00000811
     atom   47 type  1   force =    -0.00000783    0.00001489    0.00000302
     atom   48 type  1   force =    -0.00000005    0.00000200    0.00001152
     atom   49 type  1   force =     0.00000032    0.00000139    0.00000812
     atom   50 type  1   force =    -0.00001419    0.00000467    0.00000262
     atom   51 type  1   force =    -0.00000238   -0.00000223    0.00000896
     atom   52 type  1   force =    -0.00000310   -0.00000590    0.00000671
     atom   53 type  1   force =    -0.00001232   -0.00000288   -0.00000524
     atom   54 type  1   force =    -0.00000683   -0.00000749    0.00000439
     atom   55 type  1   force =    -0.00000523    0.00000406   -0.00000351
     atom   56 type  1   force =    -0.00000537    0.00000266   -0.00000474
     atom   57 type  1   force =     0.00000939   -0.00000908    0.00000769
     atom   58 type  1   force =    -0.00000180    0.00000763   -0.00000435
     atom   59 type  1   force =     0.00000277    0.00000660   -0.00000611
     atom   60 type  1   force =     0.00000699   -0.00000572    0.00001337
     atom   61 type  1   force =    -0.00000608    0.00000214   -0.00000769
     atom   62 type  1   force =    -0.00000642    0.00000237   -0.00000591
     atom   63 type  1   force =     0.00000945   -0.00001200    0.00000833
     atom   64 type  1   force =    -0.00000158    0.00000619   -0.00001228
     atom   65 type  1   force =     0.00000048   -0.00000189   -0.00000888
     atom   66 type  1   force =     0.00001364   -0.00000722    0.00000525
     atom   67 type  1   force =     0.00000397    0.00000314   -0.00000618
     atom   68 type  1   force =    -0.00000410    0.00000738   -0.00000923
     atom   69 type  1   force =     0.00001538   -0.00000263    0.00000251
     atom   70 type  1   force =    -0.00000034    0.00000430   -0.00000969
     atom   71 type  1   force =     0.00000320    0.00000530   -0.00000948
     atom   72 type  1   force =     0.00001118   -0.00001540    0.00000049
     atom   73 type  1   force =    -0.00000534    0.00000011    0.00000371
     atom   74 type  1   force =    -0.00000841    0.00000703   -0.00000026
     atom   75 type  1   force =     0.00000047   -0.00000548    0.00001097
     atom   76 type  1   force =    -0.00001114    0.00001035    0.00000068
     atom   77 type  1   force =    -0.00001005    0.00000448    0.00000630
     atom   78 type  1   force =     0.00000715   -0.00000804    0.00001387
     atom   79 type  1   force =    -0.00001135    0.00000092   -0.00000005
     atom   80 type  1   force =    -0.00001156    0.00000016    0.00000057
     atom   81 type  1   force =     0.00000196   -0.00000961    0.00001195
     atom   82 type  1   force =    -0.00000885    0.00000948    0.00000563
     atom   83 type  1   force =    -0.00000747    0.00001357    0.00000735
     atom   84 type  1   force =     0.00000247   -0.00000568    0.00001700
     atom   85 type  1   force =    -0.00001380    0.00000856    0.00000155
     atom   86 type  1   force =    -0.00001086    0.00000140    0.00000545
     atom   87 type  1   force =     0.00000126   -0.00000661    0.00002100
     atom   88 type  1   force =    -0.00001269   -0.00000356    0.00000070
     atom   89 type  1   force =    -0.00001943   -0.00000273    0.00000079
     atom   90 type  1   force =    -0.00000267   -0.00001460    0.00001356
     atom   91 type  1   force =     0.00000383    0.00000700   -0.00000600
     atom   92 type  1   force =     0.00000364    0.00000761   -0.00000834
     atom   93 type  1   force =     0.00001785    0.00000153    0.00000686
     atom   94 type  1   force =     0.00000352    0.00000446   -0.00000879
     atom   95 type  1   force =     0.00001137   -0.00000919    0.00000413
     atom   96 type  1   force =    -0.00000507    0.00000159   -0.00001456
     atom   97 type  1   force =    -0.00000183   -0.00000407   -0.00000992
     atom   98 type  1   force =     0.00001322   -0.00001790   -0.00000162
     atom   99 type  1   force =     0.00000045    0.00000764   -0.00000436
     atom  100 type  1   force =    -0.00000137    0.00000798   -0.00000265
     atom  101 type  1   force =     0.00001266   -0.00000227    0.00000812
     atom  102 type  1   force =    -0.00000138    0.00000513   -0.00000334
     atom  103 type  1   force =    -0.00000261    0.00000570   -0.00000484
     atom  104 type  1   force =     0.00001373   -0.00000717    0.00000278
     atom  105 type  1   force =    -0.00000479   -0.00000105   -0.00000952
     atom  106 type  1   force =    -0.00000053   -0.00000219   -0.00001144
     atom  107 type  1   force =     0.00000500   -0.00001315    0.00000408
     atom  108 type  1   force =    -0.00000224    0.00000491    0.00000446
     atom  109 type  1   force =    -0.00000736    0.00001130    0.00000130
     atom  110 type  1   force =     0.00000392   -0.00000361    0.00001239
     atom  111 type  1   force =    -0.00000630    0.00000437    0.00000352
     atom  112 type  1   force =    -0.00000638    0.00000749   -0.00000202
     atom  113 type  1   force =     0.00000257   -0.00000474    0.00001562
     atom  114 type  1   force =    -0.00000740   -0.00000543    0.00000013
     atom  115 type  1   force =    -0.00001726   -0.00000148   -0.00000303
     atom  116 type  1   force =    -0.00000118   -0.00001225    0.00000913
     atom  117 type  1   force =     0.00000711    0.00000726   -0.00000558
     atom  118 type  1   force =    -0.00000004    0.00000286   -0.00000885
     atom  119 type  1   force =     0.00001442   -0.00000008    0.00000308
     atom  120 type  1   force =     0.00000689   -0.00000243   -0.00000267
     atom  121 type  1   force =     0.00001085   -0.00000191   -0.00000051
     atom  122 type  1   force =    -0.00000017   -0.00000265   -0.00001001
     atom  123 type  1   force =    -0.00000083    0.00000300   -0.00001342
     atom  124 type  1   force =     0.00001113   -0.00001655   -0.00000237
     atom  125 type  1   force =    -0.00000172   -0.00000073    0.00000406
     atom  126 type  1   force =    -0.00000387    0.00001146   -0.00000363
     atom  127 type  1   force =     0.00000587   -0.00000117    0.00000850
     atom  128 type  1   force =     0.00000008    0.00000554   -0.00000003
     atom  129 type  1   force =    -0.00000920    0.00000471    0.00000019
     atom  130 type  1   force =     0.00000778   -0.00000511    0.00000618
     atom  131 type  1   force =    -0.00000405   -0.00000279   -0.00000183
     atom  132 type  1   force =    -0.00000651   -0.00000063   -0.00000789
     atom  133 type  1   force =     0.00000153   -0.00001103    0.00000453
     atom  134 type  1   force =     0.00000459    0.00000329   -0.00000003
     atom  135 type  1   force =     0.00000443    0.00000952   -0.00000943
     atom  136 type  1   force =     0.00001027    0.00000168    0.00000494
     atom  137 type  1   force =     0.00000371    0.00000059   -0.00000546
     atom  138 type  1   force =    -0.00000135    0.00000936   -0.00001157
     atom  139 type  1   force =     0.00001150   -0.00000829    0.00000471
     atom  140 type  1   force =     0.00000027   -0.00000109   -0.00000748
     atom  141 type  1   force =    -0.00000722   -0.00000269   -0.00000955
     atom  142 type  1   force =     0.00000897   -0.00001252   -0.00000098
     atom  143 type  1   force =     0.00000934    0.00000406   -0.00000292
     atom  144 type  1   force =    -0.00000187    0.00000762   -0.00000602
     atom  145 type  1   force =     0.00001151    0.00000071    0.00000247
     atom  146 type  1   force =     0.00000309   -0.00000105   -0.00000338
     atom  147 type  1   force =     0.00000080    0.00000850   -0.00000861
     atom  148 type  1   force =     0.00001093   -0.00000680   -0.00000178
     atom  149 type  1   force =    -0.00000327   -0.00000193   -0.00000645
     atom  150 type  1   force =    -0.00000031    0.00000025   -0.00001440
     atom  151 type  1   force =     0.00000894   -0.00001161    0.00000204
     atom  152 type  1   force =    -0.00001058    0.00000386    0.00000684
     atom  153 type  1   force =    -0.00001083    0.00001357    0.00000591
     atom  154 type  1   force =     0.00000217   -0.00000555    0.00001787
     atom  155 type  1   force =    -0.00000922    0.00000333    0.00000592
     atom  156 type  1   force =    -0.00001617    0.00000077    0.00000479
     atom  157 type  1   force =    -0.00000246   -0.00000558    0.00001603
     atom  158 type  1   force =    -0.00000581   -0.00000356    0.00000527
     atom  159 type  1   force =    -0.00001620    0.00000211    0.00000014
     atom  160 type  1   force =    -0.00000554   -0.00000909    0.00001148
     atom  161 type  1   force =    -0.00000177    0.00000718   -0.00000629
     atom  162 type  1   force =     0.00000437    0.00000464   -0.00000543
     atom  163 type  1   force =     0.00001364   -0.00000104    0.00000559
     atom  164 type  1   force =     0.00000167    0.00000759   -0.00001175
     atom  165 type  1   force =     0.00000530    0.00000727   -0.00000496
     atom  166 type  1   force =     0.00000987   -0.00000867    0.00000797
     atom  167 type  1   force =    -0.00000718    0.00000374   -0.00001275
     atom  168 type  1   force =    -0.00000145   -0.00000706   -0.00000847
     atom  169 type  1   force =     0.00001029   -0.00001441    0.00000066
     atom  170 type  1   force =    -0.00000021    0.00000740   -0.00001125
     atom  171 type  1   force =     0.00000358    0.00000281   -0.00000249
     atom  172 type  1   force =     0.00001193   -0.00000132    0.00000822
     atom  173 type  1   force =    -0.00000106    0.00000600   -0.00000649
     atom  174 type  1   force =     0.00000155    0.00000559   -0.00000723
     atom  175 type  1   force =     0.00001576   -0.00000579    0.00000134
     atom  176 type  1   force =    -0.00000292    0.00000347   -0.00001182
     atom  177 type  1   force =     0.00000413   -0.00000377   -0.00000950
     atom  178 type  1   force =     0.00000611   -0.00001439    0.00000011
     atom  179 type  1   force =    -0.00000932    0.00000951    0.00000698
     atom  180 type  1   force =    -0.00000689    0.00000769    0.00000862
     atom  181 type  1   force =     0.00000039   -0.00000531    0.00001207
     atom  182 type  1   force =    -0.00001543    0.00001078    0.00000184
     atom  183 type  1   force =    -0.00000932   -0.00000116    0.00001082
     atom  184 type  1   force =     0.00000060   -0.00000411    0.00001689
     atom  185 type  1   force =    -0.00001664   -0.00000323   -0.00000113
     atom  186 type  1   force =    -0.00001450   -0.00000345    0.00000495
     atom  187 type  1   force =    -0.00000282   -0.00001065    0.00001316
     atom  188 type  1   force =    -0.00000640    0.00001161   -0.00000082
     atom  189 type  1   force =     0.00000017    0.00000611    0.00000461
     atom  190 type  1   force =     0.00000186   -0.00000357    0.00001608
     atom  191 type  1   force =    -0.00001097    0.00000583   -0.00000481
     atom  192 type  1   force =    -0.00000812    0.00000109    0.00000623
     atom  193 type  1   force =     0.00000336   -0.00000722    0.00001336
     atom  194 type  1   force =    -0.00001419    0.00000125   -0.00000138
     atom  195 type  1   force =    -0.00000999   -0.00000338    0.00000026
     atom  196 type  1   force =     0.00000278   -0.00001239    0.00000816
     atom  197 type  1   force =     0.00000279    0.00000594   -0.00000827
     atom  198 type  1   force =     0.00000357    0.00000874   -0.00000674
     atom  199 type  1   force =     0.00001694    0.00000037    0.00000498
     atom  200 type  1   force =     0.00000117    0.00000932   -0.00001039
     atom  201 type  1   force =     0.00000654    0.00000418   -0.00000925
     atom  202 type  1   force =     0.00001181   -0.00001288    0.00000280
     atom  203 type  1   force =    -0.00000488    0.00000366   -0.00001562
     atom  204 type  1   force =     0.00000220   -0.00000845   -0.00000771
     atom  205 type  1   force =     0.00001125   -0.00001062   -0.00000098
     atom  206 type  1   force =    -0.00000723    0.00001226   -0.00000166
     atom  207 type  1   force =    -0.00000186    0.00000412    0.00000390
     atom  208 type  1   force =     0.00000980   -0.00000694    0.00000714
     atom  209 type  1   force =    -0.00000802    0.00000437   -0.00000257
     atom  210 type  1   force =    -0.00000288    0.00000165   -0.00000075
     atom  211 type  1   force =     0.00000724   -0.00000564    0.00000681
     atom  212 type  1   force =    -0.00000483   -0.00000150   -0.00000719
     atom  213 type  1   force =    -0.00000336   -0.00000123   -0.00000318
     atom  214 type  1   force =     0.00000108   -0.00000742    0.00000749
     atom  215 type  2   force =     0.00000164    0.00000915   -0.00001202

     Total force =     0.002290     Total SCF correction =     0.000189


     Computing stress (Cartesian axis) and pressure

          total   stress  (Ry/bohr**3)                   (kbar)     P=       28.46
   0.00019824  -0.00000504   0.00000316           29.16       -0.74        0.46
  -0.00000504   0.00018714   0.00000820           -0.74       27.53        1.21
   0.00000316   0.00000820   0.00019503            0.46        1.21       28.69

     kinetic stress (kbar)  18953.39      2.95     -1.84
                                2.95  18959.84     -4.79
                               -1.84     -4.79  18955.27

     local   stress (kbar)  -3554.52     17.66    -11.01
                               17.66  -3515.87    -28.67
                              -11.01    -28.67  -3543.28

     nonloc. stress (kbar)   4203.64     -0.13      0.08
                               -0.13   4203.36      0.22
                                0.08      0.22   4203.56

     hartree stress (kbar)   1296.55     -6.76      4.23
                               -6.76   1281.70     10.99
                                4.23     10.99   1292.24

     exc-cor stress (kbar)   -458.23      0.01     -0.01
                                0.01   -458.20     -0.02
                               -0.01     -0.02   -458.22

     corecor stress (kbar)  -4255.28     -0.07      0.04
                               -0.07  -4255.43      0.11
                                0.04      0.11  -4255.32

     ewald   stress (kbar) -16156.40    -14.41      8.96
                              -14.41 -16187.86     23.37
                                8.96     23.37 -16165.56

     hubbard stress (kbar)      0.00      0.00      0.00
                                0.00      0.00      0.00
                                0.00      0.00      0.00

     DFT-D   stress (kbar)      0.00      0.00      0.00
                                0.00      0.00      0.00
                                0.00      0.00      0.00

     XDM     stress (kbar)      0.00      0.00      0.00
                                0.00      0.00      0.00
                                0.00      0.00      0.00

     dft-nl  stress (kbar)      0.00      0.00      0.00
                                0.00      0.00      0.00
                                0.00      0.00      0.00

     TS-vdW  stress (kbar)      0.00      0.00      0.00
                                0.00      0.00      0.00
                                0.00      0.00      0.00

     MDB     stress (kbar)      0.00      0.00      0.00
                                0.00      0.00      0.00
                                0.00      0.00      0.00

     3D-RISM stress (kbar)      0.00      0.00      0.00
                                0.00      0.00      0.00
                                0.00      0.00      0.00


     Writing all to output data dir ../tmp/diamond_pd.save/ :
     XML data file, charge density, pseudopotentials, collected wavefunctions
 
     init_run     :     10.65s CPU     11.10s WALL (       1 calls)
     electrons    :    732.49s CPU    743.49s WALL (       1 calls)
     forces       :      7.86s CPU      8.00s WALL (       1 calls)
     stress       :     25.83s CPU     26.05s WALL (       1 calls)

     Called by init_run:
     wfcinit      :      9.39s CPU      9.59s WALL (       1 calls)
     wfcinit:wfcr :      9.15s CPU      9.29s WALL (       2 calls)
     potinit      :      0.90s CPU      1.09s WALL (       1 calls)
     hinit0       :      0.17s CPU      0.17s WALL (       1 calls)

     Called by electrons:
     c_bands      :    670.00s CPU    679.53s WALL (      17 calls)
     sum_band     :     45.39s CPU     46.28s WALL (      17 calls)
     v_of_rho     :      0.68s CPU      0.70s WALL (      18 calls)
     v_h          :      0.03s CPU      0.03s WALL (      18 calls)
     v_xc         :      0.72s CPU      0.74s WALL (      20 calls)
     newd         :      2.09s CPU      2.41s WALL (      18 calls)
     PAW_pot      :     14.90s CPU     15.16s WALL (      18 calls)
     mix_rho      :      0.37s CPU      0.37s WALL (      17 calls)

     Called by c_bands:
     init_us_2    :      3.77s CPU      3.83s WALL (      74 calls)
     cegterg      :    664.88s CPU    674.08s WALL (      34 calls)

     Called by sum_band:
     sum_band:wei :      0.00s CPU      0.00s WALL (      17 calls)
     sum_band:loo :     43.55s CPU     43.93s WALL (      17 calls)
     sum_band:buf :      0.65s CPU      0.65s WALL (      34 calls)
     sum_band:ini :      1.68s CPU      1.70s WALL (      34 calls)
     sum_band:cal :     29.30s CPU     29.46s WALL (      34 calls)
     sum_band:bec :      0.43s CPU      0.43s WALL (      34 calls)
     addusdens    :      1.57s CPU      1.89s WALL (      17 calls)
                                        0.00s GPU  (      17 calls)
     addusd:skk   :      0.30s CPU      0.60s WALL (      34 calls)
                                        0.00s GPU  (      34 calls)

     Called by *egterg:
     cdiaghg      :    115.98s CPU    119.33s WALL (     206 calls)
     cegterg:over :     75.67s CPU     76.13s WALL (     172 calls)
     cegterg:upda :     47.43s CPU     47.95s WALL (     172 calls)
     cegterg:last :    136.25s CPU    137.04s WALL (      78 calls)
     cdiaghg:chol :     10.88s CPU     10.93s WALL (     206 calls)
     cdiaghg:inve :      4.95s CPU      4.97s WALL (     206 calls)
     cdiaghg:para :     40.28s CPU     42.59s WALL (     412 calls)
     h_psi        :    198.90s CPU    201.56s WALL (     208 calls)
     s_psi        :     74.65s CPU     75.07s WALL (     208 calls)
     g_psi        :      0.67s CPU      0.68s WALL (     172 calls)

     Called by h_psi:
     h_psi:calbec :     73.42s CPU     73.85s WALL (     208 calls)
     vloc_psi     :     49.54s CPU     50.48s WALL (     208 calls)
     add_vuspsi   :     74.70s CPU     75.39s WALL (     208 calls)

     General routines
     calbec       :    132.15s CPU    132.91s WALL (     276 calls)
     fft          :      0.33s CPU      0.34s WALL (     420 calls)
     ffts         :      0.03s CPU      0.03s WALL (      34 calls)
     fftw         :     52.04s CPU     53.00s WALL (  173908 calls)
 
     Parallel routines

     PAW routines
     PAW_pot      :     14.90s CPU     15.16s WALL (      18 calls)
 
     PWSCF        :  12m57.65s CPU  13m20.76s WALL

 
   This run was terminated on:  15:36:45   6Aug2026            

=------------------------------------------------------------------------------=
   JOB DONE.
=------------------------------------------------------------------------------=
