C  N 
 1.0000000000000000
    10.7211360931000002    0.0000000000000000    0.0000000000000000
     0.0000000000000000   10.7211360931000002    0.0000000000000000
     0.0000000000000000    0.0000000000000000   10.7211360931000002
 C   N  
 214   1
Direct
  0.0832923069132589  0.0833284432908290  0.0833743590867387
  0.0836926544175067  0.0831116542777223  0.4167693699591409
  0.0830431550956889  0.0834487019974156  0.7499712744935705
  0.0836959127956264  0.4167046115892794  0.0829707532043713
  0.0832247978946322  0.4167267337081554  0.4167112506968688
  0.0830689180067312  0.4167182757144642  0.7499090010754899
  0.0832388370668460  0.7499367918793750  0.0834278289331516
  0.0833081005748768  0.7499708219110733  0.4167362278406355
  0.0835616005626036  0.7499576320457491  0.7499930749605420
  0.4166953925064310  0.0834487019974156  0.0836235109043086
  0.4168473123480329  0.0835704459544689  0.4169520280474969
  0.4164006094970752  0.0828854298880311  0.7502660575029262
  0.4167576659245113  0.4167182757144642  0.0835977479932664
  0.4181561702345209  0.4177154155111591  0.4179839705112025
  0.4158784028842710  0.4161003114097737  0.7507882641157246
  0.4166735920394594  0.7499576320457491  0.0831050654373940
  0.4155252106614604  0.7510286855804187  0.4168776126303994
  0.4171891611432124  0.7493205464453536  0.7494775058567890
  0.7498972970408604  0.0831116542777223  0.0829740115824909
  0.7499884202429004  0.0834173040693122  0.4166782467571007
  0.7497146389525042  0.0835704459544689  0.7498193546519680
  0.7499554163031323  0.4167267337081554  0.0834418681053654
  0.7576309660048210  0.4089868698004271  0.4090357009951802
  0.7486826964887988  0.4177154155111591  0.7485104967654805
  0.7499304391593657  0.7499708219110733  0.0833585654251207
  0.7495391993074618  0.7491845156974797  0.4171274676925396
  0.7497890543696023  0.7510286855804187  0.7511414563385413
  0.2501153689974168  0.2500287255064298  0.0836235109043086
  0.2502371129544700  0.2501806453480317  0.4169520280474969
  0.2495520968880323  0.2497339424970739  0.7502660575029262
  0.2497783212777234  0.5832306300408590  0.0829740115824909
  0.2500839710693133  0.5833217532428991  0.4166782467571007
  0.2502371129544700  0.5830479719525030  0.7498193546519680
  0.2499951102908302  0.9166256409132613  0.0833743590867387
  0.2497783212777234  0.9170259884175089  0.4167693699591409
  0.2501153689974168  0.9163764890956916  0.7499712744935705
  0.5833849417144618  0.2500909989245101  0.0835977479932664
  0.5843820815111567  0.2514895032345197  0.4179839705112025
  0.5827669774097711  0.2492117358842699  0.7507882641157246
  0.5833933997081528  0.5832887493031311  0.0834418681053654
  0.5756535358004248  0.5909642990048198  0.4090357009951802
  0.5843820815111567  0.5820160294887975  0.7485104967654805
  0.5833712775892770  0.9170292467956287  0.0829707532043713
  0.5833933997081528  0.9165581318946346  0.4167112506968688
  0.5833849417144618  0.9164022520067336  0.7499090010754899
  0.9166242990457503  0.2500069250394581  0.0831050654373940
  0.9176953525804199  0.2488585436614590  0.4168776126303994
  0.9159872134453548  0.2505224941432111  0.7494775058567890
  0.9166374889110745  0.5832637721593645  0.0833585654251207
  0.9158511826974809  0.5828725323074606  0.4171274676925396
  0.9176953525804199  0.5831223873696011  0.7511414563385413
  0.9166034588793762  0.9165721710668484  0.0834278289331516
  0.9166374889110745  0.9166414345748792  0.4167362278406355
  0.9166242990457503  0.9168949345626058  0.7499930749605420
  0.2501671656714064  0.0835004986714051  0.2501522058931984
  0.2498954221516298  0.0832287551516285  0.5834876679819694
  0.2498585432982363  0.0831918762982350  0.9168081237017651
  0.2503831586854789  0.4168526581385805  0.2503892863312490
  0.2498935331624189  0.4165945348360132  0.5834054651639867
  0.2498954221516298  0.4165123320180308  0.9167712448483717
  0.2498264609427508  0.7500713356407113  0.2499286643592888
  0.2503831586854789  0.7496107136687513  0.5831473418614140
  0.2501671656714064  0.7498477941068014  0.9164995013285949
  0.5835193241385835  0.0837164916854777  0.2503892863312490
  0.5832612008360109  0.0832268661624176  0.5834054651639867
  0.5831789980180283  0.0832287551516285  0.9167712448483717
  0.5840051024227230  0.4173384364227254  0.2510430054277860
  0.5832612008360109  0.4165945348360132  0.9167731338375823
  0.5835164848120693  0.7510184069258600  0.2489815930741401
  0.5840051024227230  0.7489569945722139  0.5826615635772746
  0.5835193241385835  0.7496107136687513  0.9162835083145222
  0.9167380026407125  0.0831597939427496  0.2499286643592888
  0.9162773806687525  0.0837164916854777  0.5831473418614140
  0.9165144611068027  0.0835004986714051  0.9164995013285949
  0.9176850739258612  0.4168498188120717  0.2489815930741401
  0.9156236615722151  0.4173384364227254  0.5826615635772746
  0.9162773806687525  0.4168526581385805  0.9162835083145222
  0.9163417023864657  0.7496750353864643  0.2503249646135358
  0.9176850739258612  0.7510184069258600  0.5831501811879283
  0.9167380026407125  0.7500713356407113  0.9168402060572505
  0.0835616005626036  0.2500069250394581  0.2500423679542510
  0.0830689180067312  0.2500909989245101  0.5832817242855358
  0.0830431550956889  0.2500287255064298  0.9165512980025843
  0.0833081005748768  0.5832637721593645  0.2500291780889268
  0.0832247978946322  0.5832887493031311  0.5832732662918447
  0.0836926544175067  0.5832306300408590  0.9168883457222780
  0.0832388370668460  0.9165721710668484  0.2500632081206250
  0.0836959127956264  0.9170292467956287  0.5832953884107206
  0.0832923069132589  0.9166256409132613  0.9166715567091710
  0.4171891611432124  0.2505224941432111  0.2506794535546462
  0.4158784028842710  0.2492117358842699  0.5838996885902265
  0.4164006094970752  0.2497339424970739  0.9171145701119690
  0.4155252106614604  0.5831223873696011  0.2489713144195814
  0.4181561702345209  0.5820160294887975  0.5822845844888409
  0.4168473123480329  0.5830479719525030  0.9164295540455311
  0.4166735920394594  0.9168949345626058  0.2500423679542510
  0.4167576659245113  0.9164022520067336  0.5832817242855358
  0.4166953925064310  0.9163764890956916  0.9165512980025843
  0.7497890543696023  0.2488585436614590  0.2489713144195814
  0.7486826964887988  0.2514895032345197  0.5822845844888409
  0.7497146389525042  0.2501806453480317  0.9164295540455311
  0.7495391993074618  0.5828725323074606  0.2508154843025205
  0.7576309660048210  0.5909642990048198  0.5910131301995728
  0.7499884202429004  0.5833217532428991  0.9165826959306878
  0.7499304391593657  0.9166414345748792  0.2500291780889268
  0.7499554163031323  0.9165581318946346  0.5832732662918447
  0.7498972970408604  0.9170259884175089  0.9168883457222780
  0.9999224150135567  0.0000202976782451  0.9999797023217549
  0.0000448903172860  0.9999101852083375  0.3333136267942672
  0.9997891342452612  0.0002866800764735  0.6666906373060594
  0.9997891342452612  0.3333093626939408  0.9997133199235266
  0.0002181343820745  0.3332401213494576  0.3332440695564067
  0.9991828077733587  0.3338971896148260  0.6661028103851740
  0.0000448903172860  0.6666863732057330  0.0000898147916626
  0.9995323673072638  0.6662497196655188  0.3337502803344812
  0.0002181343820745  0.6667559304435934  0.6667598786505425
  0.3333354936102075  0.9999075901614158  0.0000924098385840
  0.3334351256747431  0.0002587335579333  0.3334085160701423
  0.3333485656697665  0.9997035204834839  0.6667509696505916
  0.3333485656697665  0.3332490303494084  0.0002964795165163
  0.3343886578267323  0.3337202590332616  0.3343589043341716
  0.3327666046104439  0.3329678544029071  0.6670321455970929
  0.3334351256747431  0.6665914839298575  0.9997412664420666
  0.3330731214808456  0.6668257760804777  0.3331742239195221
  0.3343886578267323  0.6656410956658287  0.6662797409667385
  0.6666668199234261  0.0001595984037083  0.9998404015962919
  0.6666563422767090  0.0000563976201362  0.3335109740103394
  0.6666026949269692  0.9998995129694960  0.6665692621205780
  0.6666026949269692  0.3334307378794220  0.0001004870305041
  0.6682780642810677  0.3342319998505516  0.3341186392270305
  0.6636297770178491  0.3341938537815516  0.6658061462184484
  0.6666563422767090  0.6664890259896608  0.9999436023798638
  0.6656686386381662  0.6659545710997570  0.3340454289002430
  0.6682780642810677  0.6658813607729694  0.6657680001494487
  0.1665742571614172  0.1666688276102099  0.0000924098385840
  0.1669254005579345  0.1667684596747455  0.3334085160701423
  0.1663701874834850  0.1666818996697690  0.6667509696505916
  0.1668262654037095  0.5000001529234248  0.9998404015962919
  0.1667230646201373  0.4999896752767025  0.3335109740103394
  0.1665661799694971  0.4999360279269679  0.6665692621205780
  0.1666869646782463  0.8332557480135555  0.9999797023217549
  0.1665768522083386  0.8333782233172847  0.3333136267942672
  0.1669533470764747  0.8331224672452600  0.6666906373060594
  0.4999156973494097  0.1666818996697690  0.0002964795165163
  0.5003869260332627  0.1677219918267346  0.3343589043341716
  0.4996345214029083  0.1660999386104464  0.6670321455970929
  0.5000974048794232  0.4999360279269679  0.0001004870305041
  0.5008986668505525  0.5016113972810665  0.3341186392270305
  0.5008605207815529  0.4969631100178478  0.6658061462184484
  0.4999760296939418  0.8331224672452600  0.9997133199235266
  0.4999067883494588  0.8335514673820734  0.3332440695564067
  0.5005638566148272  0.8325161407733574  0.6661028103851740
  0.8332581499298551  0.1667684596747455  0.9997412664420666
  0.8334924420804752  0.1664064554808481  0.3331742239195221
  0.8323077616658264  0.1677219918267346  0.6662797409667385
  0.8331556919896583  0.4999896752767025  0.9999436023798638
  0.8326212370997547  0.4990019716381651  0.3340454289002430
  0.8325480267729671  0.5016113972810665  0.6657680001494487
  0.8333530392057306  0.8333782233172847  0.0000898147916626
  0.8329163856655163  0.8328657003072626  0.3337502803344812
  0.8334225964435912  0.8335514673820734  0.6667598786505425
  0.1666869646782463  0.0000202976782451  0.1667442519864446
  0.1668262654037095  0.0001595984037083  0.4999998470765754
  0.1665742571614172  0.9999075901614158  0.8333311723897903
  0.1669533470764747  0.3333093626939408  0.1668775327547402
  0.1665661799694971  0.3334307378794220  0.5000639720730320
  0.1663701874834850  0.3332490303494084  0.8333181003302309
  0.1665768522083386  0.6666863732057330  0.1666217766827152
  0.1667230646201373  0.6664890259896608  0.5000103247232975
  0.1669254005579345  0.6665914839298575  0.8332315403252545
  0.4999760296939418  0.0002866800764735  0.1668775327547402
  0.5000974048794232  0.9998995129694960  0.5000639720730320
  0.4999156973494097  0.9997035204834839  0.8333181003302309
  0.5005638566148272  0.3338971896148260  0.1674838592266427
  0.5008605207815529  0.3341938537815516  0.5030368899821521
  0.4996345214029083  0.3329678544029071  0.8339000613895536
  0.4999067883494588  0.6667559304435934  0.1664485326179267
  0.5008986668505525  0.6658813607729694  0.4983886027189335
  0.5003869260332627  0.6656410956658287  0.8322780081732654
  0.8333530392057306  0.9999101852083375  0.1666217766827152
  0.8331556919896583  0.0000563976201362  0.5000103247232975
  0.8332581499298551  0.0002587335579333  0.8332315403252545
  0.8334225964435912  0.3332401213494576  0.1664485326179267
  0.8325480267729671  0.3342319998505516  0.4983886027189335
  0.8323077616658264  0.3337202590332616  0.8322780081732654
  0.8329163856655163  0.6662497196655188  0.1671342996927375
  0.8326212370997547  0.6659545710997570  0.5009980283618352
  0.8334924420804752  0.6668257760804777  0.8335935445191519
  0.0000193160117297  0.1667068873672814  0.1666473509882717
  0.0004708977224930  0.1661658225558537  0.4998028004001074
  0.9995753933403908  0.1669298306943816  0.8330701693056186
  0.0005867569034058  0.4998511874082280  0.1660799100965955
  0.9993818649543620  0.5000622699798541  0.4999377300201461
  0.0004708977224930  0.5001971995998927  0.8338341774441465
  0.9998256859729999  0.8331590189729987  0.1668409810270013
  0.0005867569034058  0.8339200899034046  0.5001488125917720
  0.0000193160117297  0.8333526490117286  0.8332931126327185
  0.3335964966943793  0.1669298306943816  0.1670912736596103
  0.3331492664777313  0.1664826004777337  0.5002595139669113
  0.3331197052502446  0.1664530392502471  0.8335469607497529
  0.3328324885558513  0.5001971995998927  0.1661957692775083
  0.3337470885655281  0.4999352895277232  0.5000647104722769
  0.3331492664777313  0.4997404860330886  0.8335173995222663
  0.3333735533672790  0.8333526490117286  0.1666473509882717
  0.3328324885558513  0.8338042307224918  0.4998028004001074
  0.3335964966943793  0.8329087263403896  0.8330701693056186
  0.6668638665998939  0.1661658225558537  0.1661957692775083
  0.6666019565277244  0.1670804225655305  0.5000647104722769
  0.6664071530330899  0.1664826004777337  0.8335173995222663
  0.6667289369798554  0.5000622699798541  0.1672848020456393
  0.6666019565277244  0.4999352895277232  0.8329195774344695
  0.6665178544082293  0.8339200899034046  0.1660799100965955
  0.6667289369798554  0.8327151979543608  0.4999377300201461
  0.6668638665998939  0.8338042307224918  0.8338341774441465
  0.5776123587246885  0.4109456927246911  0.5890543072753091
Cartesian
  0.0000000000000000  0.0000000000000000  0.0000000000000000
  0.0000000000000000  0.0000000000000000  0.0000000000000000
  0.0000000000000000  0.0000000000000000  0.0000000000000000
  0.0000000000000000  0.0000000000000000  0.0000000000000000
  0.0000000000000000  0.0000000000000000  0.0000000000000000
  0.0000000000000000  0.0000000000000000  0.0000000000000000
  0.0000000000000000  0.0000000000000000  0.0000000000000000
  0.0000000000000000  0.0000000000000000  0.0000000000000000
  0.0000000000000000  0.0000000000000000  0.0000000000000000
  0.0000000000000000  0.0000000000000000  0.0000000000000000
  0.0000000000000000  0.0000000000000000  0.0000000000000000
  0.0000000000000000  0.0000000000000000  0.0000000000000000
  0.0000000000000000  0.0000000000000000  0.0000000000000000
  0.0000000000000000  0.0000000000000000  0.0000000000000000
  0.0000000000000000  0.0000000000000000  0.0000000000000000
  0.0000000000000000  0.0000000000000000  0.0000000000000000
  0.0000000000000000  0.0000000000000000  0.0000000000000000
  0.0000000000000000  0.0000000000000000  0.0000000000000000
  0.0000000000000000  0.0000000000000000  0.0000000000000000
  0.0000000000000000  0.0000000000000000  0.0000000000000000
  0.0000000000000000  0.0000000000000000  0.0000000000000000
  0.0000000000000000  0.0000000000000000  0.0000000000000000
  0.0000000000000000  0.0000000000000000  0.0000000000000000
  0.0000000000000000  0.0000000000000000  0.0000000000000000
  0.0000000000000000  0.0000000000000000  0.0000000000000000
  0.0000000000000000  0.0000000000000000  0.0000000000000000
  0.0000000000000000  0.0000000000000000  0.0000000000000000
  0.0000000000000000  0.0000000000000000  0.0000000000000000
  0.0000000000000000  0.0000000000000000  0.0000000000000000
  0.0000000000000000  0.0000000000000000  0.0000000000000000
  0.0000000000000000  0.0000000000000000  0.0000000000000000
  0.0000000000000000  0.0000000000000000  0.0000000000000000
  0.0000000000000000  0.0000000000000000  0.0000000000000000
  0.0000000000000000  0.0000000000000000  0.0000000000000000
  0.0000000000000000  0.0000000000000000  0.0000000000000000
  0.0000000000000000  0.0000000000000000  0.0000000000000000
  0.0000000000000000  0.0000000000000000  0.0000000000000000
  0.0000000000000000  0.0000000000000000  0.0000000000000000
  0.0000000000000000  0.0000000000000000  0.0000000000000000
  0.0000000000000000  0.0000000000000000  0.0000000000000000
  0.0000000000000000  0.0000000000000000  0.0000000000000000
  0.0000000000000000  0.0000000000000000  0.0000000000000000
  0.0000000000000000  0.0000000000000000  0.0000000000000000
  0.0000000000000000  0.0000000000000000  0.0000000000000000
  0.0000000000000000  0.0000000000000000  0.0000000000000000
  0.0000000000000000  0.0000000000000000  0.0000000000000000
  0.0000000000000000  0.0000000000000000  0.0000000000000000
  0.0000000000000000  0.0000000000000000  0.0000000000000000
  0.0000000000000000  0.0000000000000000  0.0000000000000000
  0.0000000000000000  0.0000000000000000  0.0000000000000000
  0.0000000000000000  0.0000000000000000  0.0000000000000000
  0.0000000000000000  0.0000000000000000  0.0000000000000000
  0.0000000000000000  0.0000000000000000  0.0000000000000000
  0.0000000000000000  0.0000000000000000  0.0000000000000000
  0.0000000000000000  0.0000000000000000  0.0000000000000000
  0.0000000000000000  0.0000000000000000  0.0000000000000000
  0.0000000000000000  0.0000000000000000  0.0000000000000000
  0.0000000000000000  0.0000000000000000  0.0000000000000000
  0.0000000000000000  0.0000000000000000  0.0000000000000000
  0.0000000000000000  0.0000000000000000  0.0000000000000000
  0.0000000000000000  0.0000000000000000  0.0000000000000000
  0.0000000000000000  0.0000000000000000  0.0000000000000000
  0.0000000000000000  0.0000000000000000  0.0000000000000000
  0.0000000000000000  0.0000000000000000  0.0000000000000000
  0.0000000000000000  0.0000000000000000  0.0000000000000000
  0.0000000000000000  0.0000000000000000  0.0000000000000000
  0.0000000000000000  0.0000000000000000  0.0000000000000000
  0.0000000000000000  0.0000000000000000  0.0000000000000000
  0.0000000000000000  0.0000000000000000  0.0000000000000000
  0.0000000000000000  0.0000000000000000  0.0000000000000000
  0.0000000000000000  0.0000000000000000  0.0000000000000000
  0.0000000000000000  0.0000000000000000  0.0000000000000000
  0.0000000000000000  0.0000000000000000  0.0000000000000000
  0.0000000000000000  0.0000000000000000  0.0000000000000000
  0.0000000000000000  0.0000000000000000  0.0000000000000000
  0.0000000000000000  0.0000000000000000  0.0000000000000000
  0.0000000000000000  0.0000000000000000  0.0000000000000000
  0.0000000000000000  0.0000000000000000  0.0000000000000000
  0.0000000000000000  0.0000000000000000  0.0000000000000000
  0.0000000000000000  0.0000000000000000  0.0000000000000000
  0.0000000000000000  0.0000000000000000  0.0000000000000000
  0.0000000000000000  0.0000000000000000  0.0000000000000000
  0.0000000000000000  0.0000000000000000  0.0000000000000000
  0.0000000000000000  0.0000000000000000  0.0000000000000000
  0.0000000000000000  0.0000000000000000  0.0000000000000000
  0.0000000000000000  0.0000000000000000  0.0000000000000000
  0.0000000000000000  0.0000000000000000  0.0000000000000000
  0.0000000000000000  0.0000000000000000  0.0000000000000000
  0.0000000000000000  0.0000000000000000  0.0000000000000000
  0.0000000000000000  0.0000000000000000  0.0000000000000000
  0.0000000000000000  0.0000000000000000  0.0000000000000000
  0.0000000000000000  0.0000000000000000  0.0000000000000000
  0.0000000000000000  0.0000000000000000  0.0000000000000000
  0.0000000000000000  0.0000000000000000  0.0000000000000000
  0.0000000000000000  0.0000000000000000  0.0000000000000000
  0.0000000000000000  0.0000000000000000  0.0000000000000000
  0.0000000000000000  0.0000000000000000  0.0000000000000000
  0.0000000000000000  0.0000000000000000  0.0000000000000000
  0.0000000000000000  0.0000000000000000  0.0000000000000000
  0.0000000000000000  0.0000000000000000  0.0000000000000000
  0.0000000000000000  0.0000000000000000  0.0000000000000000
  0.0000000000000000  0.0000000000000000  0.0000000000000000
  0.0000000000000000  0.0000000000000000  0.0000000000000000
  0.0000000000000000  0.0000000000000000  0.0000000000000000
  0.0000000000000000  0.0000000000000000  0.0000000000000000
  0.0000000000000000  0.0000000000000000  0.0000000000000000
  0.0000000000000000  0.0000000000000000  0.0000000000000000
  0.0000000000000000  0.0000000000000000  0.0000000000000000
  0.0000000000000000  0.0000000000000000  0.0000000000000000
  0.0000000000000000  0.0000000000000000  0.0000000000000000
  0.0000000000000000  0.0000000000000000  0.0000000000000000
  0.0000000000000000  0.0000000000000000  0.0000000000000000
  0.0000000000000000  0.0000000000000000  0.0000000000000000
  0.0000000000000000  0.0000000000000000  0.0000000000000000
  0.0000000000000000  0.0000000000000000  0.0000000000000000
  0.0000000000000000  0.0000000000000000  0.0000000000000000
  0.0000000000000000  0.0000000000000000  0.0000000000000000
  0.0000000000000000  0.0000000000000000  0.0000000000000000
  0.0000000000000000  0.0000000000000000  0.0000000000000000
  0.0000000000000000  0.0000000000000000  0.0000000000000000
  0.0000000000000000  0.0000000000000000  0.0000000000000000
  0.0000000000000000  0.0000000000000000  0.0000000000000000
  0.0000000000000000  0.0000000000000000  0.0000000000000000
  0.0000000000000000  0.0000000000000000  0.0000000000000000
  0.0000000000000000  0.0000000000000000  0.0000000000000000
  0.0000000000000000  0.0000000000000000  0.0000000000000000
  0.0000000000000000  0.0000000000000000  0.0000000000000000
  0.0000000000000000  0.0000000000000000  0.0000000000000000
  0.0000000000000000  0.0000000000000000  0.0000000000000000
  0.0000000000000000  0.0000000000000000  0.0000000000000000
  0.0000000000000000  0.0000000000000000  0.0000000000000000
  0.0000000000000000  0.0000000000000000  0.0000000000000000
  0.0000000000000000  0.0000000000000000  0.0000000000000000
  0.0000000000000000  0.0000000000000000  0.0000000000000000
  0.0000000000000000  0.0000000000000000  0.0000000000000000
  0.0000000000000000  0.0000000000000000  0.0000000000000000
  0.0000000000000000  0.0000000000000000  0.0000000000000000
  0.0000000000000000  0.0000000000000000  0.0000000000000000
  0.0000000000000000  0.0000000000000000  0.0000000000000000
  0.0000000000000000  0.0000000000000000  0.0000000000000000
  0.0000000000000000  0.0000000000000000  0.0000000000000000
  0.0000000000000000  0.0000000000000000  0.0000000000000000
  0.0000000000000000  0.0000000000000000  0.0000000000000000
  0.0000000000000000  0.0000000000000000  0.0000000000000000
  0.0000000000000000  0.0000000000000000  0.0000000000000000
  0.0000000000000000  0.0000000000000000  0.0000000000000000
  0.0000000000000000  0.0000000000000000  0.0000000000000000
  0.0000000000000000  0.0000000000000000  0.0000000000000000
  0.0000000000000000  0.0000000000000000  0.0000000000000000
  0.0000000000000000  0.0000000000000000  0.0000000000000000
  0.0000000000000000  0.0000000000000000  0.0000000000000000
  0.0000000000000000  0.0000000000000000  0.0000000000000000
  0.0000000000000000  0.0000000000000000  0.0000000000000000
  0.0000000000000000  0.0000000000000000  0.0000000000000000
  0.0000000000000000  0.0000000000000000  0.0000000000000000
  0.0000000000000000  0.0000000000000000  0.0000000000000000
  0.0000000000000000  0.0000000000000000  0.0000000000000000
  0.0000000000000000  0.0000000000000000  0.0000000000000000
  0.0000000000000000  0.0000000000000000  0.0000000000000000
  0.0000000000000000  0.0000000000000000  0.0000000000000000
  0.0000000000000000  0.0000000000000000  0.0000000000000000
  0.0000000000000000  0.0000000000000000  0.0000000000000000
  0.0000000000000000  0.0000000000000000  0.0000000000000000
  0.0000000000000000  0.0000000000000000  0.0000000000000000
  0.0000000000000000  0.0000000000000000  0.0000000000000000
  0.0000000000000000  0.0000000000000000  0.0000000000000000
  0.0000000000000000  0.0000000000000000  0.0000000000000000
  0.0000000000000000  0.0000000000000000  0.0000000000000000
  0.0000000000000000  0.0000000000000000  0.0000000000000000
  0.0000000000000000  0.0000000000000000  0.0000000000000000
  0.0000000000000000  0.0000000000000000  0.0000000000000000
  0.0000000000000000  0.0000000000000000  0.0000000000000000
  0.0000000000000000  0.0000000000000000  0.0000000000000000
  0.0000000000000000  0.0000000000000000  0.0000000000000000
  0.0000000000000000  0.0000000000000000  0.0000000000000000
  0.0000000000000000  0.0000000000000000  0.0000000000000000
  0.0000000000000000  0.0000000000000000  0.0000000000000000
  0.0000000000000000  0.0000000000000000  0.0000000000000000
  0.0000000000000000  0.0000000000000000  0.0000000000000000
  0.0000000000000000  0.0000000000000000  0.0000000000000000
  0.0000000000000000  0.0000000000000000  0.0000000000000000
  0.0000000000000000  0.0000000000000000  0.0000000000000000
  0.0000000000000000  0.0000000000000000  0.0000000000000000
  0.0000000000000000  0.0000000000000000  0.0000000000000000
  0.0000000000000000  0.0000000000000000  0.0000000000000000
  0.0000000000000000  0.0000000000000000  0.0000000000000000
  0.0000000000000000  0.0000000000000000  0.0000000000000000
  0.0000000000000000  0.0000000000000000  0.0000000000000000
  0.0000000000000000  0.0000000000000000  0.0000000000000000
  0.0000000000000000  0.0000000000000000  0.0000000000000000
  0.0000000000000000  0.0000000000000000  0.0000000000000000
  0.0000000000000000  0.0000000000000000  0.0000000000000000
  0.0000000000000000  0.0000000000000000  0.0000000000000000
  0.0000000000000000  0.0000000000000000  0.0000000000000000
  0.0000000000000000  0.0000000000000000  0.0000000000000000
  0.0000000000000000  0.0000000000000000  0.0000000000000000
  0.0000000000000000  0.0000000000000000  0.0000000000000000
  0.0000000000000000  0.0000000000000000  0.0000000000000000
  0.0000000000000000  0.0000000000000000  0.0000000000000000
  0.0000000000000000  0.0000000000000000  0.0000000000000000
  0.0000000000000000  0.0000000000000000  0.0000000000000000
  0.0000000000000000  0.0000000000000000  0.0000000000000000
  0.0000000000000000  0.0000000000000000  0.0000000000000000
  0.0000000000000000  0.0000000000000000  0.0000000000000000
  0.0000000000000000  0.0000000000000000  0.0000000000000000
  0.0000000000000000  0.0000000000000000  0.0000000000000000
  0.0000000000000000  0.0000000000000000  0.0000000000000000
  0.0000000000000000  0.0000000000000000  0.0000000000000000
  0.0000000000000000  0.0000000000000000  0.0000000000000000
  0.0000000000000000  0.0000000000000000  0.0000000000000000
  0.0000000000000000  0.0000000000000000  0.0000000000000000
  0.0000000000000000  0.0000000000000000  0.0000000000000000
  0.0000000000000000  0.0000000000000000  0.0000000000000000
  0.0000000000000000  0.0000000000000000  0.0000000000000000
  0.0000000000000000  0.0000000000000000  0.0000000000000000
