
     Program PWSCF v.7.4.1 starts on 23Aug2026 at  0:33:37 

     This program is part of the open-source Quantum ESPRESSO suite
     for quantum simulation of materials; please cite
         "P. Giannozzi et al., J. Phys.:Condens. Matter 21 395502 (2009);
         "P. Giannozzi et al., J. Phys.:Condens. Matter 29 465901 (2017);
         "P. Giannozzi et al., J. Chem. Phys. 152 154105 (2020);
          URL http://www.quantum-espresso.org", 
     in publications or presentations arising from this work. More details at
     http://www.quantum-espresso.org/quote

     Parallel version (MPI), running on    32 processors

     MPI processes distributed on     1 nodes
     123995 MiB available memory on the printing compute node when the environment starts
 
     Reading input from scf.in

     Current dimensions of program PWSCF are:
     Max number of different atomic species (ntypx) = 10
     Max number of k-points (npk) =  40000
     Max angular momentum in pseudopotentials (lmaxx) =  4
     file C.pbe-n-kjpaw_psl.1.0.0.UPF: wavefunction(s)  2S 2P renormalized
     file N.pbe-n-kjpaw_psl.1.0.0.UPF: wavefunction(s)  2S renormalized
 
     R & G space division:  proc/nbgrp/npool/nimage =      32
     Subspace diagonalization in iterative solution of the eigenvalue problem:
     one sub-group per band group will be used
     scalapack distributed-memory algorithm (size of sub-group:  5*  5 procs)

 
     Parallelization info
     --------------------
     sticks:   dense  smooth     PW     G-vecs:    dense   smooth      PW
     Min         183     183     46                10583    10583    1322
     Max         184     184     47                10588    10588    1326
     Sum        5877    5877   1473               338755   338755   42379
 
     Using Slab Decomposition
 


     bravais-lattice index     =            0
     lattice parameter (alat)  =      20.2515  a.u.
     unit-cell volume          =    8305.5769 (a.u.)^3
     number of atoms/cell      =          215
     number of atomic types    =            2
     number of electrons       =       862.00 (up: 432.00, down: 430.00)
     number of Kohn-Sham states=          862
     kinetic-energy cutoff     =      45.0000  Ry
     charge density cutoff     =     180.0000  Ry
     scf convergence threshold =      1.0E-08
     mixing beta               =       0.7000
     number of iterations used =            8  plain     mixing
     Exchange-correlation= SLA  PW   PBX  PBC
                           (   1   4   3   4   0   0   0)

     celldm(1)=  20.251472  celldm(2)=   0.000000  celldm(3)=   0.000000
     celldm(4)=   0.000000  celldm(5)=   0.000000  celldm(6)=   0.000000

     crystal axes: (cart. coord. in units of alat)
               a(1) = (  -0.707107   0.000000   0.707107 )  
               a(2) = (   0.408248   0.816497   0.408248 )  
               a(3) = (  -0.577350   0.577350  -0.577350 )  

     reciprocal axes: (cart. coord. in units 2 pi/alat)
               b(1) = ( -0.707107  0.000000  0.707107 )  
               b(2) = (  0.408248  0.816497  0.408248 )  
               b(3) = ( -0.577350  0.577350 -0.577350 )  


     PseudoPot. # 1 for C  read from file:
     ../../pseudos/C.pbe-n-kjpaw_psl.1.0.0.UPF
     MD5 check sum: 5f16ad9a65e90284d1d834d4ab3b0f7d
     Pseudo is Projector augmented-wave + core cor, Zval =  4.0
     Generated using &quot;atomic&quot; code by A. Dal Corso  v.6.3
     Shape of augmentation charge: PSQ
     Using radial grid of 1073 points,  4 beta functions with: 
                l(1) =   0
                l(2) =   0
                l(3) =   1
                l(4) =   1
     Q(r) pseudized with 0 coefficients 


     PseudoPot. # 2 for N  read from file:
     ../../pseudos/N.pbe-n-kjpaw_psl.1.0.0.UPF
     MD5 check sum: a6186d50559fdcbe4b2d0187dd61a119
     Pseudo is Projector augmented-wave + core cor, Zval =  5.0
     Generated using &quot;atomic&quot; code by A. Dal Corso  v.6.3
     Shape of augmentation charge: PSQ
     Using radial grid of 1085 points,  4 beta functions with: 
                l(1) =   0
                l(2) =   0
                l(3) =   1
                l(4) =   1
     Q(r) pseudized with 0 coefficients 


     atomic species   valence    mass     pseudopotential
     C                 4.00    12.01070     C ( 1.00)
     N                 5.00    14.00670     N ( 1.00)

     Starting magnetic structure 
     atomic species   magnetization
     C               0.000
     N               0.000

     No symmetry found



   Cartesian axes

     site n.     atom                  positions (alat units)
         1        C      tau(   1) = (  -0.0000926   0.0001059   0.0000669  )
         2        C      tau(   2) = (  -0.1925302   0.1927062  -0.1922077  )
         3        C      tau(   3) = (  -0.3849887   0.3849316  -0.3849117  )
         4        C      tau(   4) = (   0.1357846   0.2723688   0.1361071  )
         5        C      tau(   5) = (  -0.0569074   0.4653363  -0.0560021  )
         6        C      tau(   6) = (  -0.2488240   0.6571378  -0.2489449  )
         7        C      tau(   7) = (   0.2721668   0.5443842   0.2722438  )
         8        C      tau(   8) = (   0.0798221   0.7368807   0.0797012  )
         9        C      tau(   9) = (  -0.1130005   0.9288397  -0.1123739  )
        10        C      tau(  10) = (  -0.2357566   0.0002209   0.2357030  )
        11        C      tau(  11) = (  -0.4282918   0.1925426   0.0432170  )
        12        C      tau(  12) = (  -0.6205609   0.3849480  -0.1490536  )
        13        C      tau(  13) = (  -0.0996111   0.2722939   0.3718976  )
        14        C      tau(  14) = (  -0.2943418   0.4656057   0.1813669  )
        15        C      tau(  15) = (  -0.4827059   0.6574799  -0.0132036  )
        16        C      tau(  16) = (   0.0363130   0.5443323   0.5078203  )
        17        C      tau(  17) = (  -0.1559466   0.7367650   0.3135557  )
        18        C      tau(  18) = (  -0.3490314   0.9283878   0.1237668  )
        19        C      tau(  19) = (  -0.4714242   0.0000269   0.4714177  )
        20        C      tau(  20) = (  -0.6639661   0.1923760   0.2789032  )
        21        C      tau(  21) = (  -0.8562369   0.3851095   0.0865808  )
        22        C      tau(  22) = (  -0.3352577   0.2721340   0.6076115  )
        23        C      tau(  23) = (  -0.5281340   0.4643198   0.4154712  )
        24        C      tau(  24) = (  -0.7190708   0.6569109   0.2225794  )
        25        C      tau(  25) = (  -0.1993606   0.5444944   0.7434570  )
        26        C      tau(  26) = (  -0.3916121   0.7363657   0.5500380  )
        27        C      tau(  27) = (  -0.5843458   0.9294595   0.3588211  )
        28        C      tau(  28) = (  -0.0499571   0.1363171   0.1858772  )
        29        C      tau(  29) = (  -0.2426897   0.3295025  -0.0057457  )
        30        C      tau(  30) = (  -0.4348309   0.5209772  -0.1991759  )
        31        C      tau(  31) = (   0.0860816   0.4083620   0.3220816  )
        32        C      tau(  32) = (  -0.1068031   0.6025031   0.1301516  )
        33        C      tau(  33) = (  -0.2991470   0.7921005  -0.0624062  )
        34        C      tau(  34) = (   0.2223569   0.6804675   0.4581372  )
        35        C      tau(  35) = (   0.0299828   0.8730430   0.2657019  )
        36        C      tau(  36) = (  -0.1628008   1.0648967   0.0734841  )
        37        C      tau(  37) = (  -0.2854590   0.1360817   0.4217605  )
        38        C      tau(  38) = (  -0.4782583   0.3280564   0.2293333  )
        39        C      tau(  39) = (  -0.6694437   0.5213258   0.0373659  )
        40        C      tau(  40) = (  -0.1493919   0.4082976   0.5576818  )
        41        C      tau(  41) = (  -0.3430678   0.5987272   0.3632108  )
        42        C      tau(  42) = (  -0.5326432   0.7939145   0.1731702  )
        43        C      tau(  43) = (  -0.0135996   0.6804938   0.6936156  )
        44        C      tau(  44) = (  -0.2060301   0.8727458   0.5005288  )
        45        C      tau(  45) = (  -0.3983166   1.0655590   0.3089688  )
        46        C      tau(  46) = (  -0.5212605   0.1361818   0.6574090  )
        47        C      tau(  47) = (  -0.7138400   0.3286347   0.4650358  )
        48        C      tau(  48) = (  -0.9060153   0.5211068   0.2723568  )
        49        C      tau(  49) = (  -0.3851660   0.4084150   0.7933062  )
        50        C      tau(  50) = (  -0.5777368   0.6008342   0.6009534  )
        51        C      tau(  51) = (  -0.7699732   0.7931499   0.4085607  )
        52        C      tau(  52) = (  -0.2491243   0.6804726   0.9294651  )
        53        C      tau(  53) = (  -0.4414675   0.8728157   0.7368390  )
        54        C      tau(  54) = (  -0.6340651   1.0654206   0.5446536  )
        55        C      tau(  55) = (  -0.2141208   0.0964843   0.0217136  )
        56        C      tau(  56) = (  -0.4066619   0.2888024  -0.1706619  )
        57        C      tau(  57) = (  -0.5990658   0.4811569  -0.3632856  )
        58        C      tau(  58) = (  -0.0790229   0.3692147   0.1579211  )
        59        C      tau(  59) = (  -0.2714953   0.5625420  -0.0345406  )
        60        C      tau(  60) = (  -0.4630249   0.7534193  -0.2273058  )
        61        C      tau(  61) = (   0.0582507   0.6406189   0.2939057  )
        62        C      tau(  62) = (  -0.1346325   0.8320184   0.1021083  )
        63        C      tau(  63) = (  -0.3270367   1.0250464  -0.0907518  )
        64        C      tau(  64) = (  -0.4499376   0.0961724   0.2572818  )
        65        C      tau(  65) = (  -0.6422432   0.2887118   0.0648305  )
        66        C      tau(  66) = (  -0.8345641   0.4812944  -0.1273489  )
        67        C      tau(  67) = (  -0.3137750   0.3679667   0.3938165  )
        68        C      tau(  68) = (  -0.5037561   0.5597376   0.2025224  )
        69        C      tau(  69) = (  -0.6978157   0.7534187   0.0087433  )
        70        C      tau(  70) = (  -0.1783181   0.6404929   0.5284914  )
        71        C      tau(  71) = (  -0.3705770   0.8332384   0.3352365  )
        72        C      tau(  72) = (  -0.5626784   1.0256782   0.1446069  )
        73        C      tau(  73) = (  -0.6856141   0.0963029   0.4930553  )
        74        C      tau(  74) = (  -0.8778996   0.2888578   0.3005726  )
        75        C      tau(  75) = (  -1.0703993   0.4811978   0.1081901  )
        76        C      tau(  76) = (  -0.5496104   0.3684835   0.6292654  )
        77        C      tau(  77) = (  -0.7419075   0.5609997   0.4367827  )
        78        C      tau(  78) = (  -0.9341173   0.7532788   0.2441892  )
        79        C      tau(  79) = (  -0.4133026   0.6406589   0.7650695  )
        80        C      tau(  80) = (  -0.6058427   0.8329746   0.5726912  )
        81        C      tau(  81) = (  -0.7983324   1.0255627   0.3803863  )
        82        C      tau(  82) = (  -0.0284709   0.2326832  -0.0279875  )
        83        C      tau(  83) = (  -0.2206711   0.4245999  -0.2211536  )
        84        C      tau(  84) = (  -0.4131282   0.6173203  -0.4130120  )
        85        C      tau(  85) = (   0.1084403   0.5044558   0.1079578  )
        86        C      tau(  86) = (  -0.0849727   0.6970804  -0.0841674  )
        87        C      tau(  87) = (  -0.2770485   0.8896389  -0.2776403  )
        88        C      tau(  88) = (   0.2438844   0.7767382   0.2440005  )
        89        C      tau(  89) = (   0.0520888   0.9695010   0.0514970  )
        90        C      tau(  90) = (  -0.1410578   1.1614180  -0.1407494  )
        91        C      tau(  91) = (  -0.2639971   0.2320650   0.2076887  )
        92        C      tau(  92) = (  -0.4562452   0.4251280   0.0153158  )
        93        C      tau(  93) = (  -0.6491326   0.6171898  -0.1778696  )
        94        C      tau(  94) = (  -0.1281280   0.5047426   0.3434330  )
        95        C      tau(  95) = (  -0.5124165   0.8892120  -0.0409865  )
        96        C      tau(  96) = (   0.0087480   0.7768184   0.4800111  )
        97        C      tau(  97) = (  -0.1844276   0.9687955   0.2870024  )
        98        C      tau(  98) = (  -0.3768511   1.1623045   0.0948287  )
        99        C      tau(  99) = (  -0.4997047   0.2322461   0.4433523  )
       100        C      tau( 100) = (  -0.6922843   0.4245770   0.2509547  )
       101        C      tau( 101) = (  -0.8841581   0.6173062   0.0584547  )
       102        C      tau( 102) = (  -0.3636485   0.5043174   0.5795905  )
       103        C      tau( 103) = (  -0.5557386   0.6969496   0.3866302  )
       104        C      tau( 104) = (  -0.7489268   0.8898340   0.1945697  )
       105        C      tau( 105) = (  -0.2275666   0.7766220   0.7150463  )
       106        C      tau( 106) = (  -0.4201576   0.9696067   0.5233388  )
       107        C      tau( 107) = (  -0.6123513   1.1616078   0.3304980  )
       108        C      tau( 108) = (  -0.0731565   0.1164110   0.0449105  )
       109        C      tau( 109) = (  -0.2657038   0.3090329  -0.1473357  )
       110        C      tau( 110) = (  -0.4580311   0.5010412  -0.3401222  )
       111        C      tau( 111) = (   0.0626849   0.3887134   0.1810529  )
       112        C      tau( 112) = (  -0.1301312   0.5816097  -0.0109910  )
       113        C      tau( 113) = (  -0.3216905   0.7740023  -0.2050324  )
       114        C      tau( 114) = (   0.1992021   0.6605127   0.3171109  )
       115        C      tau( 115) = (   0.0075364   0.8538861   0.1241945  )
       116        C      tau( 116) = (  -0.1859528   1.0451052  -0.0676322  )
       117        C      tau( 117) = (  -0.3087947   0.1160835   0.2806281  )
       118        C      tau( 118) = (  -0.5012610   0.3086172   0.0881312  )
       119        C      tau( 119) = (  -0.6932688   0.5012199  -0.1041423  )
       120        C      tau( 120) = (  -0.1726866   0.3883428   0.4167056  )
       121        C      tau( 121) = (  -0.5565039   0.7732605   0.0320818  )
       122        C      tau( 122) = (  -0.0367987   0.6605062   0.5523278  )
       123        C      tau( 123) = (  -0.2293371   0.8526445   0.3592486  )
       124        C      tau( 124) = (  -0.4215207   1.0467424   0.1675384  )
       125        C      tau( 125) = (  -0.5445147   0.1161535   0.5163311  )
       126        C      tau( 126) = (  -0.7370278   0.3085705   0.3238882  )
       127        C      tau( 127) = (  -0.9291961   0.5011924   0.1313881  )
       128        C      tau( 128) = (  -0.4084328   0.3883010   0.6524831  )
       129        C      tau( 129) = (  -0.6008930   0.5808177   0.4599630  )
       130        C      tau( 130) = (  -0.7928439   0.7732653   0.2674788  )
       131        C      tau( 131) = (  -0.2723340   0.6605739   0.7882502  )
       132        C      tau( 132) = (  -0.4647622   0.8528712   0.5955604  )
       133        C      tau( 133) = (  -0.6573209   1.0455113   0.4036373  )
       134        C      tau( 134) = (  -0.1230479   0.2525128   0.2308347  )
       135        C      tau( 135) = (  -0.3161706   0.4464324   0.0392031  )
       136        C      tau( 136) = (  -0.5088800   0.6369244  -0.1548968  )
       137        C      tau( 137) = (   0.0131308   0.5245266   0.3668018  )
       138        C      tau( 138) = (  -0.1670459   0.7187877   0.1763093  )
       139        C      tau( 139) = (  -0.3717336   0.9086859  -0.0175472  )
       140        C      tau( 140) = (   0.1494581   0.7967595   0.5032146  )
       141        C      tau( 141) = (  -0.0432587   0.9890726   0.3104343  )
       142        C      tau( 142) = (  -0.2356485   1.1815279   0.1180721  )
       143        C      tau( 143) = (  -0.3585869   0.2519990   0.4667045  )
       144        C      tau( 144) = (  -0.5517101   0.4438775   0.2744914  )
       145        C      tau( 145) = (  -0.7427656   0.6372933   0.0817089  )
       146        C      tau( 146) = (  -0.2225836   0.5244489   0.6023049  )
       147        C      tau( 147) = (  -0.4150137   0.7164764   0.4080881  )
       148        C      tau( 148) = (  -0.6087275   0.9097147   0.2177420  )
       149        C      tau( 149) = (  -0.0865138   0.7965614   0.7384457  )
       150        C      tau( 150) = (  -0.2789227   0.9890216   0.5460283  )
       151        C      tau( 151) = (  -0.4712283   1.1816609   0.3538079  )
       152        C      tau( 152) = (  -0.5944580   0.2524398   0.7022688  )
       153        C      tau( 153) = (  -0.7868569   0.4448734   0.5098150  )
       154        C      tau( 154) = (  -0.9790531   0.6372132   0.3171853  )
       155        C      tau( 155) = (  -0.4579240   0.5243080   0.8381459  )
       156        C      tau( 156) = (  -0.6507610   0.7169485   0.6458127  )
       157        C      tau( 157) = (  -0.8431256   0.9093351   0.4533564  )
       158        C      tau( 158) = (  -0.3221661   0.7966442   0.9743309  )
       159        C      tau( 159) = (  -0.5142972   0.9893810   0.7817561  )
       160        C      tau( 160) = (  -0.7070950   1.1814557   0.5894881  )
       161        C      tau( 161) = (  -0.2872703   0.2126658   0.0666123  )
       162        C      tau( 162) = (  -0.4795695   0.4049774  -0.1258986  )
       163        C      tau( 163) = (  -0.6723491   0.5973556  -0.3185927  )
       164        C      tau( 164) = (  -0.1523482   0.4861824   0.2030254  )
       165        C      tau( 165) = (  -0.3454643   0.6754962  -0.0021091  )
       166        C      tau( 166) = (  -0.5359209   0.8695327  -0.1822279  )
       167        C      tau( 167) = (  -0.0142088   0.7569518   0.3397745  )
       168        C      tau( 168) = (  -0.2077638   0.9484717   0.1464226  )
       169        C      tau( 169) = (  -0.3999231   1.1416682  -0.0462025  )
       170        C      tau( 170) = (  -0.5230095   0.2121034   0.3022818  )
       171        C      tau( 171) = (  -0.7150604   0.4049540   0.1098282  )
       172        C      tau( 172) = (  -0.9075547   0.5973435  -0.0825952  )
       173        C      tau( 173) = (  -0.3870415   0.4838328   0.4391600  )
       174        C      tau( 174) = (  -0.5771613   0.6771328   0.2459406  )
       175        C      tau( 175) = (  -0.7715050   0.8695011   0.0534461  )
       176        C      tau( 176) = (  -0.2508236   0.7566584   0.5736509  )
       177        C      tau( 177) = (  -0.4433443   0.9498434   0.3831253  )
       178        C      tau( 178) = (  -0.6356858   1.1417568   0.1893505  )
       179        C      tau( 179) = (  -0.7586865   0.2125913   0.5380402  )
       180        C      tau( 180) = (  -0.9508538   0.4047032   0.3452160  )
       181        C      tau( 181) = (  -1.1434528   0.5973666   0.1530443  )
       182        C      tau( 182) = (  -0.6225948   0.4847301   0.6740771  )
       183        C      tau( 183) = (  -0.8149406   0.6771119   0.4816331  )
       184        C      tau( 184) = (  -1.0073073   0.8697567   0.2887460  )
       185        C      tau( 185) = (  -0.4863044   0.7567741   0.8099340  )
       186        C      tau( 186) = (  -0.6788344   0.9491988   0.6176477  )
       187        C      tau( 187) = (  -0.8713229   1.1416073   0.4252602  )
       188        C      tau( 188) = (  -0.1016536   0.3491193   0.0169431  )
       189        C      tau( 189) = (  -0.2933469   0.5400439  -0.1766704  )
       190        C      tau( 190) = (  -0.4862715   0.7335501  -0.3682699  )
       191        C      tau( 191) = (   0.0359405   0.6199424   0.1526170  )
       192        C      tau( 192) = (  -0.1580442   0.8126347  -0.0391341  )
       193        C      tau( 193) = (  -0.3501057   1.0055649  -0.2321230  )
       194        C      tau( 194) = (   0.1709345   0.8930150   0.2889361  )
       195        C      tau( 195) = (  -0.0215400   1.0852883   0.0964427  )
       196        C      tau( 196) = (  -0.2140142   1.2776581  -0.0959976  )
       197        C      tau( 197) = (  -0.3371095   0.3474153   0.2528124  )
       198        C      tau( 198) = (  -0.5274867   0.5414184   0.0605511  )
       199        C      tau( 199) = (  -0.7216966   0.7334219  -0.1324415  )
       200        C      tau( 200) = (  -0.2015169   0.6205120   0.3865210  )
       201        C      tau( 201) = (  -0.3995649   0.8233018   0.1997984  )
       202        C      tau( 202) = (  -0.5857045   1.0055437   0.0035663  )
       203        C      tau( 203) = (  -0.0648522   0.8927991   0.5244029  )
       204        C      tau( 204) = (  -0.2572218   1.0852470   0.3320491  )
       205        C      tau( 205) = (  -0.4496942   1.2781797   0.1395558  )
       206        C      tau( 206) = (  -0.5728664   0.3483158   0.4883508  )
       207        C      tau( 207) = (  -0.7648564   0.5410001   0.2956703  )
       208        C      tau( 208) = (  -0.9573529   0.7333947   0.1032542  )
       209        C      tau( 209) = (  -0.4366019   0.6206480   0.6239249  )
       210        C      tau( 210) = (  -0.6289686   0.8131440   0.4316668  )
       211        C      tau( 211) = (  -0.8218175   1.0057118   0.2392322  )
       212        C      tau( 212) = (  -0.3005404   0.8927641   0.7600667  )
       213        C      tau( 213) = (  -0.4929401   1.0855109   0.5681097  )
       214        C      tau( 214) = (  -0.6853811   1.2777430   0.3753487  )
       215        N      tau( 215) = (  -0.3683841   0.5724535   0.2294836  )

     number of k points=     1
                       cart. coord. in units 2pi/alat
        k(    1) = (   0.0000000   0.0000000   0.0000000), wk =   1.0000000

     Dense  grid:   338755 G-vectors     FFT dimensions: (  90,  90,  90)

     Occupations read from input 

      Spin-up

        1.0000   1.0000   1.0000   1.0000   1.0000   1.0000   1.0000   1.0000
        1.0000   1.0000   1.0000   1.0000   1.0000   1.0000   1.0000   1.0000
        1.0000   1.0000   1.0000   1.0000   1.0000   1.0000   1.0000   1.0000
        1.0000   1.0000   1.0000   1.0000   1.0000   1.0000   1.0000   1.0000
        1.0000   1.0000   1.0000   1.0000   1.0000   1.0000   1.0000   1.0000
        1.0000   1.0000   1.0000   1.0000   1.0000   1.0000   1.0000   1.0000
        1.0000   1.0000   1.0000   1.0000   1.0000   1.0000   1.0000   1.0000
        1.0000   1.0000   1.0000   1.0000   1.0000   1.0000   1.0000   1.0000
        1.0000   1.0000   1.0000   1.0000   1.0000   1.0000   1.0000   1.0000
        1.0000   1.0000   1.0000   1.0000   1.0000   1.0000   1.0000   1.0000
        1.0000   1.0000   1.0000   1.0000   1.0000   1.0000   1.0000   1.0000
        1.0000   1.0000   1.0000   1.0000   1.0000   1.0000   1.0000   1.0000
        1.0000   1.0000   1.0000   1.0000   1.0000   1.0000   1.0000   1.0000
        1.0000   1.0000   1.0000   1.0000   1.0000   1.0000   1.0000   1.0000
        1.0000   1.0000   1.0000   1.0000   1.0000   1.0000   1.0000   1.0000
        1.0000   1.0000   1.0000   1.0000   1.0000   1.0000   1.0000   1.0000
        1.0000   1.0000   1.0000   1.0000   1.0000   1.0000   1.0000   1.0000
        1.0000   1.0000   1.0000   1.0000   1.0000   1.0000   1.0000   1.0000
        1.0000   1.0000   1.0000   1.0000   1.0000   1.0000   1.0000   1.0000
        1.0000   1.0000   1.0000   1.0000   1.0000   1.0000   1.0000   1.0000
        1.0000   1.0000   1.0000   1.0000   1.0000   1.0000   1.0000   1.0000
        1.0000   1.0000   1.0000   1.0000   1.0000   1.0000   1.0000   1.0000
        1.0000   1.0000   1.0000   1.0000   1.0000   1.0000   1.0000   1.0000
        1.0000   1.0000   1.0000   1.0000   1.0000   1.0000   1.0000   1.0000
        1.0000   1.0000   1.0000   1.0000   1.0000   1.0000   1.0000   1.0000
        1.0000   1.0000   1.0000   1.0000   1.0000   1.0000   1.0000   1.0000
        1.0000   1.0000   1.0000   1.0000   1.0000   1.0000   1.0000   1.0000
        1.0000   1.0000   1.0000   1.0000   1.0000   1.0000   1.0000   1.0000
        1.0000   1.0000   1.0000   1.0000   1.0000   1.0000   1.0000   1.0000
        1.0000   1.0000   1.0000   1.0000   1.0000   1.0000   1.0000   1.0000
        1.0000   1.0000   1.0000   1.0000   1.0000   1.0000   1.0000   1.0000
        1.0000   1.0000   1.0000   1.0000   1.0000   1.0000   1.0000   1.0000
        1.0000   1.0000   1.0000   1.0000   1.0000   1.0000   1.0000   1.0000
        1.0000   1.0000   1.0000   1.0000   1.0000   1.0000   1.0000   1.0000
        1.0000   1.0000   1.0000   1.0000   1.0000   1.0000   1.0000   1.0000
        1.0000   1.0000   1.0000   1.0000   1.0000   1.0000   1.0000   1.0000
        1.0000   1.0000   1.0000   1.0000   1.0000   1.0000   1.0000   1.0000
        1.0000   1.0000   1.0000   1.0000   1.0000   1.0000   1.0000   1.0000
        1.0000   1.0000   1.0000   1.0000   1.0000   1.0000   1.0000   1.0000
        1.0000   1.0000   1.0000   1.0000   1.0000   1.0000   1.0000   1.0000
        1.0000   1.0000   1.0000   1.0000   1.0000   1.0000   1.0000   1.0000
        1.0000   1.0000   1.0000   1.0000   1.0000   1.0000   1.0000   1.0000
        1.0000   1.0000   1.0000   1.0000   1.0000   1.0000   1.0000   1.0000
        1.0000   1.0000   1.0000   1.0000   1.0000   1.0000   1.0000   1.0000
        1.0000   1.0000   1.0000   1.0000   1.0000   1.0000   1.0000   1.0000
        1.0000   1.0000   1.0000   1.0000   1.0000   1.0000   1.0000   1.0000
        1.0000   1.0000   1.0000   1.0000   1.0000   1.0000   1.0000   1.0000
        1.0000   1.0000   1.0000   1.0000   1.0000   1.0000   1.0000   1.0000
        1.0000   1.0000   1.0000   1.0000   1.0000   1.0000   1.0000   1.0000
        1.0000   1.0000   1.0000   1.0000   1.0000   1.0000   1.0000   1.0000
        1.0000   1.0000   1.0000   1.0000   1.0000   1.0000   1.0000   1.0000
        1.0000   1.0000   1.0000   1.0000   1.0000   1.0000   1.0000   1.0000
        1.0000   1.0000   1.0000   1.0000   1.0000   1.0000   1.0000   1.0000
        1.0000   1.0000   1.0000   1.0000   1.0000   1.0000   1.0000   1.0000
        0.0000   0.0000   0.0000   0.0000   0.0000   0.0000   0.0000   0.0000
        0.0000   0.0000   0.0000   0.0000   0.0000   0.0000   0.0000   0.0000
        0.0000   0.0000   0.0000   0.0000   0.0000   0.0000   0.0000   0.0000
        0.0000   0.0000   0.0000   0.0000   0.0000   0.0000   0.0000   0.0000
        0.0000   0.0000   0.0000   0.0000   0.0000   0.0000   0.0000   0.0000
        0.0000   0.0000   0.0000   0.0000   0.0000   0.0000   0.0000   0.0000
        0.0000   0.0000   0.0000   0.0000   0.0000   0.0000   0.0000   0.0000
        0.0000   0.0000   0.0000   0.0000   0.0000   0.0000   0.0000   0.0000
        0.0000   0.0000   0.0000   0.0000   0.0000   0.0000   0.0000   0.0000
        0.0000   0.0000   0.0000   0.0000   0.0000   0.0000   0.0000   0.0000
        0.0000   0.0000   0.0000   0.0000   0.0000   0.0000   0.0000   0.0000
        0.0000   0.0000   0.0000   0.0000   0.0000   0.0000   0.0000   0.0000
        0.0000   0.0000   0.0000   0.0000   0.0000   0.0000   0.0000   0.0000
        0.0000   0.0000   0.0000   0.0000   0.0000   0.0000   0.0000   0.0000
        0.0000   0.0000   0.0000   0.0000   0.0000   0.0000   0.0000   0.0000
        0.0000   0.0000   0.0000   0.0000   0.0000   0.0000   0.0000   0.0000
        0.0000   0.0000   0.0000   0.0000   0.0000   0.0000   0.0000   0.0000
        0.0000   0.0000   0.0000   0.0000   0.0000   0.0000   0.0000   0.0000
        0.0000   0.0000   0.0000   0.0000   0.0000   0.0000   0.0000   0.0000
        0.0000   0.0000   0.0000   0.0000   0.0000   0.0000   0.0000   0.0000
        0.0000   0.0000   0.0000   0.0000   0.0000   0.0000   0.0000   0.0000
        0.0000   0.0000   0.0000   0.0000   0.0000   0.0000   0.0000   0.0000
        0.0000   0.0000   0.0000   0.0000   0.0000   0.0000   0.0000   0.0000
        0.0000   0.0000   0.0000   0.0000   0.0000   0.0000   0.0000   0.0000
        0.0000   0.0000   0.0000   0.0000   0.0000   0.0000   0.0000   0.0000
        0.0000   0.0000   0.0000   0.0000   0.0000   0.0000   0.0000   0.0000
        0.0000   0.0000   0.0000   0.0000   0.0000   0.0000   0.0000   0.0000
        0.0000   0.0000   0.0000   0.0000   0.0000   0.0000   0.0000   0.0000
        0.0000   0.0000   0.0000   0.0000   0.0000   0.0000   0.0000   0.0000
        0.0000   0.0000   0.0000   0.0000   0.0000   0.0000   0.0000   0.0000
        0.0000   0.0000   0.0000   0.0000   0.0000   0.0000   0.0000   0.0000
        0.0000   0.0000   0.0000   0.0000   0.0000   0.0000   0.0000   0.0000
        0.0000   0.0000   0.0000   0.0000   0.0000   0.0000   0.0000   0.0000
        0.0000   0.0000   0.0000   0.0000   0.0000   0.0000   0.0000   0.0000
        0.0000   0.0000   0.0000   0.0000   0.0000   0.0000   0.0000   0.0000
        0.0000   0.0000   0.0000   0.0000   0.0000   0.0000   0.0000   0.0000
        0.0000   0.0000   0.0000   0.0000   0.0000   0.0000   0.0000   0.0000
        0.0000   0.0000   0.0000   0.0000   0.0000   0.0000   0.0000   0.0000
        0.0000   0.0000   0.0000   0.0000   0.0000   0.0000   0.0000   0.0000
        0.0000   0.0000   0.0000   0.0000   0.0000   0.0000   0.0000   0.0000
        0.0000   0.0000   0.0000   0.0000   0.0000   0.0000   0.0000   0.0000
        0.0000   0.0000   0.0000   0.0000   0.0000   0.0000   0.0000   0.0000
        0.0000   0.0000   0.0000   0.0000   0.0000   0.0000   0.0000   0.0000
        0.0000   0.0000   0.0000   0.0000   0.0000   0.0000   0.0000   0.0000
        0.0000   0.0000   0.0000   0.0000   0.0000   0.0000   0.0000   0.0000
        0.0000   0.0000   0.0000   0.0000   0.0000   0.0000   0.0000   0.0000
        0.0000   0.0000   0.0000   0.0000   0.0000   0.0000   0.0000   0.0000
        0.0000   0.0000   0.0000   0.0000   0.0000   0.0000   0.0000   0.0000
        0.0000   0.0000   0.0000   0.0000   0.0000   0.0000   0.0000   0.0000
        0.0000   0.0000   0.0000   0.0000   0.0000   0.0000   0.0000   0.0000
        0.0000   0.0000   0.0000   0.0000   0.0000   0.0000   0.0000   0.0000
        0.0000   0.0000   0.0000   0.0000   0.0000   0.0000   0.0000   0.0000
        0.0000   0.0000   0.0000   0.0000   0.0000   0.0000   0.0000   0.0000
        0.0000   0.0000   0.0000   0.0000   0.0000   0.0000

      Spin-down

        1.0000   1.0000   1.0000   1.0000   1.0000   1.0000   1.0000   1.0000
        1.0000   1.0000   1.0000   1.0000   1.0000   1.0000   1.0000   1.0000
        1.0000   1.0000   1.0000   1.0000   1.0000   1.0000   1.0000   1.0000
        1.0000   1.0000   1.0000   1.0000   1.0000   1.0000   1.0000   1.0000
        1.0000   1.0000   1.0000   1.0000   1.0000   1.0000   1.0000   1.0000
        1.0000   1.0000   1.0000   1.0000   1.0000   1.0000   1.0000   1.0000
        1.0000   1.0000   1.0000   1.0000   1.0000   1.0000   1.0000   1.0000
        1.0000   1.0000   1.0000   1.0000   1.0000   1.0000   1.0000   1.0000
        1.0000   1.0000   1.0000   1.0000   1.0000   1.0000   1.0000   1.0000
        1.0000   1.0000   1.0000   1.0000   1.0000   1.0000   1.0000   1.0000
        1.0000   1.0000   1.0000   1.0000   1.0000   1.0000   1.0000   1.0000
        1.0000   1.0000   1.0000   1.0000   1.0000   1.0000   1.0000   1.0000
        1.0000   1.0000   1.0000   1.0000   1.0000   1.0000   1.0000   1.0000
        1.0000   1.0000   1.0000   1.0000   1.0000   1.0000   1.0000   1.0000
        1.0000   1.0000   1.0000   1.0000   1.0000   1.0000   1.0000   1.0000
        1.0000   1.0000   1.0000   1.0000   1.0000   1.0000   1.0000   1.0000
        1.0000   1.0000   1.0000   1.0000   1.0000   1.0000   1.0000   1.0000
        1.0000   1.0000   1.0000   1.0000   1.0000   1.0000   1.0000   1.0000
        1.0000   1.0000   1.0000   1.0000   1.0000   1.0000   1.0000   1.0000
        1.0000   1.0000   1.0000   1.0000   1.0000   1.0000   1.0000   1.0000
        1.0000   1.0000   1.0000   1.0000   1.0000   1.0000   1.0000   1.0000
        1.0000   1.0000   1.0000   1.0000   1.0000   1.0000   1.0000   1.0000
        1.0000   1.0000   1.0000   1.0000   1.0000   1.0000   1.0000   1.0000
        1.0000   1.0000   1.0000   1.0000   1.0000   1.0000   1.0000   1.0000
        1.0000   1.0000   1.0000   1.0000   1.0000   1.0000   1.0000   1.0000
        1.0000   1.0000   1.0000   1.0000   1.0000   1.0000   1.0000   1.0000
        1.0000   1.0000   1.0000   1.0000   1.0000   1.0000   1.0000   1.0000
        1.0000   1.0000   1.0000   1.0000   1.0000   1.0000   1.0000   1.0000
        1.0000   1.0000   1.0000   1.0000   1.0000   1.0000   1.0000   1.0000
        1.0000   1.0000   1.0000   1.0000   1.0000   1.0000   1.0000   1.0000
        1.0000   1.0000   1.0000   1.0000   1.0000   1.0000   1.0000   1.0000
        1.0000   1.0000   1.0000   1.0000   1.0000   1.0000   1.0000   1.0000
        1.0000   1.0000   1.0000   1.0000   1.0000   1.0000   1.0000   1.0000
        1.0000   1.0000   1.0000   1.0000   1.0000   1.0000   1.0000   1.0000
        1.0000   1.0000   1.0000   1.0000   1.0000   1.0000   1.0000   1.0000
        1.0000   1.0000   1.0000   1.0000   1.0000   1.0000   1.0000   1.0000
        1.0000   1.0000   1.0000   1.0000   1.0000   1.0000   1.0000   1.0000
        1.0000   1.0000   1.0000   1.0000   1.0000   1.0000   1.0000   1.0000
        1.0000   1.0000   1.0000   1.0000   1.0000   1.0000   1.0000   1.0000
        1.0000   1.0000   1.0000   1.0000   1.0000   1.0000   1.0000   1.0000
        1.0000   1.0000   1.0000   1.0000   1.0000   1.0000   1.0000   1.0000
        1.0000   1.0000   1.0000   1.0000   1.0000   1.0000   1.0000   1.0000
        1.0000   1.0000   1.0000   1.0000   1.0000   1.0000   1.0000   1.0000
        1.0000   1.0000   1.0000   1.0000   1.0000   1.0000   1.0000   1.0000
        1.0000   1.0000   1.0000   1.0000   1.0000   1.0000   1.0000   1.0000
        1.0000   1.0000   1.0000   1.0000   1.0000   1.0000   1.0000   1.0000
        1.0000   1.0000   1.0000   1.0000   1.0000   1.0000   1.0000   1.0000
        1.0000   1.0000   1.0000   1.0000   1.0000   1.0000   1.0000   1.0000
        1.0000   1.0000   1.0000   1.0000   1.0000   1.0000   1.0000   1.0000
        1.0000   1.0000   1.0000   1.0000   1.0000   1.0000   1.0000   1.0000
        1.0000   1.0000   1.0000   1.0000   1.0000   1.0000   1.0000   1.0000
        1.0000   1.0000   1.0000   1.0000   1.0000   1.0000   1.0000   1.0000
        1.0000   1.0000   1.0000   1.0000   1.0000   1.0000   1.0000   1.0000
        1.0000   1.0000   1.0000   1.0000   1.0000   0.0000   0.5000   0.5000
        0.0000   0.0000   0.0000   0.0000   0.0000   0.0000   0.0000   0.0000
        0.0000   0.0000   0.0000   0.0000   0.0000   0.0000   0.0000   0.0000
        0.0000   0.0000   0.0000   0.0000   0.0000   0.0000   0.0000   0.0000
        0.0000   0.0000   0.0000   0.0000   0.0000   0.0000   0.0000   0.0000
        0.0000   0.0000   0.0000   0.0000   0.0000   0.0000   0.0000   0.0000
        0.0000   0.0000   0.0000   0.0000   0.0000   0.0000   0.0000   0.0000
        0.0000   0.0000   0.0000   0.0000   0.0000   0.0000   0.0000   0.0000
        0.0000   0.0000   0.0000   0.0000   0.0000   0.0000   0.0000   0.0000
        0.0000   0.0000   0.0000   0.0000   0.0000   0.0000   0.0000   0.0000
        0.0000   0.0000   0.0000   0.0000   0.0000   0.0000   0.0000   0.0000
        0.0000   0.0000   0.0000   0.0000   0.0000   0.0000   0.0000   0.0000
        0.0000   0.0000   0.0000   0.0000   0.0000   0.0000   0.0000   0.0000
        0.0000   0.0000   0.0000   0.0000   0.0000   0.0000   0.0000   0.0000
        0.0000   0.0000   0.0000   0.0000   0.0000   0.0000   0.0000   0.0000
        0.0000   0.0000   0.0000   0.0000   0.0000   0.0000   0.0000   0.0000
        0.0000   0.0000   0.0000   0.0000   0.0000   0.0000   0.0000   0.0000
        0.0000   0.0000   0.0000   0.0000   0.0000   0.0000   0.0000   0.0000
        0.0000   0.0000   0.0000   0.0000   0.0000   0.0000   0.0000   0.0000
        0.0000   0.0000   0.0000   0.0000   0.0000   0.0000   0.0000   0.0000
        0.0000   0.0000   0.0000   0.0000   0.0000   0.0000   0.0000   0.0000
        0.0000   0.0000   0.0000   0.0000   0.0000   0.0000   0.0000   0.0000
        0.0000   0.0000   0.0000   0.0000   0.0000   0.0000   0.0000   0.0000
        0.0000   0.0000   0.0000   0.0000   0.0000   0.0000   0.0000   0.0000
        0.0000   0.0000   0.0000   0.0000   0.0000   0.0000   0.0000   0.0000
        0.0000   0.0000   0.0000   0.0000   0.0000   0.0000   0.0000   0.0000
        0.0000   0.0000   0.0000   0.0000   0.0000   0.0000   0.0000   0.0000
        0.0000   0.0000   0.0000   0.0000   0.0000   0.0000   0.0000   0.0000
        0.0000   0.0000   0.0000   0.0000   0.0000   0.0000   0.0000   0.0000
        0.0000   0.0000   0.0000   0.0000   0.0000   0.0000   0.0000   0.0000
        0.0000   0.0000   0.0000   0.0000   0.0000   0.0000   0.0000   0.0000
        0.0000   0.0000   0.0000   0.0000   0.0000   0.0000   0.0000   0.0000
        0.0000   0.0000   0.0000   0.0000   0.0000   0.0000   0.0000   0.0000
        0.0000   0.0000   0.0000   0.0000   0.0000   0.0000   0.0000   0.0000
        0.0000   0.0000   0.0000   0.0000   0.0000   0.0000   0.0000   0.0000
        0.0000   0.0000   0.0000   0.0000   0.0000   0.0000   0.0000   0.0000
        0.0000   0.0000   0.0000   0.0000   0.0000   0.0000   0.0000   0.0000
        0.0000   0.0000   0.0000   0.0000   0.0000   0.0000   0.0000   0.0000
        0.0000   0.0000   0.0000   0.0000   0.0000   0.0000   0.0000   0.0000
        0.0000   0.0000   0.0000   0.0000   0.0000   0.0000   0.0000   0.0000
        0.0000   0.0000   0.0000   0.0000   0.0000   0.0000   0.0000   0.0000
        0.0000   0.0000   0.0000   0.0000   0.0000   0.0000   0.0000   0.0000
        0.0000   0.0000   0.0000   0.0000   0.0000   0.0000   0.0000   0.0000
        0.0000   0.0000   0.0000   0.0000   0.0000   0.0000   0.0000   0.0000
        0.0000   0.0000   0.0000   0.0000   0.0000   0.0000   0.0000   0.0000
        0.0000   0.0000   0.0000   0.0000   0.0000   0.0000   0.0000   0.0000
        0.0000   0.0000   0.0000   0.0000   0.0000   0.0000   0.0000   0.0000
        0.0000   0.0000   0.0000   0.0000   0.0000   0.0000   0.0000   0.0000
        0.0000   0.0000   0.0000   0.0000   0.0000   0.0000   0.0000   0.0000
        0.0000   0.0000   0.0000   0.0000   0.0000   0.0000   0.0000   0.0000
        0.0000   0.0000   0.0000   0.0000   0.0000   0.0000   0.0000   0.0000
        0.0000   0.0000   0.0000   0.0000   0.0000   0.0000   0.0000   0.0000
        0.0000   0.0000   0.0000   0.0000   0.0000   0.0000   0.0000   0.0000
        0.0000   0.0000   0.0000   0.0000   0.0000   0.0000   0.0000   0.0000
        0.0000   0.0000   0.0000   0.0000   0.0000   0.0000

     Estimated max dynamical RAM per process >     230.54 MB

     Estimated total dynamical RAM >       7.20 GB

     Check: negative core charge=   -0.000075
     Generating pointlists ...
     new r_m :   0.0572 (alat units)  1.1579 (a.u.) for type    1
     new r_m :   0.0572 (alat units)  1.1579 (a.u.) for type    2

     Initial potential from superposition of free atoms

     starting charge     860.9911, renormalised to     862.0000
     Starting wfcs are random
     Checking if some PAW data can be deallocated... 

     total cpu time spent up to now is        6.4 secs

     per-process dynamical memory:   142.8 Mb

     Self-consistent Calculation

     iteration #  1     ecut=    45.00 Ry     beta= 0.70
     Davidson diagonalization with overlap
     ethr =  1.00E-02,  avg # of iterations =  8.5

     total cpu time spent up to now is       78.1 secs

     total energy              =   -3970.07385893 Ry
     estimated scf accuracy    <      12.73620857 Ry

     total magnetization       =     2.00 Bohr mag/cell
     absolute magnetization    =     2.13 Bohr mag/cell

     iteration #  2     ecut=    45.00 Ry     beta= 0.70
     Davidson diagonalization with overlap
     ethr =  1.48E-03,  avg # of iterations =  5.0

     total cpu time spent up to now is       98.0 secs

     total energy              =   -3968.04624458 Ry
     estimated scf accuracy    <       5.27049222 Ry

     total magnetization       =     2.00 Bohr mag/cell
     absolute magnetization    =     2.35 Bohr mag/cell

     iteration #  3     ecut=    45.00 Ry     beta= 0.70
     Davidson diagonalization with overlap
     ethr =  6.11E-04,  avg # of iterations =  5.0

     total cpu time spent up to now is      126.2 secs

     total energy              =   -3969.12677017 Ry
     estimated scf accuracy    <      20.35106273 Ry

     total magnetization       =     2.00 Bohr mag/cell
     absolute magnetization    =     2.12 Bohr mag/cell

     iteration #  4     ecut=    45.00 Ry     beta= 0.70
     Davidson diagonalization with overlap
     ethr =  6.11E-04,  avg # of iterations =  6.0

     total cpu time spent up to now is      149.4 secs

     total energy              =   -3971.11720878 Ry
     estimated scf accuracy    <       1.27658546 Ry

     total magnetization       =     2.00 Bohr mag/cell
     absolute magnetization    =     2.08 Bohr mag/cell

     iteration #  5     ecut=    45.00 Ry     beta= 0.70
     Davidson diagonalization with overlap
     ethr =  1.48E-04,  avg # of iterations =  7.0

     total cpu time spent up to now is      170.9 secs

     total energy              =   -3971.22327360 Ry
     estimated scf accuracy    <       0.31699118 Ry

     total magnetization       =     2.00 Bohr mag/cell
     absolute magnetization    =     2.07 Bohr mag/cell

     iteration #  6     ecut=    45.00 Ry     beta= 0.70
     Davidson diagonalization with overlap
     ethr =  3.68E-05,  avg # of iterations = 11.5

     total cpu time spent up to now is      194.9 secs

     total energy              =   -3971.21340554 Ry
     estimated scf accuracy    <       0.11819948 Ry

     total magnetization       =     2.00 Bohr mag/cell
     absolute magnetization    =     2.10 Bohr mag/cell

     iteration #  7     ecut=    45.00 Ry     beta= 0.70
     Davidson diagonalization with overlap
     ethr =  1.37E-05,  avg # of iterations =  6.0

     total cpu time spent up to now is      215.5 secs

     total energy              =   -3971.21960587 Ry
     estimated scf accuracy    <       0.02154844 Ry

     total magnetization       =     2.00 Bohr mag/cell
     absolute magnetization    =     2.13 Bohr mag/cell

     iteration #  8     ecut=    45.00 Ry     beta= 0.70
     Davidson diagonalization with overlap
     c_bands:  1 eigenvalues not converged
     ethr =  2.50E-06,  avg # of iterations = 16.0

     total cpu time spent up to now is      245.5 secs

     total energy              =   -3971.22332177 Ry
     estimated scf accuracy    <       0.00262838 Ry

     total magnetization       =     2.00 Bohr mag/cell
     absolute magnetization    =     2.17 Bohr mag/cell

     iteration #  9     ecut=    45.00 Ry     beta= 0.70
     Davidson diagonalization with overlap
     ethr =  3.05E-07,  avg # of iterations =  3.0

     total cpu time spent up to now is      264.3 secs

     total energy              =   -3971.22393156 Ry
     estimated scf accuracy    <       0.00043358 Ry

     total magnetization       =     2.00 Bohr mag/cell
     absolute magnetization    =     2.18 Bohr mag/cell

     iteration # 10     ecut=    45.00 Ry     beta= 0.70
     Davidson diagonalization with overlap
     ethr =  5.03E-08,  avg # of iterations =  2.0

     total cpu time spent up to now is      282.6 secs

     total energy              =   -3971.22406351 Ry
     estimated scf accuracy    <       0.00009145 Ry

     total magnetization       =     2.00 Bohr mag/cell
     absolute magnetization    =     2.19 Bohr mag/cell

     iteration # 11     ecut=    45.00 Ry     beta= 0.70
     Davidson diagonalization with overlap
     ethr =  1.06E-08,  avg # of iterations =  2.5

     total cpu time spent up to now is      301.3 secs

     total energy              =   -3971.22409174 Ry
     estimated scf accuracy    <       0.00002774 Ry

     total magnetization       =     2.00 Bohr mag/cell
     absolute magnetization    =     2.20 Bohr mag/cell

     iteration # 12     ecut=    45.00 Ry     beta= 0.70
     Davidson diagonalization with overlap
     ethr =  3.22E-09,  avg # of iterations =  2.0

     total cpu time spent up to now is      319.5 secs

     total energy              =   -3971.22409960 Ry
     estimated scf accuracy    <       0.00000431 Ry

     total magnetization       =     2.00 Bohr mag/cell
     absolute magnetization    =     2.20 Bohr mag/cell

     iteration # 13     ecut=    45.00 Ry     beta= 0.70
     Davidson diagonalization with overlap
     ethr =  5.00E-10,  avg # of iterations =  3.0

     total cpu time spent up to now is      338.7 secs

     total energy              =   -3971.22410093 Ry
     estimated scf accuracy    <       0.00000143 Ry

     total magnetization       =     2.00 Bohr mag/cell
     absolute magnetization    =     2.21 Bohr mag/cell

     iteration # 14     ecut=    45.00 Ry     beta= 0.70
     Davidson diagonalization with overlap
     ethr =  1.66E-10,  avg # of iterations =  2.5

     total cpu time spent up to now is      357.3 secs

     total energy              =   -3971.22410131 Ry
     estimated scf accuracy    <       0.00000021 Ry

     total magnetization       =     2.00 Bohr mag/cell
     absolute magnetization    =     2.21 Bohr mag/cell

     iteration # 15     ecut=    45.00 Ry     beta= 0.70
     Davidson diagonalization with overlap
     ethr =  2.43E-11,  avg # of iterations =  3.0

     total cpu time spent up to now is      376.2 secs

     total energy              =   -3971.22410138 Ry
     estimated scf accuracy    <       0.00000010 Ry

     total magnetization       =     2.00 Bohr mag/cell
     absolute magnetization    =     2.21 Bohr mag/cell

     iteration # 16     ecut=    45.00 Ry     beta= 0.70
     Davidson diagonalization with overlap
     ethr =  1.14E-11,  avg # of iterations =  2.0
 
     Magnetic moment per site  (integrated on atomic sphere of radius R)
     atom   1 (R=0.057)  charge=  1.8430  magn=  0.0001
     atom   2 (R=0.057)  charge=  1.8435  magn= -0.0000
     atom   3 (R=0.057)  charge=  1.8443  magn=  0.0000
     atom   4 (R=0.057)  charge=  1.8435  magn= -0.0000
     atom   5 (R=0.057)  charge=  1.8423  magn= -0.0002
     atom   6 (R=0.057)  charge=  1.8427  magn= -0.0009
     atom   7 (R=0.057)  charge=  1.8443  magn=  0.0000
     atom   8 (R=0.057)  charge=  1.8427  magn= -0.0009
     atom   9 (R=0.057)  charge=  1.8424  magn= -0.0003
     atom  10 (R=0.057)  charge=  1.8488  magn=  0.0016
     atom  11 (R=0.057)  charge=  1.8443  magn= -0.0001
     atom  12 (R=0.057)  charge=  1.8443  magn= -0.0001
     atom  13 (R=0.057)  charge=  1.8443  magn= -0.0001
     atom  14 (R=0.057)  charge=  1.8138  magn=  0.0003
     atom  15 (R=0.057)  charge=  1.8466  magn= -0.0030
     atom  16 (R=0.057)  charge=  1.8443  magn= -0.0001
     atom  17 (R=0.057)  charge=  1.8466  magn= -0.0030
     atom  18 (R=0.057)  charge=  1.8467  magn=  0.0010
     atom  19 (R=0.057)  charge=  1.8428  magn=  0.0001
     atom  20 (R=0.057)  charge=  1.8446  magn=  0.0000
     atom  21 (R=0.057)  charge=  1.8441  magn= -0.0001
     atom  22 (R=0.057)  charge=  1.8446  magn=  0.0000
     atom  23 (R=0.057)  charge=  1.8460  magn= -0.0002
     atom  24 (R=0.057)  charge=  1.8388  magn= -0.0002
     atom  25 (R=0.057)  charge=  1.8441  magn= -0.0001
     atom  26 (R=0.057)  charge=  1.8388  magn= -0.0002
     atom  27 (R=0.057)  charge=  1.8437  magn= -0.0009
     atom  28 (R=0.057)  charge=  1.8442  magn= -0.0001
     atom  29 (R=0.057)  charge=  1.8386  magn= -0.0002
     atom  30 (R=0.057)  charge=  1.8434  magn= -0.0009
     atom  31 (R=0.057)  charge=  1.8444  magn= -0.0001
     atom  32 (R=0.057)  charge=  1.8463  magn= -0.0030
     atom  33 (R=0.057)  charge=  1.8467  magn=  0.0010
     atom  34 (R=0.057)  charge=  1.8443  magn=  0.0000
     atom  35 (R=0.057)  charge=  1.8428  magn= -0.0009
     atom  36 (R=0.057)  charge=  1.8424  magn= -0.0003
     atom  37 (R=0.057)  charge=  1.8447  magn=  0.0000
     atom  38 (R=0.057)  charge=  1.8459  magn= -0.0002
     atom  39 (R=0.057)  charge=  1.8387  magn= -0.0002
     atom  40 (R=0.057)  charge=  1.8443  magn= -0.0001
     atom  41 (R=0.057)  charge=  1.8140  magn=  0.0003
     atom  42 (R=0.057)  charge=  1.8466  magn= -0.0030
     atom  43 (R=0.057)  charge=  1.8434  magn= -0.0000
     atom  44 (R=0.057)  charge=  1.8424  magn= -0.0002
     atom  45 (R=0.057)  charge=  1.8429  magn= -0.0009
     atom  46 (R=0.057)  charge=  1.8429  magn=  0.0001
     atom  47 (R=0.057)  charge=  1.8448  magn=  0.0000
     atom  48 (R=0.057)  charge=  1.8440  magn= -0.0001
     atom  49 (R=0.057)  charge=  1.8487  magn=  0.0016
     atom  50 (R=0.057)  charge=  1.8444  magn= -0.0001
     atom  51 (R=0.057)  charge=  1.8442  magn= -0.0001
     atom  52 (R=0.057)  charge=  1.8430  magn=  0.0001
     atom  53 (R=0.057)  charge=  1.8431  magn= -0.0000
     atom  54 (R=0.057)  charge=  1.8444  magn=  0.0000
     atom  55 (R=0.057)  charge=  1.8442  magn= -0.0001
     atom  56 (R=0.057)  charge=  1.8444  magn= -0.0001
     atom  57 (R=0.057)  charge=  1.8443  magn=  0.0000
     atom  58 (R=0.057)  charge=  1.8386  magn= -0.0002
     atom  59 (R=0.057)  charge=  1.8463  magn= -0.0030
     atom  60 (R=0.057)  charge=  1.8428  magn= -0.0009
     atom  61 (R=0.057)  charge=  1.8434  magn= -0.0009
     atom  62 (R=0.057)  charge=  1.8467  magn=  0.0010
     atom  63 (R=0.057)  charge=  1.8424  magn= -0.0003
     atom  64 (R=0.057)  charge=  1.8447  magn=  0.0000
     atom  65 (R=0.057)  charge=  1.8443  magn= -0.0001
     atom  66 (R=0.057)  charge=  1.8434  magn= -0.0000
     atom  67 (R=0.057)  charge=  1.8459  magn= -0.0002
     atom  68 (R=0.057)  charge=  1.8140  magn=  0.0003
     atom  69 (R=0.057)  charge=  1.8424  magn= -0.0002
     atom  70 (R=0.057)  charge=  1.8387  magn= -0.0002
     atom  71 (R=0.057)  charge=  1.8466  magn= -0.0030
     atom  72 (R=0.057)  charge=  1.8429  magn= -0.0009
     atom  73 (R=0.057)  charge=  1.8429  magn=  0.0001
     atom  74 (R=0.057)  charge=  1.8487  magn=  0.0016
     atom  75 (R=0.057)  charge=  1.8430  magn=  0.0001
     atom  76 (R=0.057)  charge=  1.8448  magn=  0.0000
     atom  77 (R=0.057)  charge=  1.8444  magn= -0.0001
     atom  78 (R=0.057)  charge=  1.8431  magn= -0.0000
     atom  79 (R=0.057)  charge=  1.8440  magn= -0.0001
     atom  80 (R=0.057)  charge=  1.8442  magn= -0.0001
     atom  81 (R=0.057)  charge=  1.8444  magn=  0.0000
     atom  82 (R=0.057)  charge=  1.8436  magn=  0.0000
     atom  83 (R=0.057)  charge=  1.8499  magn=  0.0020
     atom  84 (R=0.057)  charge=  1.8434  magn=  0.0000
     atom  85 (R=0.057)  charge=  1.8499  magn=  0.0020
     atom  86 (R=0.057)  charge=  1.8455  magn= -0.0008
     atom  87 (R=0.057)  charge=  1.8486  magn=  0.0036
     atom  88 (R=0.057)  charge=  1.8434  magn=  0.0000
     atom  89 (R=0.057)  charge=  1.8486  magn=  0.0036
     atom  90 (R=0.057)  charge=  1.8436  magn=  0.0005
     atom  91 (R=0.057)  charge=  1.8472  magn=  0.0011
     atom  92 (R=0.057)  charge=  1.8478  magn= -0.0006
     atom  93 (R=0.057)  charge=  1.8500  magn=  0.0020
     atom  94 (R=0.057)  charge=  1.8478  magn= -0.0006
     atom  95 (R=0.057)  charge=  1.8452  magn= -0.0008
     atom  96 (R=0.057)  charge=  1.8500  magn=  0.0020
     atom  97 (R=0.057)  charge=  1.8452  magn= -0.0008
     atom  98 (R=0.057)  charge=  1.8486  magn=  0.0036
     atom  99 (R=0.057)  charge=  1.8442  magn=  0.0001
     atom 100 (R=0.057)  charge=  1.8473  magn=  0.0011
     atom 101 (R=0.057)  charge=  1.8433  magn=  0.0000
     atom 102 (R=0.057)  charge=  1.8473  magn=  0.0011
     atom 103 (R=0.057)  charge=  1.8474  magn= -0.0006
     atom 104 (R=0.057)  charge=  1.8501  magn=  0.0020
     atom 105 (R=0.057)  charge=  1.8433  magn=  0.0000
     atom 106 (R=0.057)  charge=  1.8501  magn=  0.0020
     atom 107 (R=0.057)  charge=  1.8434  magn=  0.0000
     atom 108 (R=0.057)  charge=  1.8437  magn=  0.0002
     atom 109 (R=0.057)  charge=  1.8399  magn=  0.0001
     atom 110 (R=0.057)  charge=  1.8440  magn=  0.0013
     atom 111 (R=0.057)  charge=  1.8399  magn=  0.0001
     atom 112 (R=0.057)  charge=  1.8393  magn=  0.0053
     atom 113 (R=0.057)  charge=  1.8406  magn=  0.0157
     atom 114 (R=0.057)  charge=  1.8440  magn=  0.0013
     atom 115 (R=0.057)  charge=  1.8406  magn=  0.0157
     atom 116 (R=0.057)  charge=  1.8419  magn=  0.0008
     atom 117 (R=0.057)  charge=  1.8443  magn=  0.0009
     atom 118 (R=0.057)  charge=  1.8434  magn=  0.0010
     atom 119 (R=0.057)  charge=  1.8402  magn=  0.0001
     atom 120 (R=0.057)  charge=  1.8434  magn=  0.0010
     atom 121 (R=0.057)  charge=  1.8394  magn=  0.0053
     atom 122 (R=0.057)  charge=  1.8402  magn=  0.0001
     atom 123 (R=0.057)  charge=  1.8394  magn=  0.0053
     atom 124 (R=0.057)  charge=  1.8406  magn=  0.0157
     atom 125 (R=0.057)  charge=  1.8433  magn=  0.0007
     atom 126 (R=0.057)  charge=  1.8443  magn=  0.0009
     atom 127 (R=0.057)  charge=  1.8437  magn=  0.0002
     atom 128 (R=0.057)  charge=  1.8443  magn=  0.0009
     atom 129 (R=0.057)  charge=  1.8434  magn=  0.0010
     atom 130 (R=0.057)  charge=  1.8403  magn=  0.0001
     atom 131 (R=0.057)  charge=  1.8437  magn=  0.0002
     atom 132 (R=0.057)  charge=  1.8403  magn=  0.0001
     atom 133 (R=0.057)  charge=  1.8440  magn=  0.0013
     atom 134 (R=0.057)  charge=  1.8427  magn=  0.0001
     atom 135 (R=0.057)  charge=  1.8368  magn=  0.0040
     atom 136 (R=0.057)  charge=  1.8409  magn=  0.0156
     atom 137 (R=0.057)  charge=  1.8431  magn=  0.0012
     atom 138 (R=0.057)  charge=  1.8647  magn=  0.1927
     atom 139 (R=0.057)  charge=  1.8407  magn=  0.0048
     atom 140 (R=0.057)  charge=  1.8452  magn=  0.0014
     atom 141 (R=0.057)  charge=  1.8432  magn=  0.0010
     atom 142 (R=0.057)  charge=  1.8419  magn=  0.0002
     atom 143 (R=0.057)  charge=  1.8448  magn=  0.0011
     atom 144 (R=0.057)  charge=  1.8460  magn=  0.0074
     atom 145 (R=0.057)  charge=  1.8423  magn=  0.0001
     atom 146 (R=0.057)  charge=  1.8427  magn=  0.0001
     atom 147 (R=0.057)  charge=  1.8368  magn=  0.0040
     atom 148 (R=0.057)  charge=  1.8409  magn=  0.0156
     atom 149 (R=0.057)  charge=  1.8435  magn=  0.0003
     atom 150 (R=0.057)  charge=  1.8422  magn=  0.0001
     atom 151 (R=0.057)  charge=  1.8438  magn=  0.0011
     atom 152 (R=0.057)  charge=  1.8434  magn=  0.0003
     atom 153 (R=0.057)  charge=  1.8422  magn=  0.0001
     atom 154 (R=0.057)  charge=  1.8438  magn=  0.0011
     atom 155 (R=0.057)  charge=  1.8454  magn=  0.0014
     atom 156 (R=0.057)  charge=  1.8432  magn=  0.0010
     atom 157 (R=0.057)  charge=  1.8419  magn=  0.0002
     atom 158 (R=0.057)  charge=  1.8433  magn=  0.0006
     atom 159 (R=0.057)  charge=  1.8436  magn=  0.0017
     atom 160 (R=0.057)  charge=  1.8437  magn=  0.0003
     atom 161 (R=0.057)  charge=  1.8427  magn=  0.0001
     atom 162 (R=0.057)  charge=  1.8431  magn=  0.0012
     atom 163 (R=0.057)  charge=  1.8452  magn=  0.0014
     atom 164 (R=0.057)  charge=  1.8368  magn=  0.0040
     atom 165 (R=0.057)  charge=  1.8647  magn=  0.1927
     atom 166 (R=0.057)  charge=  1.8432  magn=  0.0010
     atom 167 (R=0.057)  charge=  1.8409  magn=  0.0156
     atom 168 (R=0.057)  charge=  1.8407  magn=  0.0048
     atom 169 (R=0.057)  charge=  1.8419  magn=  0.0002
     atom 170 (R=0.057)  charge=  1.8448  magn=  0.0011
     atom 171 (R=0.057)  charge=  1.8427  magn=  0.0001
     atom 172 (R=0.057)  charge=  1.8435  magn=  0.0003
     atom 173 (R=0.057)  charge=  1.8460  magn=  0.0074
     atom 174 (R=0.057)  charge=  1.8368  magn=  0.0040
     atom 175 (R=0.057)  charge=  1.8422  magn=  0.0001
     atom 176 (R=0.057)  charge=  1.8423  magn=  0.0001
     atom 177 (R=0.057)  charge=  1.8409  magn=  0.0156
     atom 178 (R=0.057)  charge=  1.8438  magn=  0.0011
     atom 179 (R=0.057)  charge=  1.8434  magn=  0.0003
     atom 180 (R=0.057)  charge=  1.8454  magn=  0.0014
     atom 181 (R=0.057)  charge=  1.8433  magn=  0.0006
     atom 182 (R=0.057)  charge=  1.8422  magn=  0.0001
     atom 183 (R=0.057)  charge=  1.8432  magn=  0.0010
     atom 184 (R=0.057)  charge=  1.8436  magn=  0.0017
     atom 185 (R=0.057)  charge=  1.8438  magn=  0.0011
     atom 186 (R=0.057)  charge=  1.8419  magn=  0.0002
     atom 187 (R=0.057)  charge=  1.8437  magn=  0.0003
     atom 188 (R=0.057)  charge=  1.8421  magn=  0.0001
     atom 189 (R=0.057)  charge=  1.8410  magn=  0.0156
     atom 190 (R=0.057)  charge=  1.8438  magn=  0.0011
     atom 191 (R=0.057)  charge=  1.8410  magn=  0.0156
     atom 192 (R=0.057)  charge=  1.8406  magn=  0.0048
     atom 193 (R=0.057)  charge=  1.8419  magn=  0.0002
     atom 194 (R=0.057)  charge=  1.8438  magn=  0.0011
     atom 195 (R=0.057)  charge=  1.8419  magn=  0.0002
     atom 196 (R=0.057)  charge=  1.8437  magn=  0.0003
     atom 197 (R=0.057)  charge=  1.8460  magn=  0.0074
     atom 198 (R=0.057)  charge=  1.8368  magn=  0.0040
     atom 199 (R=0.057)  charge=  1.8422  magn=  0.0001
     atom 200 (R=0.057)  charge=  1.8368  magn=  0.0040
     atom 201 (R=0.057)  charge=  1.8643  magn=  0.1926
     atom 202 (R=0.057)  charge=  1.8432  magn=  0.0010
     atom 203 (R=0.057)  charge=  1.8422  magn=  0.0001
     atom 204 (R=0.057)  charge=  1.8432  magn=  0.0010
     atom 205 (R=0.057)  charge=  1.8435  magn=  0.0017
     atom 206 (R=0.057)  charge=  1.8448  magn=  0.0011
     atom 207 (R=0.057)  charge=  1.8427  magn=  0.0001
     atom 208 (R=0.057)  charge=  1.8435  magn=  0.0003
     atom 209 (R=0.057)  charge=  1.8427  magn=  0.0001
     atom 210 (R=0.057)  charge=  1.8431  magn=  0.0012
     atom 211 (R=0.057)  charge=  1.8452  magn=  0.0014
     atom 212 (R=0.057)  charge=  1.8435  magn=  0.0003
     atom 213 (R=0.057)  charge=  1.8452  magn=  0.0014
     atom 214 (R=0.057)  charge=  1.8433  magn=  0.0006
     atom 215 (R=0.057)  charge=  2.9062  magn=  0.1233

     total cpu time spent up to now is      394.3 secs

     End of self-consistent calculation

 ------ SPIN UP ------------


          k = 0.0000 0.0000 0.0000 ( 42379 PWs)   bands (ev):

    -8.3134  -7.5961  -7.2897  -7.2897  -7.2361  -7.2361  -7.1624  -6.7132
    -6.2971  -6.2970  -6.2788  -6.2788  -6.2609  -6.2358  -6.2316  -6.2316
    -6.1745  -6.1745  -6.0127  -5.5555  -5.2626  -5.2608  -5.2608  -5.2277
    -5.2270  -5.2270  -5.0653  -4.5002  -4.2747  -4.2747  -4.2494  -4.2494
    -4.1952  -3.9164  -3.4076  -3.4076  -3.3818  -3.3818  -3.3762  -3.3622
    -3.3622  -3.3580  -3.3579  -3.3506  -3.3506  -3.3303  -3.3260  -3.3260
    -3.2968  -3.2968  -3.2871  -3.2852  -3.2851  -3.2739  -3.1960  -3.1960
    -3.0326  -2.8530  -2.6388  -2.6387  -2.5907  -2.5811  -2.5811  -2.5732
    -2.5669  -2.5669  -2.5654  -2.5439  -2.5439  -2.5272  -2.5272  -2.5209
    -2.5045  -2.5045  -2.4754  -2.4571  -2.4571  -2.4120  -2.2994  -2.2994
    -1.6501  -1.0833  -0.9195  -0.9195  -0.8720  -0.8720  -0.8609  -0.8542
    -0.8541  -0.8508  -0.7954  -0.7954  -0.4512   0.3308   0.3894   0.3894
     0.4123   0.4124   0.4519   0.6535   0.8115   0.8115   0.8907   0.8939
     0.8940   0.8955   0.8955   0.9080   0.9093   0.9093   0.9161   0.9470
     0.9470   0.9681   0.9873   1.0177   1.0178   1.0338   1.0338   1.0390
     1.0654   1.0654   1.0817   1.1062   1.1062   1.1071   1.1307   1.1356
     1.1357   1.1357   1.1434   1.1434   1.1447   1.1742   1.1742   1.1965
     1.1965   1.2027   1.2075   1.2076   1.2108   1.2109   1.2259   1.4296
     1.5679   1.5679   1.9410   2.1860   2.1860   2.1891   2.2408   2.2408
     2.2432   2.2476   2.2773   2.2773   2.4186   2.4186   3.3606   3.6829
     3.6829   3.7217   3.7821   3.7924   3.7954   3.7954   3.7967   3.7967
     3.8104   3.8122   3.8263   3.8287   3.8287   3.8488   3.8488   3.9603
     3.9603   3.9650   4.0101   4.3300   4.3300   4.3709   4.4396   4.4504
     4.4504   4.4523   4.4567   4.4567   4.4653   4.4653   4.4789   4.4838
     4.4887   4.4887   4.4908   4.4908   4.5035   4.5195   4.5195   4.5294
     4.7432   4.7432   5.2038   5.2038   5.2497   5.3116   5.3117   5.3130
     5.3159   5.3169   5.3169   5.3310   5.3353   5.3354   5.3588   5.3588
     5.4103   5.4103   5.4105   5.4305   5.4387   5.4690   5.4690   5.5102
     5.5402   5.5402   5.6107   5.7237   5.7237   5.8175   5.8346   5.8346
     5.8477   5.8586   5.8586   5.8633   5.8636   5.8664   5.8664   5.8790
     5.8790   5.8851   5.9004   5.9139   5.9139   5.9180   5.9407   5.9407
     5.9494   5.9763   5.9763   6.0135   6.0136   6.2953   6.3512   6.3512
     6.8358   6.8358   6.9021   6.9087   6.9400   6.9400   7.0555   7.3476
     7.3476   7.4438   7.4513   7.4513   7.4710   7.4747   7.4747   7.5044
     7.5573   7.5573   7.6902   7.6902   7.8145   7.8564   7.8630   7.8662
     7.8662   7.8735   7.8735   7.9014   7.9264   7.9264   7.9376   8.0447
     8.0447   8.0869   8.1073   8.1129   8.1129   8.1325   8.1345   8.1345
     8.1367   8.1368   8.1401   8.1505   8.1505   8.1570   8.1820   8.1820
     8.1916   8.2031   8.2031   8.2047   8.2047   8.2209   8.2658   8.2658
     8.2929   8.3136   8.3192   8.3192   8.3218   8.3280   8.3328   8.3328
     8.3372   8.3372   8.3459   8.3514   8.3533   8.3533   8.3560   8.3560
     8.3629   8.3649   8.3649   8.3671   8.3795   8.3795   8.3872   8.3920
     8.3927   8.3927   8.4034   8.4034   8.4306   8.4306   8.4437   8.4523
     8.4523   8.4867   8.4868   8.4993   8.5015   8.5427   8.5511   8.5517
     8.5517   8.6700   8.6700   8.9082   8.9217   8.9217   9.0814   9.0814
     9.1490   9.1566   9.1566   9.1616   9.1947   9.1947   9.1969   9.2040
     9.2172   9.2172   9.2208   9.2294   9.2294   9.2378   9.2378   9.2604
     9.3254   9.3254   9.3762   9.9162  10.1419  10.1419  10.4689  10.5042
    10.5042  10.5715  10.5715  10.5737  10.5981  10.6065  10.6065  10.6100
    10.6678  10.6678  10.6877  10.7623  10.7623  10.8271  10.8335  10.8335
    10.8356  10.8356  10.8401  10.8402  10.8498  10.8788  10.8788  10.9030
    10.9032  10.9032  10.9045  10.9389  10.9389  11.4218  11.5236  11.5236
    11.7128  11.7356  11.7356  11.7499  11.7807  11.7812  11.7812  11.8102
    11.8605  11.8605  12.9487  13.0142  13.0142  13.7943  15.2637  15.2639
    17.2965  17.2965  17.3026  17.3567  17.3567  17.3711  17.8404  17.9436
    17.9436  17.9547  17.9547  18.0169  18.0790  18.0790  18.1323  18.1930
    18.1930  18.1999  18.8085  18.8085  18.8310  19.3383  19.4690  19.4690
    19.4861  19.5136  19.5136  19.5342  19.5388  19.5388  19.5477  19.5477
    19.5892  19.9453  20.1747  20.1747  20.2127  20.2179  20.2179  20.2264
    20.2270  20.2271  20.2313  20.2313  20.2481  20.2481  20.2549  20.2568
    20.2874  20.2874  20.2888  20.3262  20.3262  20.3562  20.3702  20.3702
    20.3705  20.5942  20.6424  20.6425  20.7042  20.7133  20.7176  20.7176
    20.7283  20.7283  20.7410  20.7514  20.7514  20.7553  20.7795  20.7795
    20.8088  20.8088  20.8137  20.8258  20.8280  20.8280  20.8385  20.8529
    20.8529  20.8630  20.8630  20.8636  20.8719  20.8719  20.8829  20.8829
    20.8975  20.9124  20.9124  20.9500  20.9555  21.0075  21.0146  21.0146
    21.0766  21.0767  21.0856  21.1773  21.2802  21.2802  21.3113  21.3262
    21.3262  21.3392  21.3400  21.3400  21.3502  21.3502  21.3533  21.3723
    21.3723  21.3750  21.3983  21.4009  21.4009  21.4059  21.4059  21.4158
    21.4158  21.4189  21.4259  21.4297  21.4297  21.4522  21.4522  21.4522
    21.4689  21.4689  21.5040  21.5040  21.5062  21.5149  21.5944  21.6171
    21.6171  21.6299  21.6527  21.6527  21.6607  21.6708  21.6863  21.6863
    21.7027  21.7027  21.7224  21.7504  21.7504  21.7713  21.8020  21.8261
    21.8261  21.9379  21.9379  21.9715  22.0029  22.0029  22.1098  22.1098
    22.1340  22.1821  22.1821  22.1863  22.1985  22.2039  22.2040  22.3368
    22.3503  22.3503  22.3965  22.4549  22.4549  22.4850  22.4865  22.4865
    22.6418  22.6867  22.6867  22.8033  22.9460  22.9460  22.9802  23.1009
    23.1009  23.1083  23.1220  23.1220  23.1286  23.1286  23.1406  23.1406
    23.1451  23.1466  23.1722  23.1860  23.2027  23.2027  23.2086  23.2668
    23.3040  23.3040  23.3553  23.3553  23.4137  23.4554  23.4555  23.7699
    23.7699  23.7871  23.7879  23.7893  23.8067  23.8068  23.8116  23.8273
    23.8273  23.8461  23.8461  23.8562  23.8562  23.8636  23.8952  23.8968
    23.9705  23.9705  23.9789  24.1017  24.1017  24.1842  24.1842  24.2234
    24.2257  24.2257  24.2502  24.2731  24.2731  24.2750  24.2846  24.2847
    24.2979  24.3235  24.3235  24.3484  24.3779  24.3780  24.3997  24.3997
    24.4003  24.4006  24.4007  24.4096  24.4685  24.4743  24.4770  24.4770
    24.4820  24.4873  24.4873  24.5060  24.5111  24.5111  24.5238  24.5238
    24.5387  24.5600  24.5601  24.5695  24.6625  24.6625  24.7062  24.7938
    24.7938  24.9048  24.9048  25.5001  25.5159  25.5160  25.6038  25.7367
    25.7972  25.7973  25.8047  25.8047  25.9947  25.9947  26.0006  26.0154
    26.0396  26.0396  26.0987  26.1258  26.1481  26.1482  26.2146  26.2803
    26.2803  26.4301  26.5608  26.5608  26.5692  26.6320  26.6405  26.6423
    26.6423  26.6733  26.6733  26.6916  26.6916  26.6946  26.7476  26.7489
    26.7489  26.7796  26.7830  26.7830  26.8234  26.8409  26.8409  26.9429
    26.9429  27.0349  27.0349  27.0741  27.0895  27.1002  27.1002  27.1139
    27.1224  27.1224  27.1229  27.1308  27.1308  27.1547  27.1547  27.1767
    27.1901  27.2135  27.2135  27.2439  27.2439  27.2518  27.2621  27.2621
    27.2711  27.2810  27.2884  27.2884  27.2963  27.3084  27.3084  27.3103
    27.3103  27.3137  27.3279  27.3387  27.3404  27.3404  27.3618  27.3618
    27.3670  27.3727  27.3831  27.3831  27.3963  27.3963  27.4066  27.4167
    27.4315  27.4316  27.4644  27.4832  27.4832  27.5013  27.5013  27.5124
    27.5124  27.5289  27.5483  27.5483  27.5503  27.5546  27.5807  27.5884
    27.5884  27.5970  27.5971  27.6029  27.6044  27.6044  27.6082  27.6452
    27.6452  27.7177  27.7177  27.7264  27.7645  27.8684  27.8685  27.8814
    27.9153  27.9310  27.9310  27.9835  28.0516  28.0517  28.0939  28.0939
    28.1194  28.1539  28.1539  28.2848  28.3185  28.3186  28.3238  28.3492
    28.3676  28.3676  28.5764  28.6582  28.6583  28.7671  29.7103  29.8007
    29.8007  29.8491  29.9362  29.9362  30.0074  30.0616

 ------ SPIN DOWN ----------


          k = 0.0000 0.0000 0.0000 ( 42379 PWs)   bands (ev):

    -8.3029  -7.5566  -7.2869  -7.2869  -7.2302  -7.2302  -7.1498  -6.6846
    -6.2940  -6.2940  -6.2764  -6.2764  -6.2573  -6.2312  -6.2259  -6.2259
    -6.1607  -6.1606  -5.9907  -5.5373  -5.2579  -5.2540  -5.2540  -5.2205
    -5.2142  -5.2142  -5.0430  -4.4748  -4.2688  -4.2688  -4.2411  -4.2411
    -4.1877  -3.8904  -3.4005  -3.4005  -3.3791  -3.3791  -3.3751  -3.3584
    -3.3584  -3.3555  -3.3554  -3.3479  -3.3478  -3.3287  -3.3222  -3.3221
    -3.2867  -3.2866  -3.2778  -3.2745  -3.2744  -3.2691  -3.1761  -3.1761
    -3.0208  -2.8437  -2.6341  -2.6341  -2.5871  -2.5766  -2.5766  -2.5654
    -2.5638  -2.5630  -2.5630  -2.5378  -2.5378  -2.5212  -2.5212  -2.5121
    -2.4999  -2.4999  -2.4653  -2.4460  -2.4460  -2.4006  -2.2465  -2.2465
    -1.5963  -1.0693  -0.9140  -0.9140  -0.8623  -0.8623  -0.8557  -0.8478
    -0.8478  -0.8457  -0.7693  -0.7693  -0.3976   0.3470   0.3941   0.3941
     0.4190   0.4190   0.4576   0.6786   0.8202   0.8202   0.8911   0.8966
     0.8966   0.8975   0.8975   0.9110   0.9150   0.9150   0.9181   0.9500
     0.9500   0.9754   0.9969   1.0267   1.0267   1.0444   1.0445   1.0445
     1.0783   1.0783   1.0860   1.1110   1.1111   1.1165   1.1347   1.1378
     1.1408   1.1408   1.1490   1.1490   1.1544   1.1778   1.1778   1.2024
     1.2024   1.2085   1.2129   1.2129   1.2304   1.2304   1.2554   1.4500
     1.6087   1.6087   1.9605   2.1939   2.1939   2.2090   2.2448   2.2448
     2.2513   2.2514   2.2834   2.2834   2.4697   2.4698   3.4266   3.6950
     3.6951   3.7347   3.7891   3.7986   3.7988   3.7988   3.8005   3.8005
     3.8150   3.8186   3.8322   3.8332   3.8332   3.8573   3.8573   3.9743
     3.9743   3.9781   4.0279   4.3411   4.3411   4.3949   4.4425   4.4534
     4.4534   4.4536   4.4618   4.4618   4.4710   4.4710   4.4817   4.4936
     4.4936   4.4990   4.4991   4.5017   4.5154   4.5293   4.5293   4.5375
     4.7922   4.7922   5.2166   5.2166   5.2660   5.3135   5.3135   5.3177
     5.3178   5.3199   5.3199   5.3329   5.3393   5.3393   5.3625   5.3625
     5.4168   5.4168   5.4185   5.4406   5.4448   5.4809   5.4809   5.5213
     5.5492   5.5492   5.6433   5.7329   5.7329   5.8307   5.8375   5.8375
     5.8520   5.8625   5.8625   5.8685   5.8730   5.8730   5.8732   5.8847
     5.8847   5.8921   5.9127   5.9212   5.9256   5.9256   5.9501   5.9501
     5.9675   5.9896   5.9896   6.0271   6.0271   6.3292   6.3884   6.3884
     6.8455   6.8455   6.9096   6.9260   6.9551   6.9551   7.1239   7.3642
     7.3642   7.4545   7.4545   7.4560   7.4750   7.4811   7.4811   7.5225
     7.5705   7.5705   7.7006   7.7006   7.8371   7.8613   7.8709   7.8709
     7.8833   7.8839   7.8839   7.9087   7.9355   7.9355   7.9531   8.0556
     8.0556   8.0912   8.1103   8.1159   8.1159   8.1353   8.1372   8.1372
     8.1403   8.1403   8.1426   8.1529   8.1529   8.1629   8.1881   8.1881
     8.1963   8.2079   8.2079   8.2165   8.2165   8.2279   8.2716   8.2717
     8.3008   8.3220   8.3220   8.3234   8.3293   8.3302   8.3359   8.3359
     8.3400   8.3400   8.3496   8.3559   8.3563   8.3563   8.3636   8.3637
     8.3666   8.3678   8.3678   8.3718   8.3854   8.3854   8.3961   8.4006
     8.4006   8.4072   8.4171   8.4171   8.4373   8.4373   8.4507   8.4576
     8.4576   8.4991   8.4991   8.5144   8.5318   8.5497   8.5588   8.5721
     8.5721   8.7022   8.7022   8.9273   8.9374   8.9374   9.0882   9.0882
     9.1519   9.1599   9.1599   9.1636   9.1996   9.1996   9.2015   9.2169
     9.2282   9.2288   9.2288   9.2393   9.2393   9.2543   9.2543   9.2648
     9.3555   9.3555   9.4052   9.9983  10.1966  10.1966  10.5190  10.5190
    10.5746  10.5746  10.5780  10.5892  10.6006  10.6179  10.6179  10.6413
    10.6727  10.6727  10.6968  10.7672  10.7672  10.8362  10.8385  10.8385
    10.8423  10.8423  10.8521  10.8521  10.8542  10.8893  10.8893  10.9158
    10.9158  10.9182  10.9194  10.9484  10.9484  11.4944  11.5473  11.5473
    11.7438  11.7438  11.7522  11.7840  11.7880  11.7880  11.8208  11.8776
    11.8776  12.0063  13.0431  13.0431  13.0580  14.5357  16.2133  16.2134
    17.3006  17.3006  17.3178  17.3676  17.3676  17.3814  17.8516  17.9508
    17.9508  17.9605  17.9605  18.0263  18.0844  18.0844  18.1619  18.2092
    18.2092  18.2104  18.8256  18.8257  18.8437  19.3575  19.4723  19.4723
    19.4886  19.5224  19.5224  19.5398  19.5435  19.5436  19.5527  19.5527
    19.5970  19.9614  20.1786  20.1786  20.2153  20.2209  20.2210  20.2291
    20.2303  20.2303  20.2386  20.2386  20.2552  20.2552  20.2599  20.2619
    20.2943  20.2954  20.2954  20.3320  20.3320  20.3652  20.3785  20.3785
    20.3794  20.6063  20.6528  20.6528  20.7062  20.7147  20.7204  20.7204
    20.7313  20.7313  20.7433  20.7539  20.7539  20.7587  20.7838  20.7838
    20.8131  20.8131  20.8172  20.8320  20.8320  20.8383  20.8421  20.8640
    20.8640  20.8675  20.8702  20.8702  20.8824  20.8824  20.8915  20.8915
    20.9025  20.9197  20.9197  20.9568  20.9637  21.0185  21.0206  21.0206
    21.0842  21.0842  21.0929  21.1865  21.2874  21.2874  21.3142  21.3307
    21.3307  21.3433  21.3434  21.3434  21.3553  21.3553  21.3564  21.3767
    21.3767  21.3884  21.4010  21.4071  21.4072  21.4107  21.4107  21.4237
    21.4237  21.4261  21.4310  21.4366  21.4367  21.4658  21.4658  21.4672
    21.4814  21.4814  21.5183  21.5227  21.5227  21.5386  21.6003  21.6278
    21.6278  21.6333  21.6574  21.6575  21.6637  21.6858  21.6934  21.6934
    21.7104  21.7104  21.7343  21.7563  21.7563  21.7763  21.8232  21.8443
    21.8443  21.9598  21.9598  21.9780  22.0186  22.0186  22.1134  22.1134
    22.1360  22.1937  22.1966  22.1966  22.2066  22.2114  22.2114  22.3463
    22.3606  22.3606  22.4194  22.4635  22.4636  22.4907  22.4907  22.4924
    22.6630  22.7205  22.7205  22.8675  22.9627  22.9627  22.9975  23.1069
    23.1069  23.1102  23.1250  23.1250  23.1332  23.1332  23.1439  23.1439
    23.1492  23.1522  23.1768  23.1977  23.2159  23.2159  23.2321  23.3071
    23.3396  23.3396  23.3746  23.3746  23.4392  23.4848  23.4849  23.7795
    23.7795  23.7891  23.7942  23.8114  23.8114  23.8147  23.8322  23.8329
    23.8329  23.8554  23.8554  23.8627  23.8627  23.8701  23.9030  23.9130
    23.9875  23.9883  23.9883  24.1134  24.1134  24.1985  24.1985  24.2307
    24.2314  24.2314  24.2529  24.2771  24.2772  24.2815  24.2896  24.2896
    24.3042  24.3310  24.3310  24.3532  24.3876  24.3876  24.4064  24.4071
    24.4071  24.4166  24.4166  24.4200  24.4709  24.4853  24.4910  24.4910
    24.4952  24.5027  24.5027  24.5149  24.5193  24.5193  24.5313  24.5313
    24.5430  24.5649  24.5649  24.5932  24.7029  24.7029  24.7284  24.8966
    24.8966  24.9614  24.9614  25.5545  25.5594  25.5594  25.6335  25.7496
    25.8086  25.8086  25.8182  25.8182  26.0025  26.0046  26.0046  26.0206
    26.0500  26.0500  26.1268  26.1346  26.1635  26.1636  26.2401  26.3089
    26.3089  26.4464  26.5702  26.5703  26.5899  26.6383  26.6463  26.6484
    26.6484  26.6790  26.6791  26.6994  26.6994  26.7085  26.7575  26.7575
    26.7614  26.7848  26.7892  26.7892  26.8312  26.8536  26.8536  26.9656
    26.9656  27.0463  27.0463  27.0830  27.0920  27.1045  27.1045  27.1185
    27.1261  27.1261  27.1268  27.1341  27.1342  27.1609  27.1609  27.1884
    27.1941  27.2186  27.2186  27.2499  27.2499  27.2560  27.2668  27.2668
    27.2809  27.2845  27.2961  27.2961  27.3023  27.3138  27.3138  27.3190
    27.3190  27.3243  27.3301  27.3452  27.3509  27.3509  27.3698  27.3698
    27.3724  27.3829  27.3883  27.3883  27.4035  27.4036  27.4248  27.4357
    27.4407  27.4408  27.4702  27.4917  27.4917  27.5168  27.5168  27.5202
    27.5202  27.5425  27.5532  27.5532  27.5557  27.5589  27.5864  27.5964
    27.5964  27.6056  27.6057  27.6108  27.6108  27.6118  27.6142  27.6742
    27.6742  27.7426  27.7426  27.7825  27.7981  27.8976  27.9034  27.9034
    27.9239  27.9476  27.9476  28.0139  28.0688  28.0688  28.1263  28.1263
    28.1323  28.1822  28.1822  28.3082  28.3385  28.3615  28.3616  28.4013
    28.4283  28.4283  28.6400  28.7464  28.7465  28.8586  29.7507  29.8162
    29.8162  29.9282  29.9589  29.9590  30.0177  30.0687

     highest occupied, lowest unoccupied level (ev):    15.26389138   14.53566270

!    total energy              =   -3971.22410140 Ry
     total all-electron energy =    -16414.039704 Ry
     estimated scf accuracy    <          9.9E-09 Ry

     The total energy is the sum of the following terms:
     one-electron contribution =     885.49258797 Ry
     hartree contribution      =     218.27949897 Ry
     xc contribution           =   -1009.05745119 Ry
     ewald contribution        =   -2739.16383531 Ry
     one-center paw contrib.   =   -1326.77490184 Ry

     total magnetization       =     2.00 Bohr mag/cell
     absolute magnetization    =     2.21 Bohr mag/cell

     convergence has been achieved in  16 iterations

     Forces acting on atoms (cartesian axes, Ry/au):

     atom    1 type  1   force =     0.00010829    0.00007868   -0.00012800
     atom    2 type  1   force =     0.00005111   -0.00001497    0.00007035
     atom    3 type  1   force =     0.00018061    0.00024975   -0.00014492
     atom    4 type  1   force =    -0.00006361   -0.00004216   -0.00004440
     atom    5 type  1   force =    -0.00017675    0.00005203    0.00016479
     atom    6 type  1   force =     0.00003985    0.00008253    0.00043595
     atom    7 type  1   force =     0.00008660    0.00022755   -0.00023880
     atom    8 type  1   force =    -0.00044130   -0.00003422   -0.00004543
     atom    9 type  1   force =     0.00033199   -0.00005066   -0.00031929
     atom   10 type  1   force =     0.00048993    0.00019615   -0.00053822
     atom   11 type  1   force =     0.00007519   -0.00015584    0.00018305
     atom   12 type  1   force =    -0.00005494   -0.00002757    0.00015593
     atom   13 type  1   force =    -0.00013911   -0.00020699   -0.00003130
     atom   14 type  1   force =     0.00427120    0.00068063   -0.00443628
     atom   15 type  1   force =     0.00452929    0.00069799   -0.00223056
     atom   16 type  1   force =    -0.00014677   -0.00004925    0.00006401
     atom   17 type  1   force =     0.00213198    0.00011610   -0.00462916
     atom   18 type  1   force =     0.00364482   -0.00416010   -0.00263561
     atom   19 type  1   force =     0.00001272    0.00005878   -0.00002789
     atom   20 type  1   force =     0.00002780    0.00010002   -0.00009339
     atom   21 type  1   force =    -0.00006609   -0.00000905    0.00003924
     atom   22 type  1   force =     0.00006773    0.00011059   -0.00005342
     atom   23 type  1   force =    -0.00003134    0.00031135   -0.00004392
     atom   24 type  1   force =     0.00020837   -0.00047103   -0.00014699
     atom   25 type  1   force =    -0.00003802   -0.00000160    0.00006723
     atom   26 type  1   force =     0.00026006   -0.00045860   -0.00009505
     atom   27 type  1   force =     0.00049665   -0.00010151   -0.00047194
     atom   28 type  1   force =    -0.00001076   -0.00008821   -0.00005024
     atom   29 type  1   force =     0.00009381   -0.00001167    0.00051182
     atom   30 type  1   force =     0.00027558    0.00050266    0.00035717
     atom   31 type  1   force =    -0.00011875   -0.00012205   -0.00003456
     atom   32 type  1   force =     0.00044744    0.00472940    0.00169035
     atom   33 type  1   force =     0.00143916    0.00187703    0.00563361
     atom   34 type  1   force =     0.00005552    0.00029953   -0.00014005
     atom   35 type  1   force =    -0.00041606   -0.00009519   -0.00012465
     atom   36 type  1   force =     0.00018662    0.00034319    0.00020870
     atom   37 type  1   force =     0.00007116    0.00008627   -0.00008205
     atom   38 type  1   force =     0.00003512    0.00012193   -0.00030512
     atom   39 type  1   force =     0.00003299    0.00000738    0.00052061
     atom   40 type  1   force =    -0.00018481   -0.00008547    0.00013481
     atom   41 type  1   force =     0.00258553    0.00529537    0.00186965
     atom   42 type  1   force =     0.00353352    0.00335799    0.00139088
     atom   43 type  1   force =    -0.00008259   -0.00000744    0.00000849
     atom   44 type  1   force =    -0.00009165   -0.00018603   -0.00015663
     atom   45 type  1   force =     0.00020044   -0.00037147   -0.00018372
     atom   46 type  1   force =     0.00002604    0.00003420   -0.00006336
     atom   47 type  1   force =     0.00002865    0.00010521   -0.00008529
     atom   48 type  1   force =    -0.00004010   -0.00007168   -0.00005353
     atom   49 type  1   force =     0.00033069    0.00066022    0.00009288
     atom   50 type  1   force =     0.00010205   -0.00021176    0.00010094
     atom   51 type  1   force =     0.00000460   -0.00017450   -0.00005169
     atom   52 type  1   force =     0.00008311    0.00015607   -0.00002672
     atom   53 type  1   force =     0.00007506   -0.00007278   -0.00001398
     atom   54 type  1   force =     0.00018854    0.00023859   -0.00016042
     atom   55 type  1   force =     0.00006889   -0.00006919    0.00002932
     atom   56 type  1   force =     0.00005929   -0.00007988    0.00014348
     atom   57 type  1   force =     0.00006652    0.00030206   -0.00012917
     atom   58 type  1   force =    -0.00049155   -0.00015325   -0.00007385
     atom   59 type  1   force =    -0.00274287    0.00395351   -0.00150101
     atom   60 type  1   force =     0.00013152    0.00003815    0.00042332
     atom   61 type  1   force =    -0.00045741    0.00032498   -0.00037593
     atom   62 type  1   force =    -0.00587360    0.00010061   -0.00167800
     atom   63 type  1   force =    -0.00027868    0.00023079   -0.00025628
     atom   64 type  1   force =     0.00006075    0.00008348   -0.00009209
     atom   65 type  1   force =    -0.00011585   -0.00006998    0.00020369
     atom   66 type  1   force =    -0.00000920    0.00001019    0.00008157
     atom   67 type  1   force =     0.00026874    0.00017896   -0.00007152
     atom   68 type  1   force =    -0.00298923    0.00394240   -0.00370586
     atom   69 type  1   force =     0.00019357   -0.00011616    0.00012847
     atom   70 type  1   force =    -0.00050634   -0.00012307   -0.00001872
     atom   71 type  1   force =    -0.00204133    0.00200514   -0.00418348
     atom   72 type  1   force =     0.00027156   -0.00035397   -0.00011252
     atom   73 type  1   force =     0.00005378    0.00004053   -0.00003578
     atom   74 type  1   force =    -0.00023625    0.00052165   -0.00047409
     atom   75 type  1   force =    -0.00000913    0.00013351   -0.00011873
     atom   76 type  1   force =     0.00005877    0.00011287   -0.00005509
     atom   77 type  1   force =    -0.00004458   -0.00024759   -0.00004555
     atom   78 type  1   force =     0.00003282   -0.00008232   -0.00005631
     atom   79 type  1   force =     0.00006762   -0.00004501    0.00005434
     atom   80 type  1   force =     0.00009220   -0.00015378    0.00003579
     atom   81 type  1   force =     0.00010487    0.00021866   -0.00024422
     atom   82 type  1   force =     0.00014047   -0.00026411   -0.00007649
     atom   83 type  1   force =    -0.00020739    0.00004856   -0.00074655
     atom   84 type  1   force =     0.00000306    0.00001522   -0.00017990
     atom   85 type  1   force =     0.00070769    0.00027115    0.00016876
     atom   86 type  1   force =    -0.00032026   -0.00015151    0.00035772
     atom   87 type  1   force =     0.00027678    0.00054102    0.00015505
     atom   88 type  1   force =     0.00017118    0.00005595   -0.00001217
     atom   89 type  1   force =    -0.00027006    0.00040733   -0.00039168
     atom   90 type  1   force =     0.00016265    0.00038713   -0.00025666
     atom   91 type  1   force =     0.00079074    0.00105075   -0.00104590
     atom   92 type  1   force =     0.00007778    0.00012567    0.00004805
     atom   93 type  1   force =     0.00006800   -0.00007889   -0.00077675
     atom   94 type  1   force =    -0.00007381    0.00008927   -0.00010332
     atom   95 type  1   force =     0.00017895   -0.00036934    0.00030571
     atom   96 type  1   force =     0.00077449    0.00009238   -0.00007003
     atom   97 type  1   force =    -0.00020444   -0.00046282   -0.00007762
     atom   98 type  1   force =     0.00043626    0.00009223   -0.00045909
     atom   99 type  1   force =     0.00005426    0.00010549   -0.00008033
     atom  100 type  1   force =     0.00011324    0.00135399   -0.00098202
     atom  101 type  1   force =    -0.00027397   -0.00007565   -0.00003403
     atom  102 type  1   force =     0.00063830    0.00148224   -0.00045716
     atom  103 type  1   force =     0.00011871    0.00000605   -0.00011942
     atom  104 type  1   force =    -0.00020914    0.00068295    0.00026221
     atom  105 type  1   force =     0.00004284    0.00000120    0.00028282
     atom  106 type  1   force =    -0.00042145    0.00063074    0.00004977
     atom  107 type  1   force =    -0.00004692    0.00015062    0.00000980
     atom  108 type  1   force =     0.00004660   -0.00026643    0.00001761
     atom  109 type  1   force =    -0.00006209    0.00026344   -0.00018270
     atom  110 type  1   force =    -0.00005889   -0.00010676    0.00002698
     atom  111 type  1   force =     0.00011357    0.00030689   -0.00000703
     atom  112 type  1   force =    -0.00032970    0.00046036    0.00021793
     atom  113 type  1   force =    -0.00066217   -0.00134953   -0.00038591
     atom  114 type  1   force =    -0.00000245   -0.00009306    0.00008290
     atom  115 type  1   force =     0.00067498   -0.00102548    0.00095057
     atom  116 type  1   force =    -0.00006746   -0.00013996    0.00010143
     atom  117 type  1   force =    -0.00062247    0.00029794    0.00054992
     atom  118 type  1   force =    -0.00015498   -0.00025372   -0.00028556
     atom  119 type  1   force =     0.00018310    0.00015313   -0.00020744
     atom  120 type  1   force =     0.00033261   -0.00013456    0.00020214
     atom  121 type  1   force =     0.00057225    0.00005223    0.00012904
     atom  122 type  1   force =     0.00017008    0.00015031   -0.00022026
     atom  123 type  1   force =    -0.00012127   -0.00011592   -0.00056385
     atom  124 type  1   force =    -0.00106261   -0.00024880    0.00112299
     atom  125 type  1   force =    -0.00017034   -0.00039773    0.00026607
     atom  126 type  1   force =     0.00069099   -0.00029304    0.00042224
     atom  127 type  1   force =    -0.00025554   -0.00013220    0.00005041
     atom  128 type  1   force =    -0.00032118   -0.00053792   -0.00059019
     atom  129 type  1   force =    -0.00030226    0.00014835    0.00026697
     atom  130 type  1   force =     0.00013055    0.00029615   -0.00000601
     atom  131 type  1   force =    -0.00002543   -0.00007612    0.00028065
     atom  132 type  1   force =    -0.00005977    0.00024920   -0.00019648
     atom  133 type  1   force =    -0.00007823   -0.00005992    0.00009246
     atom  134 type  1   force =     0.00014194   -0.00002569    0.00004736
     atom  135 type  1   force =    -0.00024909   -0.00049225   -0.00064603
     atom  136 type  1   force =    -0.00162944   -0.00092720    0.00011247
     atom  137 type  1   force =     0.00016876    0.00019957   -0.00008595
     atom  138 type  1   force =     0.01613080   -0.00955209    0.01137546
     atom  139 type  1   force =    -0.00067851    0.00025983   -0.00035374
     atom  140 type  1   force =    -0.00023549   -0.00006778    0.00037247
     atom  141 type  1   force =     0.00019112    0.00009550   -0.00013679
     atom  142 type  1   force =    -0.00012240   -0.00005923   -0.00009527
     atom  143 type  1   force =    -0.00041274   -0.00043410    0.00022200
     atom  144 type  1   force =     0.00234978   -0.00156753    0.00179413
     atom  145 type  1   force =    -0.00022881    0.00010541   -0.00012363
     atom  146 type  1   force =     0.00013487    0.00000023    0.00007798
     atom  147 type  1   force =    -0.00056212    0.00037463    0.00053676
     atom  148 type  1   force =    -0.00167483   -0.00079302    0.00029582
     atom  149 type  1   force =    -0.00004233   -0.00004212    0.00032630
     atom  150 type  1   force =    -0.00011598   -0.00027281   -0.00005869
     atom  151 type  1   force =    -0.00017315   -0.00010888    0.00002783
     atom  152 type  1   force =     0.00005118   -0.00030315   -0.00003106
     atom  153 type  1   force =    -0.00019963   -0.00005366    0.00023943
     atom  154 type  1   force =    -0.00018275   -0.00009188    0.00005582
     atom  155 type  1   force =    -0.00011596   -0.00040037   -0.00008318
     atom  156 type  1   force =     0.00014816    0.00021712    0.00002585
     atom  157 type  1   force =    -0.00016450    0.00005491    0.00005493
     atom  158 type  1   force =     0.00006896   -0.00014947    0.00014895
     atom  159 type  1   force =     0.00018060   -0.00020265    0.00021818
     atom  160 type  1   force =    -0.00005038    0.00001091    0.00000156
     atom  161 type  1   force =    -0.00003600   -0.00006936   -0.00013057
     atom  162 type  1   force =     0.00004169    0.00016841   -0.00021321
     atom  163 type  1   force =    -0.00035336   -0.00009622    0.00025474
     atom  164 type  1   force =     0.00073649   -0.00025300    0.00033996
     atom  165 type  1   force =    -0.00833770   -0.01548960   -0.01309258
     atom  166 type  1   force =     0.00011605    0.00007773   -0.00021213
     atom  167 type  1   force =     0.00006369   -0.00051673    0.00180486
     atom  168 type  1   force =     0.00026280    0.00048805    0.00058807
     atom  169 type  1   force =     0.00010247   -0.00000408    0.00012969
     atom  170 type  1   force =    -0.00012527   -0.00036476    0.00050952
     atom  171 type  1   force =    -0.00007197   -0.00005086   -0.00012872
     atom  172 type  1   force =    -0.00030866   -0.00010672    0.00005958
     atom  173 type  1   force =    -0.00130586   -0.00245445   -0.00186156
     atom  174 type  1   force =    -0.00062491    0.00035954    0.00047342
     atom  175 type  1   force =     0.00011772   -0.00021486    0.00017521
     atom  176 type  1   force =     0.00008878    0.00018230    0.00019395
     atom  177 type  1   force =    -0.00014821   -0.00042280    0.00182255
     atom  178 type  1   force =    -0.00000686   -0.00006819    0.00019424
     atom  179 type  1   force =     0.00010280   -0.00029103    0.00002053
     atom  180 type  1   force =     0.00017222   -0.00033133    0.00020473
     atom  181 type  1   force =    -0.00010832   -0.00019230   -0.00002806
     atom  182 type  1   force =    -0.00022523   -0.00005959    0.00021380
     atom  183 type  1   force =    -0.00007199    0.00016377   -0.00019379
     atom  184 type  1   force =    -0.00015896   -0.00028397   -0.00012172
     atom  185 type  1   force =    -0.00003710   -0.00005680    0.00020086
     atom  186 type  1   force =    -0.00007062    0.00007709    0.00014890
     atom  187 type  1   force =    -0.00000593    0.00002202    0.00004581
     atom  188 type  1   force =     0.00018817   -0.00008619   -0.00016710
     atom  189 type  1   force =     0.00036266   -0.00182750   -0.00009954
     atom  190 type  1   force =     0.00003470   -0.00018634    0.00003127
     atom  191 type  1   force =     0.00053883   -0.00178470    0.00007601
     atom  192 type  1   force =     0.00054942   -0.00027962   -0.00048167
     atom  193 type  1   force =     0.00012950   -0.00007962    0.00002229
     atom  194 type  1   force =     0.00001493   -0.00019169    0.00001097
     atom  195 type  1   force =     0.00000085   -0.00011200   -0.00010634
     atom  196 type  1   force =     0.00001096   -0.00001824   -0.00000708
     atom  197 type  1   force =    -0.00241181    0.00056980    0.00227382
     atom  198 type  1   force =    -0.00033708   -0.00044867   -0.00063670
     atom  199 type  1   force =     0.00010783   -0.00019083    0.00020598
     atom  200 type  1   force =     0.00071474   -0.00019370    0.00041574
     atom  201 type  1   force =    -0.01570844    0.00472587    0.01456178
     atom  202 type  1   force =     0.00005294    0.00025636    0.00003448
     atom  203 type  1   force =    -0.00015245   -0.00025464   -0.00005410
     atom  204 type  1   force =    -0.00009244    0.00022037   -0.00011079
     atom  205 type  1   force =    -0.00025806   -0.00000565    0.00025896
     atom  206 type  1   force =    -0.00004242   -0.00060056    0.00018818
     atom  207 type  1   force =    -0.00012627    0.00009424    0.00007850
     atom  208 type  1   force =    -0.00029398   -0.00014989    0.00000336
     atom  209 type  1   force =    -0.00010167    0.00010057    0.00010294
     atom  210 type  1   force =     0.00000600    0.00026865   -0.00007054
     atom  211 type  1   force =    -0.00026939   -0.00033089   -0.00006764
     atom  212 type  1   force =     0.00002343   -0.00007353    0.00032087
     atom  213 type  1   force =     0.00013620   -0.00023335    0.00033774
     atom  214 type  1   force =    -0.00016292   -0.00004438    0.00017272
     atom  215 type  2   force =     0.00282204    0.00733645   -0.00460249

     Total force =     0.044825     Total SCF correction =     0.000331


     Computing stress (Cartesian axis) and pressure

          total   stress  (Ry/bohr**3)                   (kbar)     P=       27.94
   0.00019122  -0.00000134   0.00000085           28.13       -0.20        0.13
  -0.00000134   0.00018823   0.00000219           -0.20       27.69        0.32
   0.00000085   0.00000219   0.00019036            0.13        0.32       28.00


     Writing all to output data dir ./tmp/diamond_pd.save/ :
     XML data file, charge density
     init_run     :      5.77s CPU      6.29s WALL (       1 calls)
     electrons    :    379.82s CPU    388.16s WALL (       1 calls)
     forces       :      3.97s CPU      4.12s WALL (       1 calls)
     stress       :     13.85s CPU     14.11s WALL (       1 calls)

     Called by init_run:
     wfcinit      :      4.81s CPU      5.08s WALL (       1 calls)
     potinit      :      0.67s CPU      0.85s WALL (       1 calls)
     hinit0       :      0.11s CPU      0.11s WALL (       1 calls)

     Called by electrons:
     c_bands      :    341.94s CPU    348.53s WALL (      16 calls)
     sum_band     :     23.49s CPU     24.46s WALL (      16 calls)
     v_of_rho     :      0.54s CPU      0.55s WALL (      17 calls)
     newd         :      2.09s CPU      2.55s WALL (      17 calls)
     PAW_pot      :     12.03s CPU     12.29s WALL (      17 calls)
     mix_rho      :      0.42s CPU      0.43s WALL (      16 calls)

     Called by c_bands:
     init_us_2    :      4.94s CPU      5.05s WALL (      70 calls)
     cegterg      :    336.33s CPU    342.45s WALL (      32 calls)

     Called by *egterg:
     cdiaghg      :     64.83s CPU     65.88s WALL (     202 calls)
     h_psi        :     94.58s CPU     96.84s WALL (     204 calls)
     s_psi        :     30.79s CPU     31.00s WALL (     204 calls)
     g_psi        :      0.82s CPU      0.84s WALL (     170 calls)

     Called by h_psi:
     h_psi:calbec :     31.59s CPU     31.81s WALL (     204 calls)
     vloc_psi     :     29.14s CPU     29.66s WALL (     204 calls)
     add_vuspsi   :     32.30s CPU     33.08s WALL (     204 calls)

     General routines
     calbec       :     55.62s CPU     56.00s WALL (     270 calls)
     fft          :      0.20s CPU      0.20s WALL (     399 calls)
     ffts         :      0.01s CPU      0.01s WALL (      32 calls)
     fftw         :     30.09s CPU     30.63s WALL (  165322 calls)
 
     Parallel routines
 
     PWSCF        :   6m43.54s CPU   6m53.09s WALL

 
   This run was terminated on:   0:40:30  23Aug2026            

=------------------------------------------------------------------------------=
   JOB DONE.
=------------------------------------------------------------------------------=
