
     Program PWSCF v.7.4.1 starts on  5Aug2026 at 13:12:14 

     This program is part of the open-source Quantum ESPRESSO suite
     for quantum simulation of materials; please cite
         "P. Giannozzi et al., J. Phys.:Condens. Matter 21 395502 (2009);
         "P. Giannozzi et al., J. Phys.:Condens. Matter 29 465901 (2017);
         "P. Giannozzi et al., J. Chem. Phys. 152 154105 (2020);
          URL http://www.quantum-espresso.org", 
     in publications or presentations arising from this work. More details at
     http://www.quantum-espresso.org/quote

     Parallel version (MPI), running on    28 processors

     MPI processes distributed on     1 nodes
     51216 MiB available memory on the printing compute node when the environment starts
 
     Reading input from diamond_pd_nscf.in

     Current dimensions of program PWSCF are:
     Max number of different atomic species (ntypx) = 10
     Max number of k-points (npk) =  40000
     Max angular momentum in pseudopotentials (lmaxx) =  4
     file C.pbe-n-kjpaw_psl.1.0.0.UPF: wavefunction(s)  2S 2P renormalized
     file N.pbe-n-kjpaw_psl.1.0.0.UPF: wavefunction(s)  2S renormalized

     Atomic positions and unit cell read from directory:
     ../tmp/diamond_pd.save/
 
 
     R & G space division:  proc/nbgrp/npool/nimage =      28
     Subspace diagonalization in iterative solution of the eigenvalue problem:
     one sub-group per band group will be used
     scalapack distributed-memory algorithm (size of sub-group:  5*  5 procs)

 
     Parallelization info
     --------------------
     sticks:   dense  smooth     PW     G-vecs:    dense   smooth      PW
     Min         209     209     52                12095    12095    1512
     Max         210     210     53                12100    12100    1515
     Sum        5877    5877   1473               338755   338755   42379
 
     Using Slab Decomposition
 


     bravais-lattice index     =            0
     lattice parameter (alat)  =      20.2515  a.u.
     unit-cell volume          =    8305.5769 (a.u.)^3
     number of atoms/cell      =          215
     number of atomic types    =            2
     number of electrons       =       864.00 (up: 432.00, down: 432.00)
     number of Kohn-Sham states=          864
     kinetic-energy cutoff     =      45.0000  Ry
     charge density cutoff     =     180.0000  Ry
     Exchange-correlation= SLA  PW   PBX  PBC
                           (   1   4   3   4   0   0   0)

     celldm(1)=  20.251472  celldm(2)=   0.000000  celldm(3)=   0.000000
     celldm(4)=   0.000000  celldm(5)=   0.000000  celldm(6)=   0.000000

     crystal axes: (cart. coord. in units of alat)
               a(1) = (  -0.707107   0.000000   0.707107 )  
               a(2) = (   0.408248   0.816497   0.408248 )  
               a(3) = (  -0.577350   0.577350  -0.577350 )  

     reciprocal axes: (cart. coord. in units 2 pi/alat)
               b(1) = ( -0.707107  0.000000  0.707107 )  
               b(2) = (  0.408248  0.816497  0.408248 )  
               b(3) = ( -0.577350  0.577350 -0.577350 )  


     PseudoPot. # 1 for C  read from file:
     ../../../pseudos/C.pbe-n-kjpaw_psl.1.0.0.UPF
     MD5 check sum: 5f16ad9a65e90284d1d834d4ab3b0f7d
     Pseudo is Projector augmented-wave + core cor, Zval =  4.0
     Generated using &quot;atomic&quot; code by A. Dal Corso  v.6.3
     Shape of augmentation charge: PSQ
     Using radial grid of 1073 points,  4 beta functions with: 
                l(1) =   0
                l(2) =   0
                l(3) =   1
                l(4) =   1
     Q(r) pseudized with 0 coefficients 


     PseudoPot. # 2 for N  read from file:
     ../../../pseudos/N.pbe-n-kjpaw_psl.1.0.0.UPF
     MD5 check sum: a6186d50559fdcbe4b2d0187dd61a119
     Pseudo is Projector augmented-wave + core cor, Zval =  5.0
     Generated using &quot;atomic&quot; code by A. Dal Corso  v.6.3
     Shape of augmentation charge: PSQ
     Using radial grid of 1085 points,  4 beta functions with: 
                l(1) =   0
                l(2) =   0
                l(3) =   1
                l(4) =   1
     Q(r) pseudized with 0 coefficients 


     atomic species   valence    mass     pseudopotential
     C                 4.00    12.01070     C ( 1.00)
     N                 5.00    14.00670     N ( 1.00)

     Starting magnetic structure 
     atomic species   magnetization
     C               0.000
     N               0.000

     No symmetry found


                                    s                        frac. trans.

      isym =  1     identity                                     

 cryst.   s( 1) = (     1          0          0      )
                  (     0          1          0      )
                  (     0          0          1      )

 cart.    s( 1) = (  1.0000000  0.0000000 -0.0000000 )
                  (  0.0000000  1.0000000  0.0000000 )
                  ( -0.0000000  0.0000000  1.0000000 )


   Cartesian axes

     site n.     atom                  positions (alat units)
         1        C      tau(   1) = (  -0.0001312   0.0000903   0.0001093  )
         2        C      tau(   2) = (  -0.1925758   0.1927881  -0.1922077  )
         3        C      tau(   3) = (  -0.3850236   0.3848671  -0.3848360  )
         4        C      tau(   4) = (   0.1357641   0.2724567   0.1361321  )
         5        C      tau(   5) = (  -0.0571598   0.4657894  -0.0558597  )
         6        C      tau(   6) = (  -0.2488220   0.6571551  -0.2488137  )
         7        C      tau(   7) = (   0.2721074   0.5443139   0.2722950  )
         8        C      tau(   8) = (   0.0796906   0.7368656   0.0796989  )
         9        C      tau(   9) = (  -0.1132164   0.9282944  -0.1120256  )
        10        C      tau(  10) = (  -0.2357219   0.0003653   0.2356333  )
        11        C      tau(  11) = (  -0.4283072   0.1926004   0.0431129  )
        12        C      tau(  12) = (  -0.6205072   0.3848565  -0.1489550  )
        13        C      tau(  13) = (  -0.0995241   0.2723766   0.3718961  )
        14        C      tau(  14) = (  -0.2948233   0.4658537   0.1817883  )
        15        C      tau(  15) = (  -0.4811584   0.6576606  -0.0136625  )
        16        C      tau(  16) = (   0.0362403   0.5442102   0.5077925  )
        17        C      tau(  17) = (  -0.1554992   0.7366787   0.3119967  )
        18        C      tau(  18) = (  -0.3499853   0.9274553   0.1249469  )
        19        C      tau(  19) = (  -0.4713862   0.0000413   0.4713762  )
        20        C      tau(  20) = (  -0.6639269   0.1924663   0.2788113  )
        21        C      tau(  21) = (  -0.8561995   0.3851225   0.0865351  )
        22        C      tau(  22) = (  -0.3351886   0.2722316   0.6075495  )
        23        C      tau(  23) = (  -0.5281429   0.4643972   0.4154613  )
        24        C      tau(  24) = (  -0.7186084   0.6570431   0.2225947  )
        25        C      tau(  25) = (  -0.1993182   0.5445086   0.7434164  )
        26        C      tau(  26) = (  -0.3916450   0.7363778   0.5495581  )
        27        C      tau(  27) = (  -0.5842437   0.9293381   0.3587485  )
        28        C      tau(  28) = (  -0.0499284   0.1363698   0.1858889  )
        29        C      tau(  29) = (  -0.2428761   0.3299354  -0.0056503  )
        30        C      tau(  30) = (  -0.4347914   0.5210286  -0.1990126  )
        31        C      tau(  31) = (   0.0859763   0.4083288   0.3221752  )
        32        C      tau(  32) = (  -0.1069345   0.6040015   0.1307585  )
        33        C      tau(  33) = (  -0.2998490   0.7904822  -0.0621631  )
        34        C      tau(  34) = (   0.2223030   0.6803833   0.4581693  )
        35        C      tau(  35) = (   0.0298587   0.8730083   0.2656725  )
        36        C      tau(  36) = (  -0.1630143   1.0643451   0.0738236  )
        37        C      tau(  37) = (  -0.2853929   0.1361882   0.4217105  )
        38        C      tau(  38) = (  -0.4782509   0.3280898   0.2292633  )
        39        C      tau(  39) = (  -0.6689852   0.5214692   0.0373964  )
        40        C      tau(  40) = (  -0.1492931   0.4083476   0.5576359  )
        41        C      tau(  41) = (  -0.3433057   0.5983091   0.3627214  )
        42        C      tau(  42) = (  -0.5313434   0.7947709   0.1736336  )
        43        C      tau(  43) = (  -0.0135887   0.6804959   0.6935231  )
        44        C      tau(  44) = (  -0.2061021   0.8727058   0.4999970  )
        45        C      tau(  45) = (  -0.3982670   1.0654466   0.3089223  )
        46        C      tau(  46) = (  -0.5212364   0.1362343   0.6574195  )
        47        C      tau(  47) = (  -0.7138134   0.3287587   0.4649900  )
        48        C      tau(  48) = (  -0.9059938   0.5211626   0.2723697  )
        49        C      tau(  49) = (  -0.3851231   0.4085354   0.7932041  )
        50        C      tau(  50) = (  -0.5777723   0.6009445   0.6009216  )
        51        C      tau(  51) = (  -0.7699144   0.7930426   0.4086384  )
        52        C      tau(  52) = (  -0.2491495   0.6804198   0.9294569  )
        53        C      tau(  53) = (  -0.4414895   0.8728323   0.7367502  )
        54        C      tau(  54) = (  -0.6340878   1.0653222   0.5446831  )
        55        C      tau(  55) = (  -0.2141437   0.0965245   0.0216736  )
        56        C      tau(  56) = (  -0.4067479   0.2887739  -0.1705491  )
        57        C      tau(  57) = (  -0.5990787   0.4810826  -0.3632124  )
        58        C      tau(  58) = (  -0.0792230   0.3696444   0.1580029  )
        59        C      tau(  59) = (  -0.2724417   0.5638427  -0.0347488  )
        60        C      tau(  60) = (  -0.4629917   0.7534227  -0.2271779  )
        61        C      tau(  61) = (   0.0580811   0.6406195   0.2938598  )
        62        C      tau(  62) = (  -0.1345073   0.8306008   0.1031786  )
        63        C      tau(  63) = (  -0.3272426   1.0244966  -0.0904047  )
        64        C      tau(  64) = (  -0.4499123   0.0962691   0.2571911  )
        65        C      tau(  65) = (  -0.6422076   0.2887465   0.0647214  )
        66        C      tau(  66) = (  -0.8344745   0.4813156  -0.1273627  )
        67        C      tau(  67) = (  -0.3137147   0.3680129   0.3937995  )
        68        C      tau(  68) = (  -0.5031890   0.5595149   0.2028381  )
        69        C      tau(  69) = (  -0.6972917   0.7535232   0.0088075  )
        70        C      tau(  70) = (  -0.1783685   0.6405128   0.5280132  )
        71        C      tau(  71) = (  -0.3711918   0.8336302   0.3337852  )
        72        C      tau(  72) = (  -0.5626053   1.0255714   0.1445839  )
        73        C      tau(  73) = (  -0.6856360   0.0963442   0.4930199  )
        74        C      tau(  74) = (  -0.8778276   0.2889853   0.3004996  )
        75        C      tau(  75) = (  -1.0703796   0.4811559   0.1082267  )
        76        C      tau(  76) = (  -0.5495944   0.3686049   0.6292090  )
        77        C      tau(  77) = (  -0.7419037   0.5611196   0.4367903  )
        78        C      tau(  78) = (  -0.9340356   0.7533206   0.2442041  )
        79        C      tau(  79) = (  -0.4133276   0.6407034   0.7650359  )
        80        C      tau(  80) = (  -0.6058911   0.8328413   0.5726616  )
        81        C      tau(  81) = (  -0.7983386   1.0254683   0.3804324  )
        82        C      tau(  82) = (  -0.0285189   0.2328187  -0.0279724  )
        83        C      tau(  83) = (  -0.2205736   0.4244364  -0.2215716  )
        84        C      tau(  84) = (  -0.4131178   0.6173098  -0.4128581  )
        85        C      tau(  85) = (   0.1088876   0.5043770   0.1078896  )
        86        C      tau(  86) = (  -0.0853507   0.6970759  -0.0837882  )
        87        C      tau(  87) = (  -0.2770873   0.8896508  -0.2780736  )
        88        C      tau(  88) = (   0.2437376   0.7766896   0.2439973  )
        89        C      tau(  89) = (   0.0525058   0.9696235   0.0515195  )
        90        C      tau(  90) = (  -0.1411538   1.1611701  -0.1405933  )
        91        C      tau(  91) = (  -0.2640018   0.2320418   0.2076990  )
        92        C      tau(  92) = (  -0.4561043   0.4254277   0.0153771  )
        93        C      tau(  93) = (  -0.6493869   0.6171848  -0.1782521  )
        94        C      tau(  94) = (  -0.1282542   0.5049775   0.3432272  )
        95        C      tau(  95) = (  -0.5121107   0.8889002  -0.0406767  )
        96        C      tau(  96) = (   0.0091135   0.7769638   0.4802484  )
        97        C      tau(  97) = (  -0.1846463   0.9683563   0.2867877  )
        98        C      tau(  98) = (  -0.3770278   1.1626938   0.0949110  )
        99        C      tau(  99) = (  -0.4996679   0.2323428   0.4432921  )
       100        C      tau( 100) = (  -0.6922975   0.4245577   0.2509661  )
       101        C      tau( 101) = (  -0.8840247   0.6173601   0.0584516  )
       102        C      tau( 102) = (  -0.3636554   0.5042996   0.5796082  )
       103        C      tau( 103) = (  -0.5555170   0.6970281   0.3863896  )
       104        C      tau( 104) = (  -0.7492875   0.8901187   0.1945834  )
       105        C      tau( 105) = (  -0.2275724   0.7766421   0.7149038  )
       106        C      tau( 106) = (  -0.4202484   0.9699570   0.5236224  )
       107        C      tau( 107) = (  -0.6122933   1.1614670   0.3304742  )
       108        C      tau( 108) = (  -0.0731682   0.1164504   0.0449126  )
       109        C      tau( 109) = (  -0.2657260   0.3091331  -0.1474027  )
       110        C      tau( 110) = (  -0.4580182   0.5010191  -0.3398969  )
       111        C      tau( 111) = (   0.0627257   0.3888289   0.1810491  )
       112        C      tau( 112) = (  -0.1305315   0.5818651  -0.0106527  )
       113        C      tau( 113) = (  -0.3214704   0.7744723  -0.2049447  )
       114        C      tau( 114) = (   0.1989888   0.6604357   0.3171101  )
       115        C      tau( 115) = (   0.0073468   0.8542567   0.1238725  )
       116        C      tau( 116) = (  -0.1860752   1.0447873  -0.0674327  )
       117        C      tau( 117) = (  -0.3087293   0.1161939   0.2805359  )
       118        C      tau( 118) = (  -0.5012076   0.3087498   0.0880698  )
       119        C      tau( 119) = (  -0.6931909   0.5012749  -0.1042196  )
       120        C      tau( 120) = (  -0.1726566   0.3884696   0.4166207  )
       121        C      tau( 121) = (  -0.5559967   0.7731086   0.0323292  )
       122        C      tau( 122) = (  -0.0367344   0.6605580   0.5522369  )
       123        C      tau( 123) = (  -0.2295271   0.8523234   0.3587988  )
       124        C      tau( 124) = (  -0.4211767   1.0468734   0.1671626  )
       125        C      tau( 125) = (  -0.5444997   0.1161908   0.5163071  )
       126        C      tau( 126) = (  -0.7370031   0.3086995   0.3237999  )
       127        C      tau( 127) = (  -0.9291582   0.5012096   0.1313850  )
       128        C      tau( 128) = (  -0.4083768   0.3884376   0.6524261  )
       129        C      tau( 129) = (  -0.6008323   0.5809308   0.4598749  )
       130        C      tau( 130) = (  -0.7927852   0.7733729   0.2674729  )
       131        C      tau( 131) = (  -0.2723339   0.6605819   0.7882093  )
       132        C      tau( 132) = (  -0.4647802   0.8529603   0.5954779  )
       133        C      tau( 133) = (  -0.6572392   1.0453016   0.4036065  )
       134        C      tau( 134) = (  -0.1230222   0.2526583   0.2308140  )
       135        C      tau( 135) = (  -0.3161844   0.4469821   0.0393107  )
       136        C      tau( 136) = (  -0.5093007   0.6369208  -0.1545340  )
       137        C      tau( 137) = (   0.0129694   0.5245288   0.3667570  )
       138        C      tau( 138) = (  -0.1672121   0.7187327   0.1763051  )
       139        C      tau( 139) = (  -0.3718326   0.9080653  -0.0171193  )
       140        C      tau( 140) = (   0.1494667   0.7968311   0.5034339  )
       141        C      tau( 141) = (  -0.0433254   0.9890726   0.3104063  )
       142        C      tau( 142) = (  -0.2357215   1.1813968   0.1181263  )
       143        C      tau( 143) = (  -0.3585447   0.2521169   0.4666293  )
       144        C      tau( 144) = (  -0.5521150   0.4439800   0.2743077  )
       145        C      tau( 145) = (  -0.7425001   0.6374314   0.0816785  )
       146        C      tau( 146) = (  -0.2225312   0.5245224   0.6021857  )
       147        C      tau( 147) = (  -0.4148559   0.7165585   0.4075553  )
       148        C      tau( 148) = (  -0.6089912   0.9092816   0.2175169  )
       149        C      tau( 149) = (  -0.0864820   0.7965907   0.7383434  )
       150        C      tau( 150) = (  -0.2789801   0.9890607   0.5459270  )
       151        C      tau( 151) = (  -0.4710904   1.1815193   0.3537467  )
       152        C      tau( 152) = (  -0.5944558   0.2525501   0.7022768  )
       153        C      tau( 153) = (  -0.7869332   0.4449644   0.5097846  )
       154        C      tau( 154) = (  -0.9789825   0.6372553   0.3173747  )
       155        C      tau( 155) = (  -0.4578251   0.5241341   0.8380295  )
       156        C      tau( 156) = (  -0.6508306   0.7169578   0.6457972  )
       157        C      tau( 157) = (  -0.8432057   0.9092242   0.4534377  )
       158        C      tau( 158) = (  -0.3222364   0.7966380   0.9743160  )
       159        C      tau( 159) = (  -0.5141910   0.9897018   0.7815493  )
       160        C      tau( 160) = (  -0.7071227   1.1813476   0.5895591  )
       161        C      tau( 161) = (  -0.2872838   0.2128018   0.0665524  )
       162        C      tau( 162) = (  -0.4795311   0.4050281  -0.1257436  )
       163        C      tau( 163) = (  -0.6725788   0.5973694  -0.3186116  )
       164        C      tau( 164) = (  -0.1525827   0.4866785   0.2029123  )
       165        C      tau( 165) = (  -0.3454520   0.6754845  -0.0019348  )
       166        C      tau( 166) = (  -0.5358957   0.8695550  -0.1821640  )
       167        C      tau( 167) = (  -0.0145724   0.7569620   0.3401944  )
       168        C      tau( 168) = (  -0.2080360   0.9478091   0.1466773  )
       169        C      tau( 169) = (  -0.3999468   1.1415491  -0.0460991  )
       170        C      tau( 170) = (  -0.5229631   0.2122223   0.3022109  )
       171        C      tau( 171) = (  -0.7149604   0.4050390   0.1097565  )
       172        C      tau( 172) = (  -0.9074613   0.5973877  -0.0826360  )
       173        C      tau( 173) = (  -0.3868988   0.4840681   0.4395239  )
       174        C      tau( 174) = (  -0.5766585   0.6772986   0.2457526  )
       175        C      tau( 175) = (  -0.7714174   0.8695754   0.0534897  )
       176        C      tau( 176) = (  -0.2508190   0.7567332   0.5733596  )
       177        C      tau( 177) = (  -0.4430310   0.9495503   0.3834771  )
       178        C      tau( 178) = (  -0.6355889   1.1416052   0.1892481  )
       179        C      tau( 179) = (  -0.7587202   0.2126929   0.5380123  )
       180        C      tau( 180) = (  -0.9506970   0.4045433   0.3451576  )
       181        C      tau( 181) = (  -1.1434389   0.5973809   0.1531136  )
       182        C      tau( 182) = (  -0.6225889   0.4848410   0.6741289  )
       183        C      tau( 183) = (  -0.8149297   0.6771407   0.4816981  )
       184        C      tau( 184) = (  -1.0071791   0.8700828   0.2885613  )
       185        C      tau( 185) = (  -0.4864962   0.7567525   0.8098610  )
       186        C      tau( 186) = (  -0.6788895   0.9490940   0.6177539  )
       187        C      tau( 187) = (  -0.8713672   1.1414952   0.4253146  )
       188        C      tau( 188) = (  -0.1017283   0.3494103   0.0169471  )
       189        C      tau( 189) = (  -0.2930158   0.5397019  -0.1763842  )
       190        C      tau( 190) = (  -0.4862544   0.7336159  -0.3680750  )
       191        C      tau( 191) = (   0.0357525   0.6194745   0.1523841  )
       192        C      tau( 192) = (  -0.1583684   0.8121155  -0.0386839  )
       193        C      tau( 193) = (  -0.3501220   1.0054252  -0.2320479  )
       194        C      tau( 194) = (   0.1707301   0.8930271   0.2889095  )
       195        C      tau( 195) = (  -0.0215806   1.0851427   0.0964936  )
       196        C      tau( 196) = (  -0.2140638   1.2775597  -0.0959242  )
       197        C      tau( 197) = (  -0.3368011   0.3471967   0.2525570  )
       198        C      tau( 198) = (  -0.5270511   0.5417668   0.0606134  )
       199        C      tau( 199) = (  -0.7215840   0.7334280  -0.1324907  )
       200        C      tau( 200) = (  -0.2016470   0.6207231   0.3860175  )
       201        C      tau( 201) = (  -0.3994973   0.8231415   0.1997697  )
       202        C      tau( 202) = (  -0.5856547   1.0054991   0.0035388  )
       203        C      tau( 203) = (  -0.0648026   0.8927899   0.5242907  )
       204        C      tau( 204) = (  -0.2571831   1.0851996   0.3320104  )
       205        C      tau( 205) = (  -0.4495592   1.2784873   0.1393462  )
       206        C      tau( 206) = (  -0.5728184   0.3484310   0.4882748  )
       207        C      tau( 207) = (  -0.7647683   0.5411178   0.2956431  )
       208        C      tau( 208) = (  -0.9572703   0.7334689   0.1032541  )
       209        C      tau( 209) = (  -0.4366006   0.6207447   0.6238108  )
       210        C      tau( 210) = (  -0.6288695   0.8130292   0.4315955  )
       211        C      tau( 211) = (  -0.8220294   1.0056776   0.2391472  )
       212        C      tau( 212) = (  -0.3005554   0.8928147   0.7599690  )
       213        C      tau( 213) = (  -0.4928555   1.0855486   0.5683211  )
       214        C      tau( 214) = (  -0.6853414   1.2776871   0.3753225  )
       215        N      tau( 215) = (  -0.3694532   0.5696816   0.2312252  )

   Crystallographic axes

     site n.     atom                  positions (cryst. coord.)
         1        C      tau(   1) = (  0.0001701  0.0000648  0.0000648  )
         2        C      tau(   2) = (  0.0002603  0.0003236  0.3334611  )
         3        C      tau(   3) = (  0.0001326 -0.0000512  0.6666818  )
         4        C      tau(   4) = (  0.0002603  0.3334611  0.0003236  )
         5        C      tau(   5) = (  0.0009193  0.3341754  0.3341754  )
         6        C      tau(   6) = (  0.0000059  0.3334060  0.6667187  )
         7        C      tau(   7) = (  0.0001326  0.6666818 -0.0000512  )
         8        C      tau(   8) = (  0.0000059  0.6667187  0.3334060  )
         9        C      tau(   9) = (  0.0008421  0.6659945  0.6659945  )
        10        C      tau(  10) = (  0.3332984  0.0002621  0.0002621  )
        11        C      tau(  11) = (  0.3333444  0.0000027  0.3335899  )
        12        C      tau(  12) = (  0.3334378  0.0001024  0.6664462  )
        13        C      tau(  13) = (  0.3333444  0.3335899  0.0000027  )
        14        C      tau(  14) = (  0.3370153  0.3342216  0.3342216  )
        15        C      tau(  15) = (  0.3305695  0.3349678  0.6653855  )
        16        C      tau(  16) = (  0.3334378  0.6664462  0.0001024  )
        17        C      tau(  17) = (  0.3305695  0.6653855  0.3349678  )
        18        C      tau(  18) = (  0.3358278  0.6653925  0.6653925  )
        19        C      tau(  19) = (  0.6666337  0.0000296  0.0000296  )
        20        C      tau(  20) = (  0.6666165 -0.0000747  0.3334671  )
        21        C      tau(  21) = (  0.6666140  0.0002370  0.6667165  )
        22        C      tau(  22) = (  0.6666165  0.3334671 -0.0000747  )
        23        C      tau(  23) = (  0.6672289  0.3331766  0.3331766  )
        24        C      tau(  24) = (  0.6655311  0.3339767  0.6657177  )
        25        C      tau(  25) = (  0.6666140  0.6667165  0.0002370  )
        26        C      tau(  26) = (  0.6655311  0.6657177  0.3339767  )
        27        C      tau(  27) = (  0.6667962  0.6667433  0.6667433  )
        28        C      tau(  28) = (  0.1667480  0.1668511  0.0002363  )
        29        C      tau(  29) = (  0.1677440  0.1679307  0.3339751  )
        30        C      tau(  30) = (  0.1667207  0.1666686  0.6667429  )
        31        C      tau(  31) = (  0.1670178  0.5000262  0.0001024  )
        32        C      tau(  32) = (  0.1680743  0.5028913  0.3349656  )
        33        C      tau(  33) = (  0.1680693  0.4976352  0.6653929  )
        34        C      tau(  34) = (  0.1667827  0.8333322 -0.0000514  )
        35        C      tau(  35) = (  0.1667456  0.8334584  0.3334065  )
        36        C      tau(  36) = (  0.1674697  0.8326222  0.6659942  )
        37        C      tau(  37) = (  0.4999976  0.1668486 -0.0000747  )
        38        C      tau(  38) = (  0.5002881  0.1662354  0.3331758  )
        39        C      tau(  39) = (  0.4994873  0.1679328  0.6657183  )
        40        C      tau(  40) = (  0.4998742  0.5001197  0.0000028  )
        41        C      tau(  41) = (  0.4992366  0.4964438  0.3342243  )
        42        C      tau(  42) = (  0.4984941  0.5028934  0.6653850  )
        43        C      tau(  43) = (  0.5000036  0.8332047  0.0003241  )
        44        C      tau(  44) = (  0.4992875  0.8325434  0.3341766  )
        45        C      tau(  45) = (  0.5000583  0.8334587  0.6667191  )
        46        C      tau(  46) = (  0.8334356  0.1668313  0.0000296  )
        47        C      tau(  47) = (  0.8335399  0.1668486  0.3334671  )
        48        C      tau(  48) = (  0.8332288  0.1668515  0.6667164  )
        49        C      tau(  49) = (  0.8332031  0.5001662  0.0002623  )
        50        C      tau(  50) = (  0.8334625  0.5001198  0.3335902  )
        51        C      tau(  51) = (  0.8333626  0.5000262  0.6664461  )
        52        C      tau(  52) = (  0.8334005  0.8332948  0.0000649  )
        53        C      tau(  53) = (  0.8331413  0.8332043  0.3334611  )
        54        C      tau(  54) = (  0.8335169  0.8333327  0.6666819  )
        55        C      tau(  55) = (  0.1667480  0.0002363  0.1668511  )
        56        C      tau(  56) = (  0.1670178  0.0001024  0.5000262  )
        57        C      tau(  57) = (  0.1667827 -0.0000514  0.8333322  )
        58        C      tau(  58) = (  0.1677440  0.3339751  0.1679307  )
        59        C      tau(  59) = (  0.1680743  0.3349656  0.5028913  )
        60        C      tau(  60) = (  0.1667456  0.3334065  0.8334584  )
        61        C      tau(  61) = (  0.1667207  0.6667429  0.1666686  )
        62        C      tau(  62) = (  0.1680693  0.6653929  0.4976352  )
        63        C      tau(  63) = (  0.1674697  0.6659942  0.8326222  )
        64        C      tau(  64) = (  0.4999976 -0.0000747  0.1668486  )
        65        C      tau(  65) = (  0.4998742  0.0000028  0.5001197  )
        66        C      tau(  66) = (  0.5000036  0.0003241  0.8332047  )
        67        C      tau(  67) = (  0.5002881  0.3331758  0.1662354  )
        68        C      tau(  68) = (  0.4992366  0.3342243  0.4964438  )
        69        C      tau(  69) = (  0.4992875  0.3341766  0.8325434  )
        70        C      tau(  70) = (  0.4994873  0.6657183  0.1679328  )
        71        C      tau(  71) = (  0.4984941  0.6653851  0.5028934  )
        72        C      tau(  72) = (  0.5000583  0.6667191  0.8334587  )
        73        C      tau(  73) = (  0.8334356  0.0000296  0.1668313  )
        74        C      tau(  74) = (  0.8332031  0.0002623  0.5001662  )
        75        C      tau(  75) = (  0.8334005  0.0000649  0.8332948  )
        76        C      tau(  76) = (  0.8335399  0.3334671  0.1668486  )
        77        C      tau(  77) = (  0.8334625  0.3335902  0.5001198  )
        78        C      tau(  78) = (  0.8331413  0.3334611  0.8332043  )
        79        C      tau(  79) = (  0.8332288  0.6667164  0.1668515  )
        80        C      tau(  80) = (  0.8333626  0.6664461  0.5000262  )
        81        C      tau(  81) = (  0.8335169  0.6666819  0.8333327  )
        82        C      tau(  82) = (  0.0003864  0.1670332  0.1670332  )
        83        C      tau(  83) = ( -0.0007057  0.1660458  0.5003211  )
        84        C      tau(  84) = (  0.0001836  0.1668281  0.8332814  )
        85        C      tau(  85) = ( -0.0007057  0.5003211  0.1660458  )
        86        C      tau(  86) = (  0.0011049  0.5001094  0.5001094  )
        87        C      tau(  87) = ( -0.0006974  0.4997534  0.8341625  )
        88        C      tau(  88) = (  0.0001836  0.8332814  0.1668281  )
        89        C      tau(  89) = ( -0.0006974  0.8341625  0.4997534  )
        90        C      tau(  90) = (  0.0003963  0.8330687  0.8330687  )
        91        C      tau(  91) = (  0.3335429  0.1664758  0.1664758  )
        92        C      tau(  92) = (  0.3333877  0.1674342  0.5000747  )
        93        C      tau(  93) = (  0.3331426  0.1660470  0.8341694  )
        94        C      tau(  94) = (  0.3333877  0.5000747  0.1674342  )
        95        C      tau(  95) = (  0.3333542  0.5001094  0.8323587  )
        96        C      tau(  96) = (  0.3331426  0.8341694  0.1660470  )
        97        C      tau(  97) = (  0.3333542  0.8323587  0.5001094  )
        98        C      tau(  98) = (  0.3337111  0.8341618  0.8341618  )
        99        C      tau(  99) = (  0.6667734  0.1666918  0.1666918  )
       100        C      tau( 100) = (  0.6669881  0.1664771  0.4999213  )
       101        C      tau( 101) = (  0.6664314  0.1670336  0.8330779  )
       102        C      tau( 102) = (  0.6669881  0.4999213  0.1664771  )
       103        C      tau( 103) = (  0.6660285  0.5000751  0.5000751  )
       104        C      tau( 104) = (  0.6674175  0.5003219  0.8341689  )
       105        C      tau( 105) = (  0.6664314  0.8330779  0.1670336  )
       106        C      tau( 106) = (  0.6674175  0.8341689  0.5003219  )
       107        C      tau( 107) = (  0.6666373  0.8332816  0.8332816  )
       108        C      tau( 108) = (  0.0834957  0.0835461  0.0835461  )
       109        C      tau( 109) = (  0.0836672  0.0837470  0.4169981  )
       110        C      tau( 110) = (  0.0835244  0.0833329  0.7499400  )
       111        C      tau( 111) = (  0.0836672  0.4169981  0.0837470  )
       112        C      tau( 112) = (  0.0847671  0.4174527  0.4174527  )
       113        C      tau( 113) = (  0.0823961  0.4174459  0.7510677  )
       114        C      tau( 114) = (  0.0835244  0.7499400  0.0833329  )
       115        C      tau( 115) = (  0.0823961  0.7510677  0.4174459  )
       116        C      tau( 116) = (  0.0838930  0.7495711  0.7495711  )
       117        C      tau( 117) = (  0.4166734  0.0833621  0.0833621  )
       118        C      tau( 118) = (  0.4166820  0.0834303  0.4167820  )
       119        C      tau( 119) = (  0.4164656  0.0837478  0.7497963  )
       120        C      tau( 120) = (  0.4166820  0.4167820  0.0834303  )
       121        C      tau( 121) = (  0.4160092  0.4174541  0.7486940  )
       122        C      tau( 122) = (  0.4164656  0.7497963  0.0837478  )
       123        C      tau( 123) = (  0.4160092  0.7486940  0.4174541  )
       124        C      tau( 124) = (  0.4160187  0.7510677  0.7510677  )
       125        C      tau( 125) = (  0.7501037  0.0833598  0.0833598  )
       126        C      tau( 126) = (  0.7501009  0.0833626  0.4167907  )
       127        C      tau( 127) = (  0.7499173  0.0835464  0.7499681  )
       128        C      tau( 128) = (  0.7501009  0.4167907  0.0833626  )
       129        C      tau( 129) = (  0.7500333  0.4167824  0.4167824  )
       130        C      tau( 130) = (  0.7497157  0.4169985  0.7497963  )
       131        C      tau( 131) = (  0.7499173  0.7499681  0.0835464  )
       132        C      tau( 132) = (  0.7497157  0.7497963  0.4169985  )
       133        C      tau( 133) = (  0.7501312  0.7499401  0.7499401  )
       134        C      tau( 134) = (  0.2502000  0.2503005  0.0836387  )
       135        C      tau( 135) = (  0.2513730  0.2519262  0.4179183  )
       136        C      tau( 136) = (  0.2508580  0.2490343  0.7509915  )
       137        C      tau( 137) = (  0.2501656  0.5832986  0.0836017  )
       138        C      tau( 138) = (  0.2429034  0.5905550  0.4097107  )
       139        C      tau( 139) = (  0.2508202  0.5826433  0.7488333  )
       140        C      tau( 140) = (  0.2502926  0.9171554  0.0830983  )
       141        C      tau( 141) = (  0.2501261  0.9166097  0.4168421  )
       142        C      tau( 142) = (  0.2502081  0.9165984  0.7499734  )
       143        C      tau( 143) = (  0.5834862  0.2499779  0.0831571  )
       144        C      tau( 144) = (  0.5843691  0.2490938  0.4167241  )
       145        C      tau( 145) = (  0.5827823  0.2506812  0.7495467  )
       146        C      tau( 146) = (  0.5831629  0.5832640  0.0836395  )
       147        C      tau( 147) = (  0.5815325  0.5820872  0.4179202  )
       148        C      tau( 148) = (  0.5844295  0.5826066  0.7509918  )
       149        C      tau( 149) = (  0.5832396  0.9165349  0.0835595  )
       150        C      tau( 150) = (  0.5832974  0.9165453  0.4169125  )
       151        C      tau( 151) = (  0.5832479  0.9168011  0.7498989  )
       152        C      tau( 152) = (  0.9169284  0.2502241  0.0835594  )
       153        C      tau( 153) = (  0.9169179  0.2501664  0.4169121  )
       154        C      tau( 154) = (  0.9166630  0.2502165  0.7498990  )
       155        C      tau( 155) = (  0.9163076  0.5831715  0.0830978  )
       156        C      tau( 156) = (  0.9168543  0.5833387  0.4168418  )
       157        C      tau( 157) = (  0.9168654  0.5832563  0.7499735  )
       158        C      tau( 158) = (  0.9168010  0.9166626  0.0834608  )
       159        C      tau( 159) = (  0.9162268  0.9172367  0.4170452  )
       160        C      tau( 160) = (  0.9168925  0.9165712  0.7499267  )
       161        C      tau( 161) = (  0.2502000  0.0836387  0.2503005  )
       162        C      tau( 162) = (  0.2501656  0.0836017  0.5832986  )
       163        C      tau( 163) = (  0.2502926  0.0830983  0.9171554  )
       164        C      tau( 164) = (  0.2513730  0.4179183  0.2519262  )
       165        C      tau( 165) = (  0.2429034  0.4097107  0.5905550  )
       166        C      tau( 166) = (  0.2501261  0.4168421  0.9166097  )
       167        C      tau( 167) = (  0.2508580  0.7509915  0.2490343  )
       168        C      tau( 168) = (  0.2508202  0.7488333  0.5826433  )
       169        C      tau( 169) = (  0.2502081  0.7499734  0.9165984  )
       170        C      tau( 170) = (  0.5834862  0.0831571  0.2499779  )
       171        C      tau( 171) = (  0.5831629  0.0836395  0.5832640  )
       172        C      tau( 172) = (  0.5832396  0.0835595  0.9165349  )
       173        C      tau( 173) = (  0.5843691  0.4167241  0.2490938  )
       174        C      tau( 174) = (  0.5815325  0.4179202  0.5820871  )
       175        C      tau( 175) = (  0.5832974  0.4169125  0.9165453  )
       176        C      tau( 176) = (  0.5827823  0.7495467  0.2506812  )
       177        C      tau( 177) = (  0.5844295  0.7509918  0.5826066  )
       178        C      tau( 178) = (  0.5832479  0.7498989  0.9168011  )
       179        C      tau( 179) = (  0.9169284  0.0835594  0.2502241  )
       180        C      tau( 180) = (  0.9163076  0.0830978  0.5831715  )
       181        C      tau( 181) = (  0.9168010  0.0834608  0.9166626  )
       182        C      tau( 182) = (  0.9169179  0.4169121  0.2501664  )
       183        C      tau( 183) = (  0.9168543  0.4168418  0.5833387  )
       184        C      tau( 184) = (  0.9162268  0.4170452  0.9172367  )
       185        C      tau( 185) = (  0.9166630  0.7498990  0.2502165  )
       186        C      tau( 186) = (  0.9168654  0.7499735  0.5832563  )
       187        C      tau( 187) = (  0.9168925  0.7499267  0.9165712  )
       188        C      tau( 188) = (  0.0839162  0.2506806  0.2506806  )
       189        C      tau( 189) = (  0.0824710  0.2490330  0.5826053  )
       190        C      tau( 190) = (  0.0835655  0.2502164  0.9168006  )
       191        C      tau( 191) = (  0.0824710  0.5826053  0.2490330  )
       192        C      tau( 192) = (  0.0846297  0.5826433  0.5826433  )
       193        C      tau( 193) = (  0.0834910  0.5832564  0.9165984  )
       194        C      tau( 194) = (  0.0835655  0.9168006  0.2502164  )
       195        C      tau( 195) = (  0.0834910  0.9165984  0.5832564  )
       196        C      tau( 196) = (  0.0835373  0.9165711  0.9165711  )
       197        C      tau( 197) = (  0.4167391  0.2490925  0.2490925  )
       198        C      tau( 198) = (  0.4155416  0.2519283  0.5820872  )
       199        C      tau( 199) = (  0.4165519  0.2501669  0.9165452  )
       200        C      tau( 200) = (  0.4155416  0.5820872  0.2519283  )
       201        C      tau( 201) = (  0.4237458  0.5905538  0.5905538  )
       202        C      tau( 202) = (  0.4166227  0.5833387  0.9166099  )
       203        C      tau( 203) = (  0.4165519  0.9165452  0.2501669  )
       204        C      tau( 204) = (  0.4166227  0.9166099  0.5833387  )
       205        C      tau( 205) = (  0.4164190  0.9172366  0.9172366  )
       206        C      tau( 206) = (  0.7503062  0.2499780  0.2499780  )
       207        C      tau( 207) = (  0.7498241  0.2503013  0.5832641  )
       208        C      tau( 208) = (  0.7499040  0.2502242  0.9165350  )
       209        C      tau( 209) = (  0.7498241  0.5832641  0.2503012  )
       210        C      tau( 210) = (  0.7498620  0.5832988  0.5832988  )
       211        C      tau( 211) = (  0.7503652  0.5831717  0.9171554  )
       212        C      tau( 212) = (  0.7499040  0.9165350  0.2502242  )
       213        C      tau( 213) = (  0.7503652  0.9171554  0.5831717  )
       214        C      tau( 214) = (  0.7500026  0.9166625  0.9166625  )
       215        N      tau( 215) = (  0.4247438  0.4087118  0.4087118  )

     number of k points=     1
                       cart. coord. in units 2pi/alat
        k(    1) = (   0.0000000   0.0000000   0.0000000), wk =   1.0000000

                       cryst. coord.
        k(    1) = (   0.0000000   0.0000000   0.0000000), wk =   1.0000000

     Dense  grid:   338755 G-vectors     FFT dimensions: (  90,  90,  90)

     Dynamical RAM for                 wfc:      19.93 MB

     Dynamical RAM for     wfc (w. buffer):      59.80 MB

     Dynamical RAM for           str. fact:       0.37 MB

     Dynamical RAM for           local pot:       0.00 MB

     Dynamical RAM for          nlocal pot:      39.68 MB

     Dynamical RAM for                qrad:       0.62 MB

     Dynamical RAM for          rho,v,vnew:       2.59 MB

     Dynamical RAM for           G-vectors:       0.78 MB

     Dynamical RAM for          h,s,v(r/c):       5.45 MB

     Dynamical RAM for          <psi|beta>:      22.68 MB

     Dynamical RAM for                 psi:      39.87 MB

     Dynamical RAM for                hpsi:      39.87 MB

     Dynamical RAM for                spsi:      39.87 MB

     Dynamical RAM for      wfcinit/wfcrot:      56.96 MB

     Dynamical RAM for           addusdens:      47.63 MB

     Estimated static dynamical RAM per process >     105.88 MB

     Estimated max dynamical RAM per process >     253.61 MB

     Estimated total dynamical RAM >       6.93 GB

     Check: negative core charge=   -0.000075
     Generating pointlists ...
     new r_m :   0.0565 (alat units)  1.1452 (a.u.) for type    1
     new r_m :   0.0565 (alat units)  1.1452 (a.u.) for type    2

     The potential is recalculated from file :
     ../tmp/diamond_pd.save/charge-density

     Starting wfcs are random
     Checking if some PAW data can be deallocated... 
       PAW data deallocated on   27 nodes for type:  2

     Band Structure Calculation
     Davidson diagonalization with overlap

     Computing kpt #:     1  of     2
     total cpu time spent up to now is      209.3 secs

     Computing kpt #:     2  of     2
     total cpu time spent up to now is      414.8 secs

     ethr =  1.16E-12,  avg # of iterations = 69.0

     total cpu time spent up to now is      414.8 secs

     End of band structure calculation

 ------ SPIN UP ------------


          k = 0.0000 0.0000 0.0000 ( 42379 PWs)   bands (ev):

    -8.3803  -7.5108  -7.3791  -7.3791  -7.3084  -7.3083  -7.2040  -6.6796
    -6.3725  -6.3725  -6.3486  -6.3486  -6.3340  -6.2871  -6.2843  -6.2843
    -6.1740  -6.1740  -6.0099  -5.5897  -5.2971  -5.2689  -5.2689  -5.2136
    -5.2058  -5.2058  -4.9800  -4.4616  -4.3409  -4.3409  -4.3200  -4.3200
    -4.2777  -3.8851  -3.4737  -3.4669  -3.4669  -3.4545  -3.4544  -3.4416
    -3.4253  -3.4242  -3.4242  -3.4069  -3.4069  -3.4023  -3.3850  -3.3850
    -3.3297  -3.3269  -3.3269  -3.3078  -3.3055  -3.3055  -3.2126  -3.2126
    -3.0989  -2.9067  -2.7045  -2.7045  -2.6695  -2.6609  -2.6608  -2.6308
    -2.6300  -2.6207  -2.6207  -2.5608  -2.5608  -2.5200  -2.5045  -2.5045
    -2.4930  -2.4930  -2.4271  -2.3788  -2.3788  -2.2568  -2.0881  -2.0881
    -1.5283  -1.1014  -0.9517  -0.9517  -0.8956  -0.8942  -0.8942  -0.8603
    -0.8603  -0.8546  -0.7610  -0.7610  -0.3248   0.2909   0.3041   0.3041
     0.3176   0.3177   0.3388   0.6837   0.7652   0.7704   0.7704   0.7990
     0.7991   0.8088   0.8184   0.8350   0.8350   0.8540   0.8541   0.8988
     0.8988   0.9328   0.9931   0.9931   1.0024   1.0106   1.0304   1.0304
     1.0327   1.0441   1.0441   1.0474   1.0550   1.0593   1.0593   1.0697
     1.0697   1.0892   1.1371   1.1446   1.1446   1.1900   1.1900   1.1968
     1.1968   1.2091   1.2091   1.2243   1.2723   1.2723   1.3508   1.5207
     1.6324   1.6324   1.9075   2.1814   2.1814   2.1981   2.2217   2.2217
     2.2258   2.2609   2.2890   2.2890   2.5337   2.5338   3.4671   3.6781
     3.6781   3.7018   3.7308   3.7402   3.7402   3.7556   3.7556   3.7649
     3.7657   3.7796   3.7976   3.7976   3.8020   3.8230   3.8230   3.9370
     3.9370   3.9402   4.0007   4.3176   4.3177   4.3688   4.3717   4.3949
     4.3949   4.3963   4.4114   4.4114   4.4267   4.4267   4.4354   4.4560
     4.4560   4.4876   4.4957   4.4957   4.5055   4.5373   4.5373   4.5373
     4.8246   4.8246   5.1777   5.1777   5.1780   5.2035   5.2099   5.2099
     5.2247   5.2295   5.2295   5.2376   5.2556   5.2556   5.3120   5.3120
     5.3969   5.3969   5.4058   5.4202   5.4235   5.4598   5.4598   5.4774
     5.4945   5.4945   5.6281   5.6853   5.6853   5.7854   5.7854   5.8040
     5.8077   5.8169   5.8169   5.8613   5.8719   5.8748   5.8748   5.8794
     5.8837   5.8837   5.8905   5.9254   5.9350   5.9350   5.9550   5.9677
     5.9677   6.0000   6.0000   6.0523   6.0523   6.3749   6.3971   6.3971
     6.8337   6.8338   6.8916   6.9102   6.9480   6.9480   7.1417   7.3422
     7.3423   7.4135   7.4136   7.4183   7.4311   7.4440   7.4441   7.5210
     7.5519   7.5520   7.6810   7.6810   7.8129   7.8267   7.8333   7.8333
     7.8640   7.8640   7.8774   7.8928   7.9180   7.9180   7.9286   7.9627
     7.9798   7.9799   7.9996   7.9996   8.0030   8.0196   8.0196   8.0206
     8.0322   8.0501   8.0501   8.0553   8.0554   8.1084   8.1095   8.1095
     8.1305   8.1306   8.1367   8.1745   8.1785   8.1785   8.2028   8.2221
     8.2221   8.2340   8.2433   8.2433   8.2470   8.2506   8.2506   8.2671
     8.2671   8.2671   8.2929   8.3162   8.3162   8.3264   8.3337   8.3338
     8.3373   8.3373   8.3499   8.3518   8.3743   8.3743   8.3841   8.3841
     8.3866   8.4145   8.4145   8.4147   8.4709   8.4709   8.5064   8.5065
     8.5116   8.5371   8.5596   8.5596   8.5880   8.6007   8.6007   8.6077
     8.6207   8.7662   8.7662   8.8751   8.8752   8.8986   9.0370   9.0370
     9.0806   9.0921   9.1111   9.1111   9.1936   9.2008   9.2009   9.2185
     9.2612   9.2612   9.2945   9.2945   9.3080   9.3413   9.3413   9.4032
     9.5177   9.5178   9.5474  10.1166  10.2711  10.2712  10.4874  10.4875
    10.5291  10.5301  10.5302  10.5656  10.6031  10.6031  10.6280  10.6321
    10.6322  10.6427  10.6745  10.7307  10.7308  10.7902  10.7902  10.7947
    10.8206  10.8207  10.8404  10.8641  10.8641  10.8781  10.8782  10.9147
    10.9147  10.9231  10.9745  10.9945  10.9946  11.4961  11.4962  11.5337
    11.6989  11.7413  11.7414  11.7754  11.8259  11.8260  11.9057  12.0205
    12.0205  12.5206  13.0413  13.0414  13.1135  15.0303  16.7223  16.7223
    17.2157  17.2157  17.2489  17.2831  17.2831  17.2909  17.8344  17.8994
    17.8994  17.9122  17.9122  17.9938  18.0432  18.0432  18.1112  18.1549
    18.1549  18.2079  18.8477  18.8478  18.8558  19.3509  19.3971  19.3971
    19.4063  19.4305  19.4305  19.4442  19.4442  19.4611  19.4674  19.4674
    19.4871  19.9569  20.1014  20.1014  20.1181  20.1220  20.1221  20.1378
    20.1454  20.1455  20.1598  20.1598  20.1961  20.1961  20.2086  20.2283
    20.2537  20.2537  20.2594  20.2774  20.2774  20.2878  20.3196  20.3319
    20.3319  20.5705  20.5864  20.5864  20.5926  20.5953  20.5954  20.6016
    20.6201  20.6277  20.6277  20.6441  20.6567  20.6567  20.7086  20.7087
    20.7462  20.7462  20.7537  20.7911  20.7911  20.8037  20.8141  20.8141
    20.8191  20.8348  20.8348  20.8450  20.8492  20.8542  20.8542  20.8745
    20.8745  20.8786  20.8786  20.9028  20.9285  20.9599  20.9733  20.9733
    21.0388  21.0389  21.0481  21.1563  21.2351  21.2352  21.2457  21.2777
    21.2777  21.2811  21.2811  21.2857  21.3110  21.3110  21.3263  21.3291
    21.3292  21.3409  21.3409  21.3415  21.3498  21.3750  21.3750  21.4004
    21.4191  21.4192  21.4240  21.4241  21.4455  21.4572  21.4572  21.4836
    21.4837  21.4892  21.5123  21.5149  21.5171  21.5174  21.5174  21.5468
    21.5668  21.5693  21.5693  21.6350  21.6350  21.6625  21.6625  21.6646
    21.7186  21.7186  21.7221  21.7282  21.7282  21.7452  21.7785  21.7785
    21.8175  21.9387  21.9820  21.9820  22.0264  22.0265  22.0548  22.0548
    22.0711  22.1194  22.1329  22.1329  22.2112  22.2112  22.2208  22.2948
    22.3275  22.3276  22.4580  22.4580  22.4634  22.4836  22.4836  22.4950
    22.7560  22.8012  22.8013  22.9700  23.0130  23.0131  23.0330  23.0333
    23.0582  23.0582  23.0589  23.0589  23.0843  23.0843  23.0850  23.0992
    23.1034  23.1035  23.1293  23.2125  23.2415  23.2416  23.2781  23.3321
    23.3321  23.3623  23.3818  23.3819  23.4652  23.4774  23.4774  23.6865
    23.6970  23.6971  23.7128  23.7438  23.7655  23.7656  23.7847  23.7848
    23.8281  23.8282  23.8354  23.8355  23.8378  23.8502  23.8747  23.9815
    23.9815  24.0129  24.0156  24.0360  24.0360  24.1213  24.1213  24.1402
    24.1681  24.1714  24.1761  24.1761  24.1939  24.1939  24.2131  24.2179
    24.2179  24.2843  24.2937  24.2937  24.3297  24.3297  24.3444  24.3702
    24.3702  24.3800  24.3866  24.4058  24.4058  24.4384  24.4477  24.4477
    24.4575  24.4840  24.4840  24.4908  24.4909  24.5121  24.5362  24.5602
    24.5603  24.5766  24.5766  24.6714  24.7617  24.7617  24.7643  25.0936
    25.0937  25.1225  25.1225  25.6206  25.6327  25.6328  25.6486  25.6723
    25.7424  25.7424  25.7505  25.7505  25.9568  25.9856  25.9856  25.9921
    26.0423  26.0423  26.0929  26.1410  26.1623  26.1623  26.2377  26.3357
    26.3357  26.4020  26.5337  26.5337  26.5613  26.5672  26.5804  26.5804
    26.5828  26.6012  26.6012  26.6203  26.6203  26.6351  26.7000  26.7000
    26.7045  26.7283  26.7397  26.7397  26.8031  26.8070  26.8070  26.9442
    26.9443  26.9769  26.9846  26.9846  26.9950  26.9950  27.0028  27.0083
    27.0194  27.0194  27.0245  27.0259  27.0259  27.0947  27.0948  27.1174
    27.1322  27.1629  27.1629  27.2043  27.2044  27.2118  27.2118  27.2155
    27.2256  27.2355  27.2459  27.2460  27.2511  27.2636  27.2712  27.2712
    27.2858  27.3012  27.3012  27.3017  27.3051  27.3051  27.3265  27.3333
    27.3333  27.3524  27.3524  27.3652  27.3843  27.3844  27.3885  27.4267
    27.4268  27.4269  27.4392  27.4529  27.4529  27.4966  27.4966  27.5197
    27.5235  27.5236  27.5292  27.5447  27.5546  27.5546  27.5667  27.5753
    27.5913  27.5914  27.6082  27.6082  27.6136  27.6330  27.6330  27.7025
    27.7026  27.7489  27.7490  27.7828  27.8308  27.8429  27.8810  27.9239
    27.9239  27.9656  27.9656  28.0260  28.1138  28.1138  28.1338  28.1736
    28.1736  28.2768  28.2768  28.2976  28.3796  28.5157  28.5158  28.6408
    28.7639  28.7640  28.9982  29.0637  29.0638  29.0848  29.7643  29.8158
    29.8159  29.9578  29.9887  29.9888  30.0068  30.0354  30.0354  30.0582

     occupation numbers 
     1.0000   1.0000   1.0000   1.0000   1.0000   1.0000   1.0000   1.0000
     1.0000   1.0000   1.0000   1.0000   1.0000   1.0000   1.0000   1.0000
     1.0000   1.0000   1.0000   1.0000   1.0000   1.0000   1.0000   1.0000
     1.0000   1.0000   1.0000   1.0000   1.0000   1.0000   1.0000   1.0000
     1.0000   1.0000   1.0000   1.0000   1.0000   1.0000   1.0000   1.0000
     1.0000   1.0000   1.0000   1.0000   1.0000   1.0000   1.0000   1.0000
     1.0000   1.0000   1.0000   1.0000   1.0000   1.0000   1.0000   1.0000
     1.0000   1.0000   1.0000   1.0000   1.0000   1.0000   1.0000   1.0000
     1.0000   1.0000   1.0000   1.0000   1.0000   1.0000   1.0000   1.0000
     1.0000   1.0000   1.0000   1.0000   1.0000   1.0000   1.0000   1.0000
     1.0000   1.0000   1.0000   1.0000   1.0000   1.0000   1.0000   1.0000
     1.0000   1.0000   1.0000   1.0000   1.0000   1.0000   1.0000   1.0000
     1.0000   1.0000   1.0000   1.0000   1.0000   1.0000   1.0000   1.0000
     1.0000   1.0000   1.0000   1.0000   1.0000   1.0000   1.0000   1.0000
     1.0000   1.0000   1.0000   1.0000   1.0000   1.0000   1.0000   1.0000
     1.0000   1.0000   1.0000   1.0000   1.0000   1.0000   1.0000   1.0000
     1.0000   1.0000   1.0000   1.0000   1.0000   1.0000   1.0000   1.0000
     1.0000   1.0000   1.0000   1.0000   1.0000   1.0000   1.0000   1.0000
     1.0000   1.0000   1.0000   1.0000   1.0000   1.0000   1.0000   1.0000
     1.0000   1.0000   1.0000   1.0000   1.0000   1.0000   1.0000   1.0000
     1.0000   1.0000   1.0000   1.0000   1.0000   1.0000   1.0000   1.0000
     1.0000   1.0000   1.0000   1.0000   1.0000   1.0000   1.0000   1.0000
     1.0000   1.0000   1.0000   1.0000   1.0000   1.0000   1.0000   1.0000
     1.0000   1.0000   1.0000   1.0000   1.0000   1.0000   1.0000   1.0000
     1.0000   1.0000   1.0000   1.0000   1.0000   1.0000   1.0000   1.0000
     1.0000   1.0000   1.0000   1.0000   1.0000   1.0000   1.0000   1.0000
     1.0000   1.0000   1.0000   1.0000   1.0000   1.0000   1.0000   1.0000
     1.0000   1.0000   1.0000   1.0000   1.0000   1.0000   1.0000   1.0000
     1.0000   1.0000   1.0000   1.0000   1.0000   1.0000   1.0000   1.0000
     1.0000   1.0000   1.0000   1.0000   1.0000   1.0000   1.0000   1.0000
     1.0000   1.0000   1.0000   1.0000   1.0000   1.0000   1.0000   1.0000
     1.0000   1.0000   1.0000   1.0000   1.0000   1.0000   1.0000   1.0000
     1.0000   1.0000   1.0000   1.0000   1.0000   1.0000   1.0000   1.0000
     1.0000   1.0000   1.0000   1.0000   1.0000   1.0000   1.0000   1.0000
     1.0000   1.0000   1.0000   1.0000   1.0000   1.0000   1.0000   1.0000
     1.0000   1.0000   1.0000   1.0000   1.0000   1.0000   1.0000   1.0000
     1.0000   1.0000   1.0000   1.0000   1.0000   1.0000   1.0000   1.0000
     1.0000   1.0000   1.0000   1.0000   1.0000   1.0000   1.0000   1.0000
     1.0000   1.0000   1.0000   1.0000   1.0000   1.0000   1.0000   1.0000
     1.0000   1.0000   1.0000   1.0000   1.0000   1.0000   1.0000   1.0000
     1.0000   1.0000   1.0000   1.0000   1.0000   1.0000   1.0000   1.0000
     1.0000   1.0000   1.0000   1.0000   1.0000   1.0000   1.0000   1.0000
     1.0000   1.0000   1.0000   1.0000   1.0000   1.0000   1.0000   1.0000
     1.0000   1.0000   1.0000   1.0000   1.0000   1.0000   1.0000   1.0000
     1.0000   1.0000   1.0000   1.0000   1.0000   1.0000   1.0000   1.0000
     1.0000   1.0000   1.0000   1.0000   1.0000   1.0000   1.0000   1.0000
     1.0000   1.0000   1.0000   1.0000   1.0000   1.0000   1.0000   1.0000
     1.0000   1.0000   1.0000   1.0000   1.0000   1.0000   1.0000   1.0000
     1.0000   1.0000   1.0000   1.0000   1.0000   1.0000   1.0000   1.0000
     1.0000   1.0000   1.0000   1.0000   1.0000   1.0000   1.0000   1.0000
     1.0000   1.0000   1.0000   1.0000   1.0000   1.0000   1.0000   1.0000
     1.0000   1.0000   1.0000   1.0000   1.0000   1.0000   1.0000   1.0000
     1.0000   1.0000   1.0000   1.0000   1.0000   1.0000   1.0000   1.0000
     1.0000   1.0000   1.0000   1.0000   1.0000   1.0000   1.0000   1.0000
     0.0000   0.0000   0.0000   0.0000   0.0000   0.0000   0.0000   0.0000
     0.0000   0.0000   0.0000   0.0000   0.0000   0.0000   0.0000   0.0000
     0.0000   0.0000   0.0000   0.0000   0.0000   0.0000   0.0000   0.0000
     0.0000   0.0000   0.0000   0.0000   0.0000   0.0000   0.0000   0.0000
     0.0000   0.0000   0.0000   0.0000   0.0000   0.0000   0.0000   0.0000
     0.0000   0.0000   0.0000   0.0000   0.0000   0.0000   0.0000   0.0000
     0.0000   0.0000   0.0000   0.0000   0.0000   0.0000   0.0000   0.0000
     0.0000   0.0000   0.0000   0.0000   0.0000   0.0000   0.0000   0.0000
     0.0000   0.0000   0.0000   0.0000   0.0000   0.0000   0.0000   0.0000
     0.0000   0.0000   0.0000   0.0000   0.0000   0.0000   0.0000   0.0000
     0.0000   0.0000   0.0000   0.0000   0.0000   0.0000   0.0000   0.0000
     0.0000   0.0000   0.0000   0.0000   0.0000   0.0000   0.0000   0.0000
     0.0000   0.0000   0.0000   0.0000   0.0000   0.0000   0.0000   0.0000
     0.0000   0.0000   0.0000   0.0000   0.0000   0.0000   0.0000   0.0000
     0.0000   0.0000   0.0000   0.0000   0.0000   0.0000   0.0000   0.0000
     0.0000   0.0000   0.0000   0.0000   0.0000   0.0000   0.0000   0.0000
     0.0000   0.0000   0.0000   0.0000   0.0000   0.0000   0.0000   0.0000
     0.0000   0.0000   0.0000   0.0000   0.0000   0.0000   0.0000   0.0000
     0.0000   0.0000   0.0000   0.0000   0.0000   0.0000   0.0000   0.0000
     0.0000   0.0000   0.0000   0.0000   0.0000   0.0000   0.0000   0.0000
     0.0000   0.0000   0.0000   0.0000   0.0000   0.0000   0.0000   0.0000
     0.0000   0.0000   0.0000   0.0000   0.0000   0.0000   0.0000   0.0000
     0.0000   0.0000   0.0000   0.0000   0.0000   0.0000   0.0000   0.0000
     0.0000   0.0000   0.0000   0.0000   0.0000   0.0000   0.0000   0.0000
     0.0000   0.0000   0.0000   0.0000   0.0000   0.0000   0.0000   0.0000
     0.0000   0.0000   0.0000   0.0000   0.0000   0.0000   0.0000   0.0000
     0.0000   0.0000   0.0000   0.0000   0.0000   0.0000   0.0000   0.0000
     0.0000   0.0000   0.0000   0.0000   0.0000   0.0000   0.0000   0.0000
     0.0000   0.0000   0.0000   0.0000   0.0000   0.0000   0.0000   0.0000
     0.0000   0.0000   0.0000   0.0000   0.0000   0.0000   0.0000   0.0000
     0.0000   0.0000   0.0000   0.0000   0.0000   0.0000   0.0000   0.0000
     0.0000   0.0000   0.0000   0.0000   0.0000   0.0000   0.0000   0.0000
     0.0000   0.0000   0.0000   0.0000   0.0000   0.0000   0.0000   0.0000
     0.0000   0.0000   0.0000   0.0000   0.0000   0.0000   0.0000   0.0000
     0.0000   0.0000   0.0000   0.0000   0.0000   0.0000   0.0000   0.0000
     0.0000   0.0000   0.0000   0.0000   0.0000   0.0000   0.0000   0.0000
     0.0000   0.0000   0.0000   0.0000   0.0000   0.0000   0.0000   0.0000
     0.0000   0.0000   0.0000   0.0000   0.0000   0.0000   0.0000   0.0000
     0.0000   0.0000   0.0000   0.0000   0.0000   0.0000   0.0000   0.0000
     0.0000   0.0000   0.0000   0.0000   0.0000   0.0000   0.0000   0.0000
     0.0000   0.0000   0.0000   0.0000   0.0000   0.0000   0.0000   0.0000
     0.0000   0.0000   0.0000   0.0000   0.0000   0.0000   0.0000   0.0000
     0.0000   0.0000   0.0000   0.0000   0.0000   0.0000   0.0000   0.0000
     0.0000   0.0000   0.0000   0.0000   0.0000   0.0000   0.0000   0.0000
     0.0000   0.0000   0.0000   0.0000   0.0000   0.0000   0.0000   0.0000
     0.0000   0.0000   0.0000   0.0000   0.0000   0.0000   0.0000   0.0000
     0.0000   0.0000   0.0000   0.0000   0.0000   0.0000   0.0000   0.0000
     0.0000   0.0000   0.0000   0.0000   0.0000   0.0000   0.0000   0.0000
     0.0000   0.0000   0.0000   0.0000   0.0000   0.0000   0.0000   0.0000
     0.0000   0.0000   0.0000   0.0000   0.0000   0.0000   0.0000   0.0000
     0.0000   0.0000   0.0000   0.0000   0.0000   0.0000   0.0000   0.0000
     0.0000   0.0000   0.0000   0.0000   0.0000   0.0000   0.0000   0.0000
     0.0000   0.0000   0.0000   0.0000   0.0000   0.0000   0.0000   0.0000
     0.0000   0.0000   0.0000   0.0000   0.0000   0.0000   0.0000   0.0000

 ------ SPIN DOWN ----------


          k = 0.0000 0.0000 0.0000 ( 42379 PWs)   bands (ev):

    -8.3803  -7.5108  -7.3791  -7.3791  -7.3084  -7.3083  -7.2040  -6.6796
    -6.3725  -6.3725  -6.3486  -6.3486  -6.3340  -6.2871  -6.2843  -6.2843
    -6.1740  -6.1740  -6.0099  -5.5897  -5.2971  -5.2689  -5.2689  -5.2136
    -5.2058  -5.2058  -4.9800  -4.4616  -4.3409  -4.3409  -4.3200  -4.3200
    -4.2777  -3.8851  -3.4737  -3.4669  -3.4669  -3.4545  -3.4544  -3.4416
    -3.4253  -3.4242  -3.4242  -3.4069  -3.4069  -3.4023  -3.3850  -3.3850
    -3.3297  -3.3269  -3.3269  -3.3078  -3.3055  -3.3055  -3.2126  -3.2126
    -3.0989  -2.9067  -2.7045  -2.7045  -2.6695  -2.6609  -2.6608  -2.6308
    -2.6300  -2.6207  -2.6207  -2.5608  -2.5608  -2.5200  -2.5045  -2.5045
    -2.4930  -2.4930  -2.4271  -2.3788  -2.3788  -2.2568  -2.0881  -2.0881
    -1.5283  -1.1014  -0.9517  -0.9517  -0.8956  -0.8942  -0.8942  -0.8603
    -0.8603  -0.8546  -0.7610  -0.7610  -0.3248   0.2909   0.3041   0.3041
     0.3176   0.3177   0.3388   0.6837   0.7652   0.7704   0.7704   0.7990
     0.7991   0.8088   0.8184   0.8350   0.8350   0.8540   0.8541   0.8988
     0.8988   0.9328   0.9931   0.9931   1.0024   1.0106   1.0304   1.0304
     1.0327   1.0441   1.0441   1.0474   1.0550   1.0593   1.0593   1.0697
     1.0697   1.0892   1.1371   1.1446   1.1446   1.1900   1.1900   1.1968
     1.1968   1.2091   1.2091   1.2243   1.2723   1.2723   1.3508   1.5207
     1.6324   1.6324   1.9075   2.1814   2.1814   2.1981   2.2217   2.2217
     2.2258   2.2609   2.2890   2.2890   2.5337   2.5338   3.4671   3.6781
     3.6781   3.7018   3.7308   3.7402   3.7402   3.7556   3.7556   3.7649
     3.7657   3.7796   3.7976   3.7976   3.8020   3.8230   3.8230   3.9370
     3.9370   3.9402   4.0007   4.3176   4.3177   4.3688   4.3717   4.3949
     4.3949   4.3963   4.4114   4.4114   4.4267   4.4267   4.4354   4.4560
     4.4560   4.4876   4.4957   4.4957   4.5055   4.5373   4.5373   4.5373
     4.8246   4.8246   5.1777   5.1777   5.1780   5.2035   5.2099   5.2099
     5.2247   5.2295   5.2295   5.2376   5.2556   5.2556   5.3120   5.3120
     5.3969   5.3969   5.4058   5.4202   5.4235   5.4598   5.4598   5.4774
     5.4945   5.4945   5.6281   5.6853   5.6853   5.7854   5.7854   5.8040
     5.8077   5.8169   5.8169   5.8613   5.8719   5.8748   5.8748   5.8794
     5.8837   5.8837   5.8905   5.9254   5.9350   5.9350   5.9550   5.9677
     5.9677   6.0000   6.0000   6.0523   6.0523   6.3749   6.3971   6.3971
     6.8337   6.8338   6.8916   6.9102   6.9480   6.9480   7.1417   7.3422
     7.3423   7.4135   7.4136   7.4183   7.4311   7.4440   7.4441   7.5210
     7.5519   7.5520   7.6810   7.6810   7.8129   7.8267   7.8333   7.8333
     7.8640   7.8640   7.8774   7.8928   7.9180   7.9180   7.9286   7.9627
     7.9798   7.9799   7.9996   7.9996   8.0030   8.0196   8.0196   8.0206
     8.0322   8.0501   8.0501   8.0553   8.0554   8.1084   8.1095   8.1095
     8.1305   8.1306   8.1367   8.1745   8.1785   8.1785   8.2028   8.2221
     8.2221   8.2340   8.2433   8.2433   8.2470   8.2506   8.2506   8.2671
     8.2671   8.2671   8.2929   8.3162   8.3162   8.3264   8.3337   8.3338
     8.3373   8.3373   8.3499   8.3518   8.3743   8.3743   8.3841   8.3841
     8.3866   8.4145   8.4145   8.4147   8.4709   8.4709   8.5064   8.5065
     8.5116   8.5371   8.5596   8.5596   8.5880   8.6007   8.6007   8.6077
     8.6207   8.7662   8.7662   8.8751   8.8752   8.8986   9.0370   9.0370
     9.0806   9.0921   9.1111   9.1111   9.1936   9.2008   9.2009   9.2185
     9.2612   9.2612   9.2945   9.2945   9.3080   9.3413   9.3413   9.4032
     9.5177   9.5178   9.5474  10.1166  10.2711  10.2712  10.4874  10.4875
    10.5291  10.5301  10.5302  10.5656  10.6031  10.6031  10.6280  10.6321
    10.6322  10.6427  10.6745  10.7307  10.7308  10.7902  10.7902  10.7947
    10.8206  10.8207  10.8404  10.8641  10.8641  10.8781  10.8782  10.9147
    10.9147  10.9231  10.9745  10.9945  10.9946  11.4961  11.4962  11.5337
    11.6989  11.7413  11.7414  11.7754  11.8259  11.8260  11.9057  12.0205
    12.0205  12.5206  13.0413  13.0414  13.1135  15.0303  16.7223  16.7223
    17.2157  17.2157  17.2489  17.2831  17.2831  17.2909  17.8344  17.8994
    17.8994  17.9122  17.9122  17.9938  18.0432  18.0432  18.1112  18.1549
    18.1549  18.2079  18.8477  18.8478  18.8558  19.3509  19.3971  19.3971
    19.4063  19.4305  19.4305  19.4442  19.4442  19.4611  19.4674  19.4674
    19.4871  19.9569  20.1014  20.1014  20.1181  20.1220  20.1221  20.1378
    20.1454  20.1455  20.1598  20.1598  20.1961  20.1961  20.2086  20.2283
    20.2537  20.2537  20.2594  20.2774  20.2774  20.2878  20.3196  20.3319
    20.3319  20.5705  20.5864  20.5864  20.5926  20.5953  20.5954  20.6016
    20.6201  20.6277  20.6277  20.6441  20.6567  20.6567  20.7086  20.7087
    20.7462  20.7462  20.7537  20.7911  20.7911  20.8037  20.8141  20.8141
    20.8191  20.8348  20.8348  20.8450  20.8492  20.8542  20.8542  20.8745
    20.8745  20.8786  20.8786  20.9028  20.9285  20.9599  20.9733  20.9733
    21.0388  21.0389  21.0481  21.1563  21.2351  21.2352  21.2457  21.2777
    21.2777  21.2811  21.2811  21.2857  21.3110  21.3110  21.3263  21.3291
    21.3292  21.3409  21.3409  21.3415  21.3498  21.3750  21.3750  21.4004
    21.4191  21.4192  21.4240  21.4241  21.4455  21.4572  21.4572  21.4836
    21.4837  21.4892  21.5123  21.5149  21.5171  21.5174  21.5174  21.5468
    21.5668  21.5693  21.5693  21.6350  21.6350  21.6625  21.6625  21.6646
    21.7186  21.7186  21.7221  21.7282  21.7282  21.7452  21.7785  21.7785
    21.8175  21.9387  21.9820  21.9820  22.0264  22.0265  22.0548  22.0548
    22.0711  22.1194  22.1329  22.1329  22.2112  22.2112  22.2208  22.2948
    22.3275  22.3276  22.4580  22.4580  22.4634  22.4836  22.4836  22.4950
    22.7560  22.8012  22.8013  22.9700  23.0130  23.0131  23.0330  23.0333
    23.0582  23.0582  23.0589  23.0589  23.0843  23.0843  23.0850  23.0992
    23.1034  23.1035  23.1293  23.2125  23.2416  23.2416  23.2781  23.3321
    23.3321  23.3623  23.3818  23.3819  23.4652  23.4774  23.4774  23.6865
    23.6970  23.6971  23.7128  23.7438  23.7655  23.7656  23.7847  23.7848
    23.8281  23.8282  23.8354  23.8355  23.8378  23.8502  23.8747  23.9815
    23.9815  24.0129  24.0156  24.0360  24.0360  24.1213  24.1213  24.1402
    24.1681  24.1714  24.1761  24.1761  24.1939  24.1939  24.2131  24.2179
    24.2179  24.2843  24.2937  24.2937  24.3297  24.3297  24.3444  24.3702
    24.3702  24.3800  24.3866  24.4058  24.4058  24.4384  24.4477  24.4477
    24.4575  24.4840  24.4840  24.4908  24.4909  24.5121  24.5362  24.5602
    24.5603  24.5766  24.5766  24.6714  24.7617  24.7617  24.7643  25.0936
    25.0937  25.1225  25.1225  25.6206  25.6327  25.6328  25.6486  25.6723
    25.7424  25.7424  25.7505  25.7505  25.9568  25.9856  25.9856  25.9921
    26.0423  26.0423  26.0929  26.1410  26.1623  26.1623  26.2377  26.3357
    26.3357  26.4020  26.5337  26.5337  26.5613  26.5672  26.5804  26.5804
    26.5828  26.6012  26.6012  26.6203  26.6203  26.6351  26.7000  26.7000
    26.7045  26.7283  26.7397  26.7397  26.8031  26.8070  26.8070  26.9442
    26.9443  26.9769  26.9846  26.9846  26.9950  26.9950  27.0028  27.0083
    27.0194  27.0194  27.0245  27.0259  27.0259  27.0947  27.0948  27.1174
    27.1322  27.1629  27.1629  27.2043  27.2044  27.2118  27.2118  27.2155
    27.2256  27.2355  27.2459  27.2460  27.2511  27.2636  27.2712  27.2712
    27.2858  27.3012  27.3012  27.3017  27.3051  27.3051  27.3265  27.3333
    27.3333  27.3524  27.3524  27.3652  27.3843  27.3844  27.3885  27.4267
    27.4268  27.4269  27.4392  27.4529  27.4529  27.4966  27.4966  27.5197
    27.5235  27.5236  27.5292  27.5447  27.5546  27.5546  27.5667  27.5753
    27.5913  27.5914  27.6082  27.6082  27.6136  27.6330  27.6330  27.7025
    27.7026  27.7489  27.7490  27.7828  27.8308  27.8429  27.8810  27.9239
    27.9239  27.9656  27.9656  28.0260  28.1138  28.1138  28.1338  28.1736
    28.1736  28.2768  28.2768  28.2976  28.3796  28.5157  28.5158  28.6408
    28.7639  28.7640  28.9982  29.0637  29.0638  29.0848  29.7643  29.8158
    29.8159  29.9578  29.9887  29.9888  30.0068  30.0354  30.0354  30.0582

     occupation numbers 
     1.0000   1.0000   1.0000   1.0000   1.0000   1.0000   1.0000   1.0000
     1.0000   1.0000   1.0000   1.0000   1.0000   1.0000   1.0000   1.0000
     1.0000   1.0000   1.0000   1.0000   1.0000   1.0000   1.0000   1.0000
     1.0000   1.0000   1.0000   1.0000   1.0000   1.0000   1.0000   1.0000
     1.0000   1.0000   1.0000   1.0000   1.0000   1.0000   1.0000   1.0000
     1.0000   1.0000   1.0000   1.0000   1.0000   1.0000   1.0000   1.0000
     1.0000   1.0000   1.0000   1.0000   1.0000   1.0000   1.0000   1.0000
     1.0000   1.0000   1.0000   1.0000   1.0000   1.0000   1.0000   1.0000
     1.0000   1.0000   1.0000   1.0000   1.0000   1.0000   1.0000   1.0000
     1.0000   1.0000   1.0000   1.0000   1.0000   1.0000   1.0000   1.0000
     1.0000   1.0000   1.0000   1.0000   1.0000   1.0000   1.0000   1.0000
     1.0000   1.0000   1.0000   1.0000   1.0000   1.0000   1.0000   1.0000
     1.0000   1.0000   1.0000   1.0000   1.0000   1.0000   1.0000   1.0000
     1.0000   1.0000   1.0000   1.0000   1.0000   1.0000   1.0000   1.0000
     1.0000   1.0000   1.0000   1.0000   1.0000   1.0000   1.0000   1.0000
     1.0000   1.0000   1.0000   1.0000   1.0000   1.0000   1.0000   1.0000
     1.0000   1.0000   1.0000   1.0000   1.0000   1.0000   1.0000   1.0000
     1.0000   1.0000   1.0000   1.0000   1.0000   1.0000   1.0000   1.0000
     1.0000   1.0000   1.0000   1.0000   1.0000   1.0000   1.0000   1.0000
     1.0000   1.0000   1.0000   1.0000   1.0000   1.0000   1.0000   1.0000
     1.0000   1.0000   1.0000   1.0000   1.0000   1.0000   1.0000   1.0000
     1.0000   1.0000   1.0000   1.0000   1.0000   1.0000   1.0000   1.0000
     1.0000   1.0000   1.0000   1.0000   1.0000   1.0000   1.0000   1.0000
     1.0000   1.0000   1.0000   1.0000   1.0000   1.0000   1.0000   1.0000
     1.0000   1.0000   1.0000   1.0000   1.0000   1.0000   1.0000   1.0000
     1.0000   1.0000   1.0000   1.0000   1.0000   1.0000   1.0000   1.0000
     1.0000   1.0000   1.0000   1.0000   1.0000   1.0000   1.0000   1.0000
     1.0000   1.0000   1.0000   1.0000   1.0000   1.0000   1.0000   1.0000
     1.0000   1.0000   1.0000   1.0000   1.0000   1.0000   1.0000   1.0000
     1.0000   1.0000   1.0000   1.0000   1.0000   1.0000   1.0000   1.0000
     1.0000   1.0000   1.0000   1.0000   1.0000   1.0000   1.0000   1.0000
     1.0000   1.0000   1.0000   1.0000   1.0000   1.0000   1.0000   1.0000
     1.0000   1.0000   1.0000   1.0000   1.0000   1.0000   1.0000   1.0000
     1.0000   1.0000   1.0000   1.0000   1.0000   1.0000   1.0000   1.0000
     1.0000   1.0000   1.0000   1.0000   1.0000   1.0000   1.0000   1.0000
     1.0000   1.0000   1.0000   1.0000   1.0000   1.0000   1.0000   1.0000
     1.0000   1.0000   1.0000   1.0000   1.0000   1.0000   1.0000   1.0000
     1.0000   1.0000   1.0000   1.0000   1.0000   1.0000   1.0000   1.0000
     1.0000   1.0000   1.0000   1.0000   1.0000   1.0000   1.0000   1.0000
     1.0000   1.0000   1.0000   1.0000   1.0000   1.0000   1.0000   1.0000
     1.0000   1.0000   1.0000   1.0000   1.0000   1.0000   1.0000   1.0000
     1.0000   1.0000   1.0000   1.0000   1.0000   1.0000   1.0000   1.0000
     1.0000   1.0000   1.0000   1.0000   1.0000   1.0000   1.0000   1.0000
     1.0000   1.0000   1.0000   1.0000   1.0000   1.0000   1.0000   1.0000
     1.0000   1.0000   1.0000   1.0000   1.0000   1.0000   1.0000   1.0000
     1.0000   1.0000   1.0000   1.0000   1.0000   1.0000   1.0000   1.0000
     1.0000   1.0000   1.0000   1.0000   1.0000   1.0000   1.0000   1.0000
     1.0000   1.0000   1.0000   1.0000   1.0000   1.0000   1.0000   1.0000
     1.0000   1.0000   1.0000   1.0000   1.0000   1.0000   1.0000   1.0000
     1.0000   1.0000   1.0000   1.0000   1.0000   1.0000   1.0000   1.0000
     1.0000   1.0000   1.0000   1.0000   1.0000   1.0000   1.0000   1.0000
     1.0000   1.0000   1.0000   1.0000   1.0000   1.0000   1.0000   1.0000
     1.0000   1.0000   1.0000   1.0000   1.0000   1.0000   1.0000   1.0000
     1.0000   1.0000   1.0000   1.0000   1.0000   1.0000   1.0000   1.0000
     0.0000   0.0000   0.0000   0.0000   0.0000   0.0000   0.0000   0.0000
     0.0000   0.0000   0.0000   0.0000   0.0000   0.0000   0.0000   0.0000
     0.0000   0.0000   0.0000   0.0000   0.0000   0.0000   0.0000   0.0000
     0.0000   0.0000   0.0000   0.0000   0.0000   0.0000   0.0000   0.0000
     0.0000   0.0000   0.0000   0.0000   0.0000   0.0000   0.0000   0.0000
     0.0000   0.0000   0.0000   0.0000   0.0000   0.0000   0.0000   0.0000
     0.0000   0.0000   0.0000   0.0000   0.0000   0.0000   0.0000   0.0000
     0.0000   0.0000   0.0000   0.0000   0.0000   0.0000   0.0000   0.0000
     0.0000   0.0000   0.0000   0.0000   0.0000   0.0000   0.0000   0.0000
     0.0000   0.0000   0.0000   0.0000   0.0000   0.0000   0.0000   0.0000
     0.0000   0.0000   0.0000   0.0000   0.0000   0.0000   0.0000   0.0000
     0.0000   0.0000   0.0000   0.0000   0.0000   0.0000   0.0000   0.0000
     0.0000   0.0000   0.0000   0.0000   0.0000   0.0000   0.0000   0.0000
     0.0000   0.0000   0.0000   0.0000   0.0000   0.0000   0.0000   0.0000
     0.0000   0.0000   0.0000   0.0000   0.0000   0.0000   0.0000   0.0000
     0.0000   0.0000   0.0000   0.0000   0.0000   0.0000   0.0000   0.0000
     0.0000   0.0000   0.0000   0.0000   0.0000   0.0000   0.0000   0.0000
     0.0000   0.0000   0.0000   0.0000   0.0000   0.0000   0.0000   0.0000
     0.0000   0.0000   0.0000   0.0000   0.0000   0.0000   0.0000   0.0000
     0.0000   0.0000   0.0000   0.0000   0.0000   0.0000   0.0000   0.0000
     0.0000   0.0000   0.0000   0.0000   0.0000   0.0000   0.0000   0.0000
     0.0000   0.0000   0.0000   0.0000   0.0000   0.0000   0.0000   0.0000
     0.0000   0.0000   0.0000   0.0000   0.0000   0.0000   0.0000   0.0000
     0.0000   0.0000   0.0000   0.0000   0.0000   0.0000   0.0000   0.0000
     0.0000   0.0000   0.0000   0.0000   0.0000   0.0000   0.0000   0.0000
     0.0000   0.0000   0.0000   0.0000   0.0000   0.0000   0.0000   0.0000
     0.0000   0.0000   0.0000   0.0000   0.0000   0.0000   0.0000   0.0000
     0.0000   0.0000   0.0000   0.0000   0.0000   0.0000   0.0000   0.0000
     0.0000   0.0000   0.0000   0.0000   0.0000   0.0000   0.0000   0.0000
     0.0000   0.0000   0.0000   0.0000   0.0000   0.0000   0.0000   0.0000
     0.0000   0.0000   0.0000   0.0000   0.0000   0.0000   0.0000   0.0000
     0.0000   0.0000   0.0000   0.0000   0.0000   0.0000   0.0000   0.0000
     0.0000   0.0000   0.0000   0.0000   0.0000   0.0000   0.0000   0.0000
     0.0000   0.0000   0.0000   0.0000   0.0000   0.0000   0.0000   0.0000
     0.0000   0.0000   0.0000   0.0000   0.0000   0.0000   0.0000   0.0000
     0.0000   0.0000   0.0000   0.0000   0.0000   0.0000   0.0000   0.0000
     0.0000   0.0000   0.0000   0.0000   0.0000   0.0000   0.0000   0.0000
     0.0000   0.0000   0.0000   0.0000   0.0000   0.0000   0.0000   0.0000
     0.0000   0.0000   0.0000   0.0000   0.0000   0.0000   0.0000   0.0000
     0.0000   0.0000   0.0000   0.0000   0.0000   0.0000   0.0000   0.0000
     0.0000   0.0000   0.0000   0.0000   0.0000   0.0000   0.0000   0.0000
     0.0000   0.0000   0.0000   0.0000   0.0000   0.0000   0.0000   0.0000
     0.0000   0.0000   0.0000   0.0000   0.0000   0.0000   0.0000   0.0000
     0.0000   0.0000   0.0000   0.0000   0.0000   0.0000   0.0000   0.0000
     0.0000   0.0000   0.0000   0.0000   0.0000   0.0000   0.0000   0.0000
     0.0000   0.0000   0.0000   0.0000   0.0000   0.0000   0.0000   0.0000
     0.0000   0.0000   0.0000   0.0000   0.0000   0.0000   0.0000   0.0000
     0.0000   0.0000   0.0000   0.0000   0.0000   0.0000   0.0000   0.0000
     0.0000   0.0000   0.0000   0.0000   0.0000   0.0000   0.0000   0.0000
     0.0000   0.0000   0.0000   0.0000   0.0000   0.0000   0.0000   0.0000
     0.0000   0.0000   0.0000   0.0000   0.0000   0.0000   0.0000   0.0000
     0.0000   0.0000   0.0000   0.0000   0.0000   0.0000   0.0000   0.0000
     0.0000   0.0000   0.0000   0.0000   0.0000   0.0000   0.0000   0.0000
     0.0000   0.0000   0.0000   0.0000   0.0000   0.0000   0.0000   0.0000

     highest occupied, lowest unoccupied level (ev):    16.72228591   17.21569273

     Writing all to output data dir ../tmp/diamond_pd.save/ :
     XML data file, pseudopotentials, collected wavefunctions
 
     init_run     :      1.20s CPU      1.50s WALL (       1 calls)
     electrons    :    407.99s CPU    412.97s WALL (       1 calls)

     Called by init_run:
     wfcinit      :      0.00s CPU      0.00s WALL (       1 calls)
     wfcinit:wfcr :      5.85s CPU      6.03s WALL (       2 calls)
     potinit      :      0.84s CPU      1.07s WALL (       1 calls)
     hinit0       :      0.13s CPU      0.14s WALL (       1 calls)

     Called by electrons:
     c_bands      :    407.99s CPU    412.95s WALL (       1 calls)
     v_of_rho     :      0.04s CPU      0.05s WALL (       1 calls)
     v_h          :      0.00s CPU      0.00s WALL (       1 calls)
     v_xc         :      0.04s CPU      0.05s WALL (       1 calls)
     newd         :      0.16s CPU      0.20s WALL (       1 calls)
     PAW_pot      :      0.77s CPU      0.89s WALL (       1 calls)

     Called by c_bands:
     init_us_2    :      0.17s CPU      0.21s WALL (       2 calls)
     cegterg      :    401.69s CPU    406.33s WALL (       8 calls)

     Called by sum_band:

     Called by *egterg:
     cdiaghg      :     65.10s CPU     66.07s WALL (     140 calls)
     cegterg:over :     59.28s CPU     59.75s WALL (     138 calls)
     cegterg:upda :     44.83s CPU     45.36s WALL (     138 calls)
     cegterg:last :    105.45s CPU    106.29s WALL (      62 calls)
     cdiaghg:chol :      3.97s CPU      4.00s WALL (     140 calls)
     cdiaghg:inve :      2.16s CPU      2.17s WALL (     140 calls)
     cdiaghg:para :     26.31s CPU     26.56s WALL (     280 calls)
     h_psi        :     91.86s CPU     93.14s WALL (     148 calls)
     s_psi        :     31.21s CPU     31.43s WALL (     148 calls)
     g_psi        :      1.23s CPU      1.25s WALL (     138 calls)

     Called by h_psi:
     h_psi:calbec :     32.20s CPU     32.43s WALL (     148 calls)
     vloc_psi     :     26.81s CPU     27.30s WALL (     148 calls)
     add_vuspsi   :     30.80s CPU     31.11s WALL (     148 calls)

     General routines
     calbec       :     32.19s CPU     32.43s WALL (     148 calls)
     fft          :      0.02s CPU      0.02s WALL (      21 calls)
     fftw         :     23.27s CPU     23.70s WALL (  107648 calls)
 
     Parallel routines

     PAW routines
     PAW_pot      :      0.77s CPU      0.89s WALL (       1 calls)
 
     PWSCF        :   6m50.19s CPU   7m 7.13s WALL

 
   This run was terminated on:  13:19:21   5Aug2026            

=------------------------------------------------------------------------------=
   JOB DONE.
=------------------------------------------------------------------------------=
