C8                                      
   1.00000000000000     
    10.7211360931000002    0.0000000000000000    0.0000000000000000
     0.0000000000000000   10.7211360931000002    0.0000000000000000
     0.0000000000000000    0.0000000000000000   10.7211360931000002
   C    N 
   214     1
Direct
     0.0833166397777682    0.0832787648149163    0.0833500262222294
     0.0837610490850632    0.0829876798119424    0.4167646322031593
     0.0831586348183679    0.0834964265470902    0.7499577824077650
     0.0837210683139414    0.4166479786509192    0.0829455976860562
     0.0831765902948764    0.4166428588348450    0.4167203188450598
     0.0831545450881869    0.4167508585476916    0.7499304240532678
     0.0831337193020130    0.7498881975973580    0.0835329466979846
     0.0831432361205537    0.7498858611290550    0.4168411537117352
     0.0835848765255061    0.7500093709235367    0.7500963492398813
     0.4167088845922364    0.0834964265470902    0.0835080311816297
     0.4168745249374057    0.0835956645327352    0.4168535934360605
     0.4165211794871649    0.0830611147939052    0.7501454875128364
     0.4167362429467333    0.4167508585476916    0.0835121209118107
     0.4180045434023532    0.4178056281639684    0.4177567188068910
     0.4161695147530473    0.4162171370309494    0.7504971522469465
     0.4165703177601200    0.7500093709235367    0.0830817894744915
     0.4151331261186734    0.7512675969494225    0.4168827282537848
     0.4171783528916410    0.7494323241637977    0.7494883141083604
     0.7499020347968418    0.0829876798119424    0.0829056169149344
     0.7500143989145521    0.0832542608464033    0.4166522680854489
     0.7498130735639407    0.0835956645327352    0.7497921420625951
     0.7499463481549413    0.4166428588348450    0.0834900757051212
     0.7581019219429076    0.4075222657102616    0.4085647450570936
     0.7489099481931101    0.4178056281639684    0.7486621235976479
     0.7498255132882660    0.7498858611290550    0.0835234298794438
     0.7492727350334134    0.7489346123406683    0.4173939319665880
     0.7497839387462170    0.7512675969494225    0.7515335408813281
     0.2501630935470915    0.2500422175922352    0.0835080311816297
     0.2502623315327363    0.2502078579374045    0.4168535934360605
     0.2497277817939063    0.2498545124871636    0.7501454875128364
     0.2496543468119435    0.5832353677968406    0.0829056169149344
     0.2499209278464045    0.5833477319145509    0.4166522680854489
     0.2502623315327363    0.5831464065639395    0.7497921420625951
     0.2499454318149175    0.9166499737777705    0.0833500262222294
     0.2496543468119435    0.9170943830850654    0.4167646322031593
     0.2501630935470915    0.9164919688183705    0.7499577824077650
     0.5834175245476891    0.2500695759467321    0.0835121209118107
     0.5844722941639658    0.2513378764023520    0.4177567188068910
     0.5828838030309469    0.2495028477530462    0.7504971522469465
     0.5833095248348424    0.5832796811549401    0.0834900757051212
     0.5741889317102592    0.5914352549429064    0.4085647450570936
     0.5844722941639658    0.5822432811931089    0.7486621235976479
     0.5833146446509169    0.9170544023139438    0.0829455976860562
     0.5833095248348424    0.9165099242948788    0.4167203188450598
     0.5834175245476891    0.9164878790881894    0.7499304240532678
     0.9166760379235379    0.2499036507601188    0.0830817894744915
     0.9179342639494237    0.2484664591186721    0.4168827282537848
     0.9160989911637989    0.2505116858916398    0.7494883141083604
     0.9165525281290562    0.5831588462882648    0.0835234298794438
     0.9156012793406695    0.5826060680334122    0.4173939319665880
     0.9179342639494237    0.5831172717462157    0.7515335408813281
     0.9165548645973592    0.9164670533020154    0.0835329466979846
     0.9165525281290562    0.9164765701205561    0.4168411537117352
     0.9166760379235379    0.9169182105255083    0.7500963492398813
     0.2501509792036085    0.0834843122036072    0.2500775140360866
     0.2500407724520294    0.0833741054520281    0.5834269535757757
     0.2499454089119428    0.0832787419119416    0.9167212580880585
     0.2502745159157838    0.4168370930640476    0.2502865041753148
     0.2499143054841072    0.4166735557239527    0.5833264442760471
     0.2500407724520294    0.4165730464242245    0.9166258945479721
     0.2496253400314227    0.7500804944541087    0.2499195055458914
     0.2502745159157838    0.7497134958246856    0.5831629069359452
     0.2501509792036085    0.7499224859639133    0.9165156877963927
     0.5835037590640524    0.0836078489157826    0.2502865041753148
     0.5833402217239505    0.0832476384841060    0.5833264442760471
     0.5832397124242219    0.0833741054520281    0.9166258945479721
     0.5839665659541313    0.4172998999541337    0.2510505471711312
     0.5833402217239505    0.4166735557239527    0.9167523615158940
     0.5832975715365225    0.7509711187561460    0.2490288812438541
     0.5839665659541313    0.7489494528288688    0.5827001000458663
     0.5835037590640524    0.7497134958246856    0.9163921510842172
     0.9167471614541099    0.0829586730314214    0.2499195055458914
     0.9163801628246868    0.0836078489157826    0.5831629069359452
     0.9165891529639145    0.0834843122036072    0.9165156877963927
     0.9176377857561472    0.4166309055365249    0.2490288812438541
     0.9156161198288700    0.4172998999541337    0.5827001000458663
     0.9163801628246868    0.4168370930640476    0.9163921510842172
     0.9161413634313872    0.7494746964313860    0.2505253035686141
     0.9176377857561472    0.7509711187561460    0.5833690944634751
     0.9167471614541099    0.7500804944541087    0.9170413269685785
     0.0835848765255061    0.2499036507601188    0.2499906290764632
     0.0831545450881869    0.2500695759467321    0.5832491414523084
     0.0831586348183679    0.2500422175922352    0.9165035734529096
     0.0831432361205537    0.5831588462882648    0.2501141388709452
     0.0831765902948764    0.5832796811549401    0.5833571411651551
     0.0837610490850632    0.5832353677968406    0.9170123201880577
     0.0831337193020130    0.9164670533020154    0.2501118024026417
     0.0837210683139414    0.9170544023139438    0.5833520213490807
     0.0833166397777682    0.9166499737777705    0.9167212351850835
     0.4171783528916410    0.2505116858916398    0.2505676758362020
     0.4161695147530473    0.2495028477530462    0.5837828629690507
     0.4165211794871649    0.2498545124871636    0.9169388852060947
     0.4151331261186734    0.5831172717462157    0.2487324030505775
     0.4180045434023532    0.5822432811931089    0.5821943718360317
     0.4168745249374057    0.5831464065639395    0.9164043354672647
     0.4165703177601200    0.9169182105255083    0.2499906290764632
     0.4167362429467333    0.9164878790881894    0.5832491414523084
     0.4167088845922364    0.9164919688183705    0.9165035734529096
     0.7497839387462170    0.2484664591186721    0.2487324030505775
     0.7489099481931101    0.2513378764023520    0.5821943718360317
     0.7498130735639407    0.2502078579374045    0.9164043354672647
     0.7492727350334134    0.5826060680334122    0.2510653876593319
     0.7581019219429076    0.5914352549429064    0.5924777342897384
     0.7500143989145521    0.5833477319145509    0.9167457391535967
     0.7498255132882660    0.9164765701205561    0.2501141388709452
     0.7499463481549413    0.9165099242948788    0.5833571411651551
     0.7499020347968418    0.9170943830850654    0.9170123201880577
     0.9999310326924616    0.9999712819090111    0.0000287180909889
     0.0000081979894716    0.9997528698554714    0.3333562846183604
     0.9998655369758829    0.0002805500010192    0.6667480119542883
     0.9998655369758829    0.3332519880457118    0.9997194499989809
     0.0002506576540646    0.3330542054435606    0.3332514174038324
     0.9992413876811996    0.3338884401445524    0.6661115598554476
     0.0000081979894716    0.6666437153816398    0.0002471301445284
     0.9993125968574498    0.6660648429143735    0.3339351570856265
     0.0002506576540646    0.6667485825961675    0.6669457945564395
     0.3333435376914352    0.9999783769386261    0.0000216230613737
     0.3333719398253778    0.0002852260205138    0.3333543957650041
     0.3334350390476301    0.9998483111619954    0.6666939323079517
     0.3334350390476301    0.3333060676920482    0.0001516888380048
     0.3343304233049452    0.3337257876298020    0.3342294120535187
     0.3329672623862044    0.3331442345880201    0.6668557654119798
     0.3333719398253778    0.6666456042349956    0.9997147739794862
     0.3328093889305473    0.6668869176557898    0.3331130823442098
     0.3343304233049452    0.6657705879464816    0.6662742123701980
     0.6666892229109023    0.0002090301900756    0.9997909698099247
     0.6665956044981889    0.9999344729479698    0.3335131365196735
     0.6666447249344879    0.9999292510534115    0.6665738288171548
     0.6666447249344879    0.3334261711828452    0.0000707489465884
     0.6684336430605551    0.3337871358188074    0.3338602369550103
     0.6641183922379389    0.3344898241439858    0.6655101758560141
     0.6665956044981889    0.6664868634803267    0.0000655270520301
     0.6653960711126773    0.6656950702573766    0.3343049297426233
     0.6684336430605551    0.6661397630449897    0.6662128641811929
     0.1666450439386275    0.1666768716914375    0.0000216230613737
     0.1669518930205149    0.1667052738253802    0.3333543957650041
     0.1665149781619965    0.1667683730476326    0.6666939323079517
     0.1668756971900768    0.5000225559109011    0.9997909698099247
     0.1666011399479709    0.4999289374981806    0.3335131365196735
     0.1665959180534128    0.4999780579344864    0.6665738288171548
     0.1666379489090123    0.8332643656924604    0.0000287180909889
     0.1664195368554727    0.8333415309894703    0.3333562846183604
     0.1669472170010204    0.8331988699758817    0.6667480119542883
     0.4999727346920494    0.1667683730476326    0.0001516888380048
     0.5003924546298032    0.1676637573049476    0.3342294120535187
     0.4998109015880213    0.1663005963862069    0.6668557654119798
     0.5000928381828464    0.4999780579344864    0.0000707489465884
     0.5004538028188084    0.5017669760605539    0.3338602369550103
     0.5011564911439871    0.4974517252379377    0.6655101758560141
     0.4999186550457128    0.8331988699758817    0.9997194499989809
     0.4997208724435618    0.8335839906540636    0.3332514174038324
     0.5005551071445536    0.8325747206811984    0.6661115598554476
     0.8333122702349932    0.1667052738253802    0.9997147739794862
     0.8335535836557874    0.1661427229305498    0.3331130823442098
     0.8324372539464792    0.1676637573049476    0.6662742123701980
     0.8331535294803243    0.4999289374981806    0.0000655270520301
     0.8323617362573742    0.4987294041126762    0.3343049297426233
     0.8328064290449873    0.5017669760605539    0.6662128641811929
     0.8333103813816374    0.8333415309894703    0.0002471301445284
     0.8327315089143711    0.8326459298574486    0.3339351570856265
     0.8334152485961651    0.8335839906540636    0.6669457945564395
     0.1666379489090123    0.9999712819090111    0.1667356343075397
     0.1668756971900768    0.0002090301900756    0.4999774440890992
     0.1666450439386275    0.9999783769386261    0.8333231283085626
     0.1669472170010204    0.3332519880457118    0.1668011300241185
     0.1665959180534128    0.3334261711828452    0.5000219420655133
     0.1665149781619965    0.3333060676920482    0.8332316269523673
     0.1664195368554727    0.6666437153816398    0.1666584690105295
     0.1666011399479709    0.6664868634803267    0.5000710625018194
     0.1669518930205149    0.6666456042349956    0.8332947261746199
     0.4999186550457128    0.0002805500010192    0.1668011300241185
     0.5000928381828464    0.9999292510534115    0.5000219420655133
     0.4999727346920494    0.9998483111619954    0.8332316269523673
     0.5005551071445536    0.3338884401445524    0.1674252793188017
     0.5011564911439871    0.3344898241439858    0.5025482747620623
     0.4998109015880213    0.3331442345880201    0.8336994036137929
     0.4997208724435618    0.6667485825961675    0.1664160093459366
     0.5004538028188084    0.6661397630449897    0.4982330239394461
     0.5003924546298032    0.6657705879464816    0.8323362426950524
     0.8333103813816374    0.9997528698554714    0.1666584690105295
     0.8331535294803243    0.9999344729479698    0.5000710625018194
     0.8333122702349932    0.0002852260205138    0.8332947261746199
     0.8334152485961651    0.3330542054435606    0.1664160093459366
     0.8328064290449873    0.3337871358188074    0.4982330239394461
     0.8324372539464792    0.3337257876298020    0.8323362426950524
     0.8327315089143711    0.6660648429143735    0.1673540701425514
     0.8323617362573742    0.6656950702573766    0.5012705958873240
     0.8335535836557874    0.6668869176557898    0.8338572770694502
     0.0000394648963483    0.1665859258416438    0.1666272021036529
     0.0006515264236615    0.1659485221222671    0.4997865481273234
     0.9996894931626633    0.1669362017791604    0.8330637982208399
     0.0005291622496139    0.4997286218637691    0.1661375047503874
     0.9993038013895268    0.4999516369847888    0.5000483630152115
     0.0006515264236615    0.5002134518726767    0.8340514778777330
     0.9996899754194435    0.8330233084194424    0.1669766915805577
     0.0005291622496139    0.8338624952496125    0.5002713781362310
     0.0000394648963483    0.8333727978963471    0.8334140741583561
     0.3336028677791580    0.1669362017791604    0.1669771738373378
     0.3333377194306049    0.1666710534306073    0.5001112295232193
     0.3332579375322217    0.1665912715322241    0.8334087284677757
     0.3326151881222648    0.5002134518726767    0.1660151405763397
     0.3336581222045583    0.5000144976033538    0.4999855023966462
     0.3333377194306049    0.4998887704767806    0.8333289465693926
     0.3332525918416413    0.8333727978963471    0.1666272021036529
     0.3326151881222648    0.8339848594236602    0.4997865481273234
     0.3336028677791580    0.8330228261626621    0.8330637982208399
     0.6668801188726780    0.1659485221222671    0.1660151405763397
     0.6666811646033549    0.1669914562045607    0.4999855023966462
     0.6665554374767819    0.1666710534306073    0.8333289465693926
     0.6666183039847899    0.4999516369847888    0.1673628656104744
     0.6666811646033549    0.5000144976033538    0.8330085437954393
     0.6663952888637703    0.8338624952496125    0.1661375047503874
     0.6666183039847899    0.8326371343895256    0.5000483630152115
     0.6668801188726780    0.8339848594236602    0.8340514778777330
     0.5784415929044304    0.4117749269044330    0.5882250730955672
 
  0.00000000E+00  0.00000000E+00  0.00000000E+00
  0.00000000E+00  0.00000000E+00  0.00000000E+00
  0.00000000E+00  0.00000000E+00  0.00000000E+00
  0.00000000E+00  0.00000000E+00  0.00000000E+00
  0.00000000E+00  0.00000000E+00  0.00000000E+00
  0.00000000E+00  0.00000000E+00  0.00000000E+00
  0.00000000E+00  0.00000000E+00  0.00000000E+00
  0.00000000E+00  0.00000000E+00  0.00000000E+00
  0.00000000E+00  0.00000000E+00  0.00000000E+00
  0.00000000E+00  0.00000000E+00  0.00000000E+00
  0.00000000E+00  0.00000000E+00  0.00000000E+00
  0.00000000E+00  0.00000000E+00  0.00000000E+00
  0.00000000E+00  0.00000000E+00  0.00000000E+00
  0.00000000E+00  0.00000000E+00  0.00000000E+00
  0.00000000E+00  0.00000000E+00  0.00000000E+00
  0.00000000E+00  0.00000000E+00  0.00000000E+00
  0.00000000E+00  0.00000000E+00  0.00000000E+00
  0.00000000E+00  0.00000000E+00  0.00000000E+00
  0.00000000E+00  0.00000000E+00  0.00000000E+00
  0.00000000E+00  0.00000000E+00  0.00000000E+00
  0.00000000E+00  0.00000000E+00  0.00000000E+00
  0.00000000E+00  0.00000000E+00  0.00000000E+00
  0.00000000E+00  0.00000000E+00  0.00000000E+00
  0.00000000E+00  0.00000000E+00  0.00000000E+00
  0.00000000E+00  0.00000000E+00  0.00000000E+00
  0.00000000E+00  0.00000000E+00  0.00000000E+00
  0.00000000E+00  0.00000000E+00  0.00000000E+00
  0.00000000E+00  0.00000000E+00  0.00000000E+00
  0.00000000E+00  0.00000000E+00  0.00000000E+00
  0.00000000E+00  0.00000000E+00  0.00000000E+00
  0.00000000E+00  0.00000000E+00  0.00000000E+00
  0.00000000E+00  0.00000000E+00  0.00000000E+00
  0.00000000E+00  0.00000000E+00  0.00000000E+00
  0.00000000E+00  0.00000000E+00  0.00000000E+00
  0.00000000E+00  0.00000000E+00  0.00000000E+00
  0.00000000E+00  0.00000000E+00  0.00000000E+00
  0.00000000E+00  0.00000000E+00  0.00000000E+00
  0.00000000E+00  0.00000000E+00  0.00000000E+00
  0.00000000E+00  0.00000000E+00  0.00000000E+00
  0.00000000E+00  0.00000000E+00  0.00000000E+00
  0.00000000E+00  0.00000000E+00  0.00000000E+00
  0.00000000E+00  0.00000000E+00  0.00000000E+00
  0.00000000E+00  0.00000000E+00  0.00000000E+00
  0.00000000E+00  0.00000000E+00  0.00000000E+00
  0.00000000E+00  0.00000000E+00  0.00000000E+00
  0.00000000E+00  0.00000000E+00  0.00000000E+00
  0.00000000E+00  0.00000000E+00  0.00000000E+00
  0.00000000E+00  0.00000000E+00  0.00000000E+00
  0.00000000E+00  0.00000000E+00  0.00000000E+00
  0.00000000E+00  0.00000000E+00  0.00000000E+00
  0.00000000E+00  0.00000000E+00  0.00000000E+00
  0.00000000E+00  0.00000000E+00  0.00000000E+00
  0.00000000E+00  0.00000000E+00  0.00000000E+00
  0.00000000E+00  0.00000000E+00  0.00000000E+00
  0.00000000E+00  0.00000000E+00  0.00000000E+00
  0.00000000E+00  0.00000000E+00  0.00000000E+00
  0.00000000E+00  0.00000000E+00  0.00000000E+00
  0.00000000E+00  0.00000000E+00  0.00000000E+00
  0.00000000E+00  0.00000000E+00  0.00000000E+00
  0.00000000E+00  0.00000000E+00  0.00000000E+00
  0.00000000E+00  0.00000000E+00  0.00000000E+00
  0.00000000E+00  0.00000000E+00  0.00000000E+00
  0.00000000E+00  0.00000000E+00  0.00000000E+00
  0.00000000E+00  0.00000000E+00  0.00000000E+00
  0.00000000E+00  0.00000000E+00  0.00000000E+00
  0.00000000E+00  0.00000000E+00  0.00000000E+00
  0.00000000E+00  0.00000000E+00  0.00000000E+00
  0.00000000E+00  0.00000000E+00  0.00000000E+00
  0.00000000E+00  0.00000000E+00  0.00000000E+00
  0.00000000E+00  0.00000000E+00  0.00000000E+00
  0.00000000E+00  0.00000000E+00  0.00000000E+00
  0.00000000E+00  0.00000000E+00  0.00000000E+00
  0.00000000E+00  0.00000000E+00  0.00000000E+00
  0.00000000E+00  0.00000000E+00  0.00000000E+00
  0.00000000E+00  0.00000000E+00  0.00000000E+00
  0.00000000E+00  0.00000000E+00  0.00000000E+00
  0.00000000E+00  0.00000000E+00  0.00000000E+00
  0.00000000E+00  0.00000000E+00  0.00000000E+00
  0.00000000E+00  0.00000000E+00  0.00000000E+00
  0.00000000E+00  0.00000000E+00  0.00000000E+00
  0.00000000E+00  0.00000000E+00  0.00000000E+00
  0.00000000E+00  0.00000000E+00  0.00000000E+00
  0.00000000E+00  0.00000000E+00  0.00000000E+00
  0.00000000E+00  0.00000000E+00  0.00000000E+00
  0.00000000E+00  0.00000000E+00  0.00000000E+00
  0.00000000E+00  0.00000000E+00  0.00000000E+00
  0.00000000E+00  0.00000000E+00  0.00000000E+00
  0.00000000E+00  0.00000000E+00  0.00000000E+00
  0.00000000E+00  0.00000000E+00  0.00000000E+00
  0.00000000E+00  0.00000000E+00  0.00000000E+00
  0.00000000E+00  0.00000000E+00  0.00000000E+00
  0.00000000E+00  0.00000000E+00  0.00000000E+00
  0.00000000E+00  0.00000000E+00  0.00000000E+00
  0.00000000E+00  0.00000000E+00  0.00000000E+00
  0.00000000E+00  0.00000000E+00  0.00000000E+00
  0.00000000E+00  0.00000000E+00  0.00000000E+00
  0.00000000E+00  0.00000000E+00  0.00000000E+00
  0.00000000E+00  0.00000000E+00  0.00000000E+00
  0.00000000E+00  0.00000000E+00  0.00000000E+00
  0.00000000E+00  0.00000000E+00  0.00000000E+00
  0.00000000E+00  0.00000000E+00  0.00000000E+00
  0.00000000E+00  0.00000000E+00  0.00000000E+00
  0.00000000E+00  0.00000000E+00  0.00000000E+00
  0.00000000E+00  0.00000000E+00  0.00000000E+00
  0.00000000E+00  0.00000000E+00  0.00000000E+00
  0.00000000E+00  0.00000000E+00  0.00000000E+00
  0.00000000E+00  0.00000000E+00  0.00000000E+00
  0.00000000E+00  0.00000000E+00  0.00000000E+00
  0.00000000E+00  0.00000000E+00  0.00000000E+00
  0.00000000E+00  0.00000000E+00  0.00000000E+00
  0.00000000E+00  0.00000000E+00  0.00000000E+00
  0.00000000E+00  0.00000000E+00  0.00000000E+00
  0.00000000E+00  0.00000000E+00  0.00000000E+00
  0.00000000E+00  0.00000000E+00  0.00000000E+00
  0.00000000E+00  0.00000000E+00  0.00000000E+00
  0.00000000E+00  0.00000000E+00  0.00000000E+00
  0.00000000E+00  0.00000000E+00  0.00000000E+00
  0.00000000E+00  0.00000000E+00  0.00000000E+00
  0.00000000E+00  0.00000000E+00  0.00000000E+00
  0.00000000E+00  0.00000000E+00  0.00000000E+00
  0.00000000E+00  0.00000000E+00  0.00000000E+00
  0.00000000E+00  0.00000000E+00  0.00000000E+00
  0.00000000E+00  0.00000000E+00  0.00000000E+00
  0.00000000E+00  0.00000000E+00  0.00000000E+00
  0.00000000E+00  0.00000000E+00  0.00000000E+00
  0.00000000E+00  0.00000000E+00  0.00000000E+00
  0.00000000E+00  0.00000000E+00  0.00000000E+00
  0.00000000E+00  0.00000000E+00  0.00000000E+00
  0.00000000E+00  0.00000000E+00  0.00000000E+00
  0.00000000E+00  0.00000000E+00  0.00000000E+00
  0.00000000E+00  0.00000000E+00  0.00000000E+00
  0.00000000E+00  0.00000000E+00  0.00000000E+00
  0.00000000E+00  0.00000000E+00  0.00000000E+00
  0.00000000E+00  0.00000000E+00  0.00000000E+00
  0.00000000E+00  0.00000000E+00  0.00000000E+00
  0.00000000E+00  0.00000000E+00  0.00000000E+00
  0.00000000E+00  0.00000000E+00  0.00000000E+00
  0.00000000E+00  0.00000000E+00  0.00000000E+00
  0.00000000E+00  0.00000000E+00  0.00000000E+00
  0.00000000E+00  0.00000000E+00  0.00000000E+00
  0.00000000E+00  0.00000000E+00  0.00000000E+00
  0.00000000E+00  0.00000000E+00  0.00000000E+00
  0.00000000E+00  0.00000000E+00  0.00000000E+00
  0.00000000E+00  0.00000000E+00  0.00000000E+00
  0.00000000E+00  0.00000000E+00  0.00000000E+00
  0.00000000E+00  0.00000000E+00  0.00000000E+00
  0.00000000E+00  0.00000000E+00  0.00000000E+00
  0.00000000E+00  0.00000000E+00  0.00000000E+00
  0.00000000E+00  0.00000000E+00  0.00000000E+00
  0.00000000E+00  0.00000000E+00  0.00000000E+00
  0.00000000E+00  0.00000000E+00  0.00000000E+00
  0.00000000E+00  0.00000000E+00  0.00000000E+00
  0.00000000E+00  0.00000000E+00  0.00000000E+00
  0.00000000E+00  0.00000000E+00  0.00000000E+00
  0.00000000E+00  0.00000000E+00  0.00000000E+00
  0.00000000E+00  0.00000000E+00  0.00000000E+00
  0.00000000E+00  0.00000000E+00  0.00000000E+00
  0.00000000E+00  0.00000000E+00  0.00000000E+00
  0.00000000E+00  0.00000000E+00  0.00000000E+00
  0.00000000E+00  0.00000000E+00  0.00000000E+00
  0.00000000E+00  0.00000000E+00  0.00000000E+00
  0.00000000E+00  0.00000000E+00  0.00000000E+00
  0.00000000E+00  0.00000000E+00  0.00000000E+00
  0.00000000E+00  0.00000000E+00  0.00000000E+00
  0.00000000E+00  0.00000000E+00  0.00000000E+00
  0.00000000E+00  0.00000000E+00  0.00000000E+00
  0.00000000E+00  0.00000000E+00  0.00000000E+00
  0.00000000E+00  0.00000000E+00  0.00000000E+00
  0.00000000E+00  0.00000000E+00  0.00000000E+00
  0.00000000E+00  0.00000000E+00  0.00000000E+00
  0.00000000E+00  0.00000000E+00  0.00000000E+00
  0.00000000E+00  0.00000000E+00  0.00000000E+00
  0.00000000E+00  0.00000000E+00  0.00000000E+00
  0.00000000E+00  0.00000000E+00  0.00000000E+00
  0.00000000E+00  0.00000000E+00  0.00000000E+00
  0.00000000E+00  0.00000000E+00  0.00000000E+00
  0.00000000E+00  0.00000000E+00  0.00000000E+00
  0.00000000E+00  0.00000000E+00  0.00000000E+00
  0.00000000E+00  0.00000000E+00  0.00000000E+00
  0.00000000E+00  0.00000000E+00  0.00000000E+00
  0.00000000E+00  0.00000000E+00  0.00000000E+00
  0.00000000E+00  0.00000000E+00  0.00000000E+00
  0.00000000E+00  0.00000000E+00  0.00000000E+00
  0.00000000E+00  0.00000000E+00  0.00000000E+00
  0.00000000E+00  0.00000000E+00  0.00000000E+00
  0.00000000E+00  0.00000000E+00  0.00000000E+00
  0.00000000E+00  0.00000000E+00  0.00000000E+00
  0.00000000E+00  0.00000000E+00  0.00000000E+00
  0.00000000E+00  0.00000000E+00  0.00000000E+00
  0.00000000E+00  0.00000000E+00  0.00000000E+00
  0.00000000E+00  0.00000000E+00  0.00000000E+00
  0.00000000E+00  0.00000000E+00  0.00000000E+00
  0.00000000E+00  0.00000000E+00  0.00000000E+00
  0.00000000E+00  0.00000000E+00  0.00000000E+00
  0.00000000E+00  0.00000000E+00  0.00000000E+00
  0.00000000E+00  0.00000000E+00  0.00000000E+00
  0.00000000E+00  0.00000000E+00  0.00000000E+00
  0.00000000E+00  0.00000000E+00  0.00000000E+00
  0.00000000E+00  0.00000000E+00  0.00000000E+00
  0.00000000E+00  0.00000000E+00  0.00000000E+00
  0.00000000E+00  0.00000000E+00  0.00000000E+00
  0.00000000E+00  0.00000000E+00  0.00000000E+00
  0.00000000E+00  0.00000000E+00  0.00000000E+00
  0.00000000E+00  0.00000000E+00  0.00000000E+00
  0.00000000E+00  0.00000000E+00  0.00000000E+00
  0.00000000E+00  0.00000000E+00  0.00000000E+00
  0.00000000E+00  0.00000000E+00  0.00000000E+00
  0.00000000E+00  0.00000000E+00  0.00000000E+00
  0.00000000E+00  0.00000000E+00  0.00000000E+00
  0.00000000E+00  0.00000000E+00  0.00000000E+00
  0.00000000E+00  0.00000000E+00  0.00000000E+00
  0.00000000E+00  0.00000000E+00  0.00000000E+00
  0.00000000E+00  0.00000000E+00  0.00000000E+00
  0.00000000E+00  0.00000000E+00  0.00000000E+00
  0.00000000E+00  0.00000000E+00  0.00000000E+00
