
     Program PWSCF v.7.4.1 starts on 23Aug2026 at  0:32:55 

     This program is part of the open-source Quantum ESPRESSO suite
     for quantum simulation of materials; please cite
         "P. Giannozzi et al., J. Phys.:Condens. Matter 21 395502 (2009);
         "P. Giannozzi et al., J. Phys.:Condens. Matter 29 465901 (2017);
         "P. Giannozzi et al., J. Chem. Phys. 152 154105 (2020);
          URL http://www.quantum-espresso.org", 
     in publications or presentations arising from this work. More details at
     http://www.quantum-espresso.org/quote

     Parallel version (MPI), running on    32 processors

     MPI processes distributed on     1 nodes
     61078 MiB available memory on the printing compute node when the environment starts
 
     Reading input from scf.in

     Current dimensions of program PWSCF are:
     Max number of different atomic species (ntypx) = 10
     Max number of k-points (npk) =  40000
     Max angular momentum in pseudopotentials (lmaxx) =  4
     file C.pbe-n-kjpaw_psl.1.0.0.UPF: wavefunction(s)  2S 2P renormalized
     file N.pbe-n-kjpaw_psl.1.0.0.UPF: wavefunction(s)  2S renormalized
 
     R & G space division:  proc/nbgrp/npool/nimage =      32
     Subspace diagonalization in iterative solution of the eigenvalue problem:
     one sub-group per band group will be used
     scalapack distributed-memory algorithm (size of sub-group:  5*  5 procs)

 
     Parallelization info
     --------------------
     sticks:   dense  smooth     PW     G-vecs:    dense   smooth      PW
     Min         183     183     46                10583    10583    1322
     Max         184     184     47                10588    10588    1326
     Sum        5877    5877   1473               338755   338755   42379
 
     Using Slab Decomposition
 


     bravais-lattice index     =            0
     lattice parameter (alat)  =      20.2515  a.u.
     unit-cell volume          =    8305.5769 (a.u.)^3
     number of atoms/cell      =          215
     number of atomic types    =            2
     number of electrons       =       862.00 (up: 432.00, down: 430.00)
     number of Kohn-Sham states=          862
     kinetic-energy cutoff     =      45.0000  Ry
     charge density cutoff     =     180.0000  Ry
     scf convergence threshold =      1.0E-08
     mixing beta               =       0.7000
     number of iterations used =            8  plain     mixing
     Exchange-correlation= SLA  PW   PBX  PBC
                           (   1   4   3   4   0   0   0)

     celldm(1)=  20.251472  celldm(2)=   0.000000  celldm(3)=   0.000000
     celldm(4)=   0.000000  celldm(5)=   0.000000  celldm(6)=   0.000000

     crystal axes: (cart. coord. in units of alat)
               a(1) = (  -0.707107   0.000000   0.707107 )  
               a(2) = (   0.408248   0.816497   0.408248 )  
               a(3) = (  -0.577350   0.577350  -0.577350 )  

     reciprocal axes: (cart. coord. in units 2 pi/alat)
               b(1) = ( -0.707107  0.000000  0.707107 )  
               b(2) = (  0.408248  0.816497  0.408248 )  
               b(3) = ( -0.577350  0.577350 -0.577350 )  


     PseudoPot. # 1 for C  read from file:
     ../../pseudos/C.pbe-n-kjpaw_psl.1.0.0.UPF
     MD5 check sum: 5f16ad9a65e90284d1d834d4ab3b0f7d
     Pseudo is Projector augmented-wave + core cor, Zval =  4.0
     Generated using &quot;atomic&quot; code by A. Dal Corso  v.6.3
     Shape of augmentation charge: PSQ
     Using radial grid of 1073 points,  4 beta functions with: 
                l(1) =   0
                l(2) =   0
                l(3) =   1
                l(4) =   1
     Q(r) pseudized with 0 coefficients 


     PseudoPot. # 2 for N  read from file:
     ../../pseudos/N.pbe-n-kjpaw_psl.1.0.0.UPF
     MD5 check sum: a6186d50559fdcbe4b2d0187dd61a119
     Pseudo is Projector augmented-wave + core cor, Zval =  5.0
     Generated using &quot;atomic&quot; code by A. Dal Corso  v.6.3
     Shape of augmentation charge: PSQ
     Using radial grid of 1085 points,  4 beta functions with: 
                l(1) =   0
                l(2) =   0
                l(3) =   1
                l(4) =   1
     Q(r) pseudized with 0 coefficients 


     atomic species   valence    mass     pseudopotential
     C                 4.00    12.01070     C ( 1.00)
     N                 5.00    14.00670     N ( 1.00)

     Starting magnetic structure 
     atomic species   magnetization
     C               0.000
     N               0.000

     No symmetry found



   Cartesian axes

     site n.     atom                  positions (alat units)
         1        C      tau(   1) = (  -0.0000958   0.0001150   0.0000679  )
         2        C      tau(   2) = (  -0.1925388   0.1927191  -0.1922015  )
         3        C      tau(   3) = (  -0.3849742   0.3849592  -0.3849032  )
         4        C      tau(   4) = (   0.1357753   0.2723814   0.1361126  )
         5        C      tau(   5) = (  -0.0569078   0.4653407  -0.0560028  )
         6        C      tau(   6) = (  -0.2488222   0.6571755  -0.2489299  )
         7        C      tau(   7) = (   0.2721524   0.5444049   0.2722234  )
         8        C      tau(   8) = (   0.0797987   0.7369123   0.0796910  )
         9        C      tau(   9) = (  -0.1129660   0.9289001  -0.1124229  )
        10        C      tau(  10) = (  -0.2357604   0.0001991   0.2357121  )
        11        C      tau(  11) = (  -0.4282950   0.1925414   0.0432200  )
        12        C      tau(  12) = (  -0.6205452   0.3849745  -0.1490488  )
        13        C      tau(  13) = (  -0.0996138   0.2722929   0.3719011  )
        14        C      tau(  14) = (  -0.2944756   0.4654417   0.1815405  )
        15        C      tau(  15) = (  -0.4826213   0.6575668  -0.0130201  )
        16        C      tau(  16) = (   0.0363025   0.5443525   0.5077990  )
        17        C      tau(  17) = (  -0.1561429   0.7367837   0.3134583  )
        18        C      tau(  18) = (  -0.3489901   0.9285295   0.1236910  )
        19        C      tau(  19) = (  -0.4714241   0.0000162   0.4714202  )
        20        C      tau(  20) = (  -0.6639889   0.1923442   0.2789084  )
        21        C      tau(  21) = (  -0.8562253   0.3851040   0.0865738  )
        22        C      tau(  22) = (  -0.3352560   0.2721082   0.6076413  )
        23        C      tau(  23) = (  -0.5281698   0.4642508   0.4155236  )
        24        C      tau(  24) = (  -0.7190296   0.6568942   0.2225787  )
        25        C      tau(  25) = (  -0.1993523   0.5444881   0.7434469  )
        26        C      tau(  26) = (  -0.3916064   0.7363404   0.5500019  )
        27        C      tau(  27) = (  -0.5842948   0.9294358   0.3587759  )
        28        C      tau(  28) = (  -0.0499545   0.1363262   0.1858882  )
        29        C      tau(  29) = (  -0.2427027   0.3295282  -0.0057121  )
        30        C      tau(  30) = (  -0.4348055   0.5210228  -0.1991263  )
        31        C      tau(  31) = (   0.0860699   0.4083858   0.3220651  )
        32        C      tau(  32) = (  -0.1070095   0.6025495   0.1300924  )
        33        C      tau(  33) = (  -0.2990999   0.7922265  -0.0625030  )
        34        C      tau(  34) = (   0.2223420   0.6804894   0.4581186  )
        35        C      tau(  35) = (   0.0299658   0.8730571   0.2656678  )
        36        C      tau(  36) = (  -0.1627712   1.0649699   0.0734525  )
        37        C      tau(  37) = (  -0.2854538   0.1360463   0.4217774  )
        38        C      tau(  38) = (  -0.4782902   0.3279767   0.2293712  )
        39        C      tau(  39) = (  -0.6694105   0.5213308   0.0373948  )
        40        C      tau(  40) = (  -0.1493936   0.4082935   0.5576811  )
        41        C      tau(  41) = (  -0.3431715   0.5984815   0.3632728  )
        42        C      tau(  42) = (  -0.5324839   0.7937968   0.1730742  )
        43        C      tau(  43) = (  -0.0136033   0.6804906   0.6935996  )
        44        C      tau(  44) = (  -0.2060297   0.8727477   0.5005248  )
        45        C      tau(  45) = (  -0.3983008   1.0655583   0.3089314  )
        46        C      tau(  46) = (  -0.5212621   0.1361760   0.6574180  )
        47        C      tau(  47) = (  -0.7138667   0.3286137   0.4650557  )
        48        C      tau(  48) = (  -0.9060084   0.5211140   0.2723671  )
        49        C      tau(  49) = (  -0.3851716   0.4083986   0.7933224  )
        50        C      tau(  50) = (  -0.5777388   0.6008304   0.6009525  )
        51        C      tau(  51) = (  -0.7699507   0.7931583   0.4085406  )
        52        C      tau(  52) = (  -0.2491246   0.6804740   0.9294555  )
        53        C      tau(  53) = (  -0.4414700   0.8728121   0.7368227  )
        54        C      tau(  54) = (  -0.6340422   1.0654256   0.5446311  )
        55        C      tau(  55) = (  -0.2141335   0.0964897   0.0217092  )
        56        C      tau(  56) = (  -0.4066517   0.2888314  -0.1706566  )
        57        C      tau(  57) = (  -0.5990534   0.4811855  -0.3632768  )
        58        C      tau(  58) = (  -0.0790619   0.3692341   0.1579286  )
        59        C      tau(  59) = (  -0.2714546   0.5626485  -0.0343527  )
        60        C      tau(  60) = (  -0.4629955   0.7534446  -0.2272936  )
        61        C      tau(  61) = (   0.0581925   0.6406442   0.2938716  )
        62        C      tau(  62) = (  -0.1345668   0.8321489   0.1020301  )
        63        C      tau(  63) = (  -0.3270224   1.0251159  -0.0907988  )
        64        C      tau(  64) = (  -0.4499456   0.0961339   0.2572856  )
        65        C      tau(  65) = (  -0.6422416   0.2887085   0.0648330  )
        66        C      tau(  66) = (  -0.8345480   0.4812961  -0.1273451  )
        67        C      tau(  67) = (  -0.3137940   0.3678902   0.3938673  )
        68        C      tau(  68) = (  -0.5037614   0.5595159   0.2026829  )
        69        C      tau(  69) = (  -0.6978121   0.7534213   0.0087424  )
        70        C      tau(  70) = (  -0.1783465   0.6404829   0.5284589  )
        71        C      tau(  71) = (  -0.3704514   0.8331125   0.3351067  )
        72        C      tau(  72) = (  -0.5626414   1.0256826   0.1445907  )
        73        C      tau(  73) = (  -0.6856216   0.0962957   0.4930585  )
        74        C      tau(  74) = (  -0.8779116   0.2888399   0.3005823  )
        75        C      tau(  75) = (  -1.0703903   0.4812015   0.1081897  )
        76        C      tau(  76) = (  -0.5496256   0.3684653   0.6292968  )
        77        C      tau(  77) = (  -0.7419058   0.5609968   0.4367856  )
        78        C      tau(  78) = (  -0.9341008   0.7532798   0.2441920  )
        79        C      tau(  79) = (  -0.4133142   0.6406617   0.7650613  )
        80        C      tau(  80) = (  -0.6058245   0.8329819   0.5726668  )
        81        C      tau(  81) = (  -0.7983110   1.0255673   0.3803622  )
        82        C      tau(  82) = (  -0.0284860   0.2326870  -0.0279733  )
        83        C      tau(  83) = (  -0.2206828   0.4246606  -0.2210796  )
        84        C      tau(  84) = (  -0.4131219   0.6173342  -0.4130121  )
        85        C      tau(  85) = (   0.1083537   0.5044982   0.1079569  )
        86        C      tau(  86) = (  -0.0849561   0.6971189  -0.0841933  )
        87        C      tau(  87) = (  -0.2770411   0.8896576  -0.2776511  )
        88        C      tau(  88) = (   0.2438813   0.7767499   0.2439911  )
        89        C      tau(  89) = (   0.0520951   0.9695194   0.0514851  )
        90        C      tau(  90) = (  -0.1410464   1.1614476  -0.1407680  )
        91        C      tau(  91) = (  -0.2640145   0.2319759   0.2077277  )
        92        C      tau(  92) = (  -0.4562363   0.4251406   0.0153462  )
        93        C      tau(  93) = (  -0.6490678   0.6172160  -0.1778033  )
        94        C      tau(  94) = (  -0.1281602   0.5047452   0.3434223  )
        95        C      tau(  95) = (  -0.5124030   0.8892520  -0.0410121  )
        96        C      tau(  96) = (   0.0086793   0.7768122   0.4799438  )
        97        C      tau(  97) = (  -0.1844117   0.9688360   0.2869791  )
        98        C      tau(  98) = (  -0.3768435   1.1623223   0.0948168  )
        99        C      tau(  99) = (  -0.4997179   0.2322117   0.4433739  )
       100        C      tau( 100) = (  -0.6923324   0.4245018   0.2509968  )
       101        C      tau( 101) = (  -0.8841431   0.6172964   0.0584659  )
       102        C      tau( 102) = (  -0.3636730   0.5042479   0.5796561  )
       103        C      tau( 103) = (  -0.5557171   0.6969282   0.3866140  )
       104        C      tau( 104) = (  -0.7488392   0.8897981   0.1945513  )
       105        C      tau( 105) = (  -0.2275747   0.7766066   0.7150343  )
       106        C      tau( 106) = (  -0.4201288   0.9695566   0.5232617  )
       107        C      tau( 107) = (  -0.6123422   1.1616139   0.3304874  )
       108        C      tau( 108) = (  -0.0731653   0.1164182   0.0449176  )
       109        C      tau( 109) = (  -0.2657082   0.3090633  -0.1473044  )
       110        C      tau( 110) = (  -0.4580141   0.5010753  -0.3401043  )
       111        C      tau( 111) = (   0.0626472   0.3887357   0.1810509  )
       112        C      tau( 112) = (  -0.1301215   0.5816129  -0.0110014  )
       113        C      tau( 113) = (  -0.3216679   0.7740535  -0.2050352  )
       114        C      tau( 114) = (   0.1991772   0.6605366   0.3170869  )
       115        C      tau( 115) = (   0.0075277   0.8539298   0.1241604  )
       116        C      tau( 116) = (  -0.1859293   1.0451665  -0.0676707  )
       117        C      tau( 117) = (  -0.3087923   0.1160240   0.2806402  )
       118        C      tau( 118) = (  -0.5012636   0.3086064   0.0881545  )
       119        C      tau( 119) = (  -0.6932383   0.5012347  -0.1041145  )
       120        C      tau( 120) = (  -0.1727068   0.3883276   0.4167113  )
       121        C      tau( 121) = (  -0.5565094   0.7732705   0.0320729  )
       122        C      tau( 122) = (  -0.0368283   0.6605064   0.5522955  )
       123        C      tau( 123) = (  -0.2293311   0.8526573   0.3592513  )
       124        C      tau( 124) = (  -0.4214885   1.0467675   0.1675001  )
       125        C      tau( 125) = (  -0.5445194   0.1161416   0.5163388  )
       126        C      tau( 126) = (  -0.7370716   0.3085318   0.3239050  )
       127        C      tau( 127) = (  -0.9291842   0.5011902   0.1313932  )
       128        C      tau( 128) = (  -0.4084413   0.3882709   0.6525352  )
       129        C      tau( 129) = (  -0.6008902   0.5807922   0.4599664  )
       130        C      tau( 130) = (  -0.7928032   0.7732523   0.2674689  )
       131        C      tau( 131) = (  -0.2723381   0.6605678   0.7882393  )
       132        C      tau( 132) = (  -0.4647484   0.8528518   0.5955237  )
       133        C      tau( 133) = (  -0.6572912   1.0455105   0.4036078  )
       134        C      tau( 134) = (  -0.1230654   0.2525048   0.2308449  )
       135        C      tau( 135) = (  -0.3161896   0.4464680   0.0393036  )
       136        C      tau( 136) = (  -0.5087569   0.6369814  -0.1547932  )
       137        C      tau( 137) = (   0.0131017   0.5245422   0.3667826  )
       138        C      tau( 138) = (  -0.1676991   0.7189922   0.1759848  )
       139        C      tau( 139) = (  -0.3716905   0.9088035  -0.0176217  )
       140        C      tau( 140) = (   0.1494317   0.7967622   0.5031804  )
       141        C      tau( 141) = (  -0.0432554   0.9890914   0.3104304  )
       142        C      tau( 142) = (  -0.2356329   1.1815724   0.1180663  )
       143        C      tau( 143) = (  -0.3585863   0.2519569   0.4667356  )
       144        C      tau( 144) = (  -0.5518203   0.4437745   0.2745372  )
       145        C      tau( 145) = (  -0.7427440   0.6372874   0.0817191  )
       146        C      tau( 146) = (  -0.2225982   0.5244327   0.6023039  )
       147        C      tau( 147) = (  -0.4149887   0.7163918   0.4080244  )
       148        C      tau( 148) = (  -0.6085670   0.9096694   0.2177061  )
       149        C      tau( 149) = (  -0.0865207   0.7965429   0.7384399  )
       150        C      tau( 150) = (  -0.2789232   0.9890087   0.5460174  )
       151        C      tau( 151) = (  -0.4712170   1.1816608   0.3538000  )
       152        C      tau( 152) = (  -0.5944708   0.2524374   0.7022850  )
       153        C      tau( 153) = (  -0.7868642   0.4448791   0.5098293  )
       154        C      tau( 154) = (  -0.9790455   0.6372233   0.3171914  )
       155        C      tau( 155) = (  -0.4579589   0.5243338   0.8381432  )
       156        C      tau( 156) = (  -0.6507547   0.7169592   0.6457977  )
       157        C      tau( 157) = (  -0.8431026   0.9093591   0.4533226  )
       158        C      tau( 158) = (  -0.3221683   0.7966475   0.9743282  )
       159        C      tau( 159) = (  -0.5143061   0.9893828   0.7817525  )
       160        C      tau( 160) = (  -0.7070777   1.1814723   0.5894809  )
       161        C      tau( 161) = (  -0.2872789   0.2126599   0.0666315  )
       162        C      tau( 162) = (  -0.4795554   0.4050035  -0.1258745  )
       163        C      tau( 163) = (  -0.6723172   0.5973724  -0.3185686  )
       164        C      tau( 164) = (  -0.1524548   0.4861968   0.2030384  )
       165        C      tau( 165) = (  -0.3452159   0.6759194  -0.0015320  )
       166        C      tau( 166) = (  -0.5359215   0.8695506  -0.1822357  )
       167        C      tau( 167) = (  -0.0143192   0.7569521   0.3396444  )
       168        C      tau( 168) = (  -0.2077179   0.9485899   0.1463509  )
       169        C      tau( 169) = (  -0.3999275   1.1417079  -0.0462283  )
       170        C      tau( 170) = (  -0.5230298   0.2120562   0.3022921  )
       171        C      tau( 171) = (  -0.7150560   0.4049424   0.1098461  )
       172        C      tau( 172) = (  -0.9075449   0.5973290  -0.0825843  )
       173        C      tau( 173) = (  -0.3870649   0.4837509   0.4392926  )
       174        C      tau( 174) = (  -0.5770788   0.6770622   0.2459344  )
       175        C      tau( 175) = (  -0.7714913   0.8694917   0.0534492  )
       176        C      tau( 176) = (  -0.2508315   0.7566454   0.5736316  )
       177        C      tau( 177) = (  -0.4432941   0.9497713   0.3829790  )
       178        C      tau( 178) = (  -0.6356777   1.1417559   0.1893392  )
       179        C      tau( 179) = (  -0.7587021   0.2125882   0.5380537  )
       180        C      tau( 180) = (  -0.9508583   0.4047364   0.3452438  )
       181        C      tau( 181) = (  -1.1434510   0.5973709   0.1530455  )
       182        C      tau( 182) = (  -0.6226102   0.4847338   0.6740832  )
       183        C      tau( 183) = (  -0.8149284   0.6771240   0.4816240  )
       184        C      tau( 184) = (  -1.0073045   0.8697613   0.2887541  )
       185        C      tau( 185) = (  -0.4863124   0.7567804   0.8099245  )
       186        C      tau( 186) = (  -0.6788065   0.9492240   0.6176186  )
       187        C      tau( 187) = (  -0.8713193   1.1416206   0.4252393  )
       188        C      tau( 188) = (  -0.1016702   0.3491305   0.0169570  )
       189        C      tau( 189) = (  -0.2933677   0.5401655  -0.1765524  )
       190        C      tau( 190) = (  -0.4862682   0.7335621  -0.3682635  )
       191        C      tau( 191) = (   0.0357966   0.6200342   0.1526119  )
       192        C      tau( 192) = (  -0.1579975   0.8127508  -0.0392089  )
       193        C      tau( 193) = (  -0.3501087   1.0056007  -0.2321543  )
       194        C      tau( 194) = (   0.1709255   0.8930240   0.2889302  )
       195        C      tau( 195) = (  -0.0215182   1.0853301   0.0964363  )
       196        C      tau( 196) = (  -0.2140147   1.2776828  -0.0960032  )
       197        C      tau( 197) = (  -0.3371065   0.3472614   0.2528467  )
       198        C      tau( 198) = (  -0.5274311   0.5414206   0.0606442  )
       199        C      tau( 199) = (  -0.7216854   0.7334194  -0.1324290  )
       200        C      tau( 200) = (  -0.2016063   0.6204790   0.3864690  )
       201        C      tau( 201) = (  -0.3990427   0.8229778   0.1993548  )
       202        C      tau( 202) = (  -0.5857033   1.0055566   0.0035519  )
       203        C      tau( 203) = (  -0.0648634   0.8927911   0.5243930  )
       204        C      tau( 204) = (  -0.2572108   1.0852622   0.3320444  )
       205        C      tau( 205) = (  -0.4496878   1.2781747   0.1395506  )
       206        C      tau( 206) = (  -0.5728930   0.3482859   0.4883846  )
       207        C      tau( 207) = (  -0.7648493   0.5409810   0.2956781  )
       208        C      tau( 208) = (  -0.9573439   0.7333825   0.1032683  )
       209        C      tau( 209) = (  -0.4366048   0.6206265   0.6239227  )
       210        C      tau( 210) = (  -0.6289413   0.8131341   0.4316419  )
       211        C      tau( 211) = (  -0.8217765   1.0057035   0.2392219  )
       212        C      tau( 212) = (  -0.3005509   0.8927472   0.7600613  )
       213        C      tau( 213) = (  -0.4929269   1.0854957   0.5680715  )
       214        C      tau( 214) = (  -0.6853781   1.2777440   0.3753454  )
       215        N      tau( 215) = (  -0.3685905   0.5719184   0.2298198  )

     number of k points=     1
                       cart. coord. in units 2pi/alat
        k(    1) = (   0.0000000   0.0000000   0.0000000), wk =   1.0000000

     Dense  grid:   338755 G-vectors     FFT dimensions: (  90,  90,  90)

     Occupations read from input 

      Spin-up

        1.0000   1.0000   1.0000   1.0000   1.0000   1.0000   1.0000   1.0000
        1.0000   1.0000   1.0000   1.0000   1.0000   1.0000   1.0000   1.0000
        1.0000   1.0000   1.0000   1.0000   1.0000   1.0000   1.0000   1.0000
        1.0000   1.0000   1.0000   1.0000   1.0000   1.0000   1.0000   1.0000
        1.0000   1.0000   1.0000   1.0000   1.0000   1.0000   1.0000   1.0000
        1.0000   1.0000   1.0000   1.0000   1.0000   1.0000   1.0000   1.0000
        1.0000   1.0000   1.0000   1.0000   1.0000   1.0000   1.0000   1.0000
        1.0000   1.0000   1.0000   1.0000   1.0000   1.0000   1.0000   1.0000
        1.0000   1.0000   1.0000   1.0000   1.0000   1.0000   1.0000   1.0000
        1.0000   1.0000   1.0000   1.0000   1.0000   1.0000   1.0000   1.0000
        1.0000   1.0000   1.0000   1.0000   1.0000   1.0000   1.0000   1.0000
        1.0000   1.0000   1.0000   1.0000   1.0000   1.0000   1.0000   1.0000
        1.0000   1.0000   1.0000   1.0000   1.0000   1.0000   1.0000   1.0000
        1.0000   1.0000   1.0000   1.0000   1.0000   1.0000   1.0000   1.0000
        1.0000   1.0000   1.0000   1.0000   1.0000   1.0000   1.0000   1.0000
        1.0000   1.0000   1.0000   1.0000   1.0000   1.0000   1.0000   1.0000
        1.0000   1.0000   1.0000   1.0000   1.0000   1.0000   1.0000   1.0000
        1.0000   1.0000   1.0000   1.0000   1.0000   1.0000   1.0000   1.0000
        1.0000   1.0000   1.0000   1.0000   1.0000   1.0000   1.0000   1.0000
        1.0000   1.0000   1.0000   1.0000   1.0000   1.0000   1.0000   1.0000
        1.0000   1.0000   1.0000   1.0000   1.0000   1.0000   1.0000   1.0000
        1.0000   1.0000   1.0000   1.0000   1.0000   1.0000   1.0000   1.0000
        1.0000   1.0000   1.0000   1.0000   1.0000   1.0000   1.0000   1.0000
        1.0000   1.0000   1.0000   1.0000   1.0000   1.0000   1.0000   1.0000
        1.0000   1.0000   1.0000   1.0000   1.0000   1.0000   1.0000   1.0000
        1.0000   1.0000   1.0000   1.0000   1.0000   1.0000   1.0000   1.0000
        1.0000   1.0000   1.0000   1.0000   1.0000   1.0000   1.0000   1.0000
        1.0000   1.0000   1.0000   1.0000   1.0000   1.0000   1.0000   1.0000
        1.0000   1.0000   1.0000   1.0000   1.0000   1.0000   1.0000   1.0000
        1.0000   1.0000   1.0000   1.0000   1.0000   1.0000   1.0000   1.0000
        1.0000   1.0000   1.0000   1.0000   1.0000   1.0000   1.0000   1.0000
        1.0000   1.0000   1.0000   1.0000   1.0000   1.0000   1.0000   1.0000
        1.0000   1.0000   1.0000   1.0000   1.0000   1.0000   1.0000   1.0000
        1.0000   1.0000   1.0000   1.0000   1.0000   1.0000   1.0000   1.0000
        1.0000   1.0000   1.0000   1.0000   1.0000   1.0000   1.0000   1.0000
        1.0000   1.0000   1.0000   1.0000   1.0000   1.0000   1.0000   1.0000
        1.0000   1.0000   1.0000   1.0000   1.0000   1.0000   1.0000   1.0000
        1.0000   1.0000   1.0000   1.0000   1.0000   1.0000   1.0000   1.0000
        1.0000   1.0000   1.0000   1.0000   1.0000   1.0000   1.0000   1.0000
        1.0000   1.0000   1.0000   1.0000   1.0000   1.0000   1.0000   1.0000
        1.0000   1.0000   1.0000   1.0000   1.0000   1.0000   1.0000   1.0000
        1.0000   1.0000   1.0000   1.0000   1.0000   1.0000   1.0000   1.0000
        1.0000   1.0000   1.0000   1.0000   1.0000   1.0000   1.0000   1.0000
        1.0000   1.0000   1.0000   1.0000   1.0000   1.0000   1.0000   1.0000
        1.0000   1.0000   1.0000   1.0000   1.0000   1.0000   1.0000   1.0000
        1.0000   1.0000   1.0000   1.0000   1.0000   1.0000   1.0000   1.0000
        1.0000   1.0000   1.0000   1.0000   1.0000   1.0000   1.0000   1.0000
        1.0000   1.0000   1.0000   1.0000   1.0000   1.0000   1.0000   1.0000
        1.0000   1.0000   1.0000   1.0000   1.0000   1.0000   1.0000   1.0000
        1.0000   1.0000   1.0000   1.0000   1.0000   1.0000   1.0000   1.0000
        1.0000   1.0000   1.0000   1.0000   1.0000   1.0000   1.0000   1.0000
        1.0000   1.0000   1.0000   1.0000   1.0000   1.0000   1.0000   1.0000
        1.0000   1.0000   1.0000   1.0000   1.0000   1.0000   1.0000   1.0000
        1.0000   1.0000   1.0000   1.0000   1.0000   1.0000   1.0000   1.0000
        0.0000   0.0000   0.0000   0.0000   0.0000   0.0000   0.0000   0.0000
        0.0000   0.0000   0.0000   0.0000   0.0000   0.0000   0.0000   0.0000
        0.0000   0.0000   0.0000   0.0000   0.0000   0.0000   0.0000   0.0000
        0.0000   0.0000   0.0000   0.0000   0.0000   0.0000   0.0000   0.0000
        0.0000   0.0000   0.0000   0.0000   0.0000   0.0000   0.0000   0.0000
        0.0000   0.0000   0.0000   0.0000   0.0000   0.0000   0.0000   0.0000
        0.0000   0.0000   0.0000   0.0000   0.0000   0.0000   0.0000   0.0000
        0.0000   0.0000   0.0000   0.0000   0.0000   0.0000   0.0000   0.0000
        0.0000   0.0000   0.0000   0.0000   0.0000   0.0000   0.0000   0.0000
        0.0000   0.0000   0.0000   0.0000   0.0000   0.0000   0.0000   0.0000
        0.0000   0.0000   0.0000   0.0000   0.0000   0.0000   0.0000   0.0000
        0.0000   0.0000   0.0000   0.0000   0.0000   0.0000   0.0000   0.0000
        0.0000   0.0000   0.0000   0.0000   0.0000   0.0000   0.0000   0.0000
        0.0000   0.0000   0.0000   0.0000   0.0000   0.0000   0.0000   0.0000
        0.0000   0.0000   0.0000   0.0000   0.0000   0.0000   0.0000   0.0000
        0.0000   0.0000   0.0000   0.0000   0.0000   0.0000   0.0000   0.0000
        0.0000   0.0000   0.0000   0.0000   0.0000   0.0000   0.0000   0.0000
        0.0000   0.0000   0.0000   0.0000   0.0000   0.0000   0.0000   0.0000
        0.0000   0.0000   0.0000   0.0000   0.0000   0.0000   0.0000   0.0000
        0.0000   0.0000   0.0000   0.0000   0.0000   0.0000   0.0000   0.0000
        0.0000   0.0000   0.0000   0.0000   0.0000   0.0000   0.0000   0.0000
        0.0000   0.0000   0.0000   0.0000   0.0000   0.0000   0.0000   0.0000
        0.0000   0.0000   0.0000   0.0000   0.0000   0.0000   0.0000   0.0000
        0.0000   0.0000   0.0000   0.0000   0.0000   0.0000   0.0000   0.0000
        0.0000   0.0000   0.0000   0.0000   0.0000   0.0000   0.0000   0.0000
        0.0000   0.0000   0.0000   0.0000   0.0000   0.0000   0.0000   0.0000
        0.0000   0.0000   0.0000   0.0000   0.0000   0.0000   0.0000   0.0000
        0.0000   0.0000   0.0000   0.0000   0.0000   0.0000   0.0000   0.0000
        0.0000   0.0000   0.0000   0.0000   0.0000   0.0000   0.0000   0.0000
        0.0000   0.0000   0.0000   0.0000   0.0000   0.0000   0.0000   0.0000
        0.0000   0.0000   0.0000   0.0000   0.0000   0.0000   0.0000   0.0000
        0.0000   0.0000   0.0000   0.0000   0.0000   0.0000   0.0000   0.0000
        0.0000   0.0000   0.0000   0.0000   0.0000   0.0000   0.0000   0.0000
        0.0000   0.0000   0.0000   0.0000   0.0000   0.0000   0.0000   0.0000
        0.0000   0.0000   0.0000   0.0000   0.0000   0.0000   0.0000   0.0000
        0.0000   0.0000   0.0000   0.0000   0.0000   0.0000   0.0000   0.0000
        0.0000   0.0000   0.0000   0.0000   0.0000   0.0000   0.0000   0.0000
        0.0000   0.0000   0.0000   0.0000   0.0000   0.0000   0.0000   0.0000
        0.0000   0.0000   0.0000   0.0000   0.0000   0.0000   0.0000   0.0000
        0.0000   0.0000   0.0000   0.0000   0.0000   0.0000   0.0000   0.0000
        0.0000   0.0000   0.0000   0.0000   0.0000   0.0000   0.0000   0.0000
        0.0000   0.0000   0.0000   0.0000   0.0000   0.0000   0.0000   0.0000
        0.0000   0.0000   0.0000   0.0000   0.0000   0.0000   0.0000   0.0000
        0.0000   0.0000   0.0000   0.0000   0.0000   0.0000   0.0000   0.0000
        0.0000   0.0000   0.0000   0.0000   0.0000   0.0000   0.0000   0.0000
        0.0000   0.0000   0.0000   0.0000   0.0000   0.0000   0.0000   0.0000
        0.0000   0.0000   0.0000   0.0000   0.0000   0.0000   0.0000   0.0000
        0.0000   0.0000   0.0000   0.0000   0.0000   0.0000   0.0000   0.0000
        0.0000   0.0000   0.0000   0.0000   0.0000   0.0000   0.0000   0.0000
        0.0000   0.0000   0.0000   0.0000   0.0000   0.0000   0.0000   0.0000
        0.0000   0.0000   0.0000   0.0000   0.0000   0.0000   0.0000   0.0000
        0.0000   0.0000   0.0000   0.0000   0.0000   0.0000   0.0000   0.0000
        0.0000   0.0000   0.0000   0.0000   0.0000   0.0000   0.0000   0.0000
        0.0000   0.0000   0.0000   0.0000   0.0000   0.0000

      Spin-down

        1.0000   1.0000   1.0000   1.0000   1.0000   1.0000   1.0000   1.0000
        1.0000   1.0000   1.0000   1.0000   1.0000   1.0000   1.0000   1.0000
        1.0000   1.0000   1.0000   1.0000   1.0000   1.0000   1.0000   1.0000
        1.0000   1.0000   1.0000   1.0000   1.0000   1.0000   1.0000   1.0000
        1.0000   1.0000   1.0000   1.0000   1.0000   1.0000   1.0000   1.0000
        1.0000   1.0000   1.0000   1.0000   1.0000   1.0000   1.0000   1.0000
        1.0000   1.0000   1.0000   1.0000   1.0000   1.0000   1.0000   1.0000
        1.0000   1.0000   1.0000   1.0000   1.0000   1.0000   1.0000   1.0000
        1.0000   1.0000   1.0000   1.0000   1.0000   1.0000   1.0000   1.0000
        1.0000   1.0000   1.0000   1.0000   1.0000   1.0000   1.0000   1.0000
        1.0000   1.0000   1.0000   1.0000   1.0000   1.0000   1.0000   1.0000
        1.0000   1.0000   1.0000   1.0000   1.0000   1.0000   1.0000   1.0000
        1.0000   1.0000   1.0000   1.0000   1.0000   1.0000   1.0000   1.0000
        1.0000   1.0000   1.0000   1.0000   1.0000   1.0000   1.0000   1.0000
        1.0000   1.0000   1.0000   1.0000   1.0000   1.0000   1.0000   1.0000
        1.0000   1.0000   1.0000   1.0000   1.0000   1.0000   1.0000   1.0000
        1.0000   1.0000   1.0000   1.0000   1.0000   1.0000   1.0000   1.0000
        1.0000   1.0000   1.0000   1.0000   1.0000   1.0000   1.0000   1.0000
        1.0000   1.0000   1.0000   1.0000   1.0000   1.0000   1.0000   1.0000
        1.0000   1.0000   1.0000   1.0000   1.0000   1.0000   1.0000   1.0000
        1.0000   1.0000   1.0000   1.0000   1.0000   1.0000   1.0000   1.0000
        1.0000   1.0000   1.0000   1.0000   1.0000   1.0000   1.0000   1.0000
        1.0000   1.0000   1.0000   1.0000   1.0000   1.0000   1.0000   1.0000
        1.0000   1.0000   1.0000   1.0000   1.0000   1.0000   1.0000   1.0000
        1.0000   1.0000   1.0000   1.0000   1.0000   1.0000   1.0000   1.0000
        1.0000   1.0000   1.0000   1.0000   1.0000   1.0000   1.0000   1.0000
        1.0000   1.0000   1.0000   1.0000   1.0000   1.0000   1.0000   1.0000
        1.0000   1.0000   1.0000   1.0000   1.0000   1.0000   1.0000   1.0000
        1.0000   1.0000   1.0000   1.0000   1.0000   1.0000   1.0000   1.0000
        1.0000   1.0000   1.0000   1.0000   1.0000   1.0000   1.0000   1.0000
        1.0000   1.0000   1.0000   1.0000   1.0000   1.0000   1.0000   1.0000
        1.0000   1.0000   1.0000   1.0000   1.0000   1.0000   1.0000   1.0000
        1.0000   1.0000   1.0000   1.0000   1.0000   1.0000   1.0000   1.0000
        1.0000   1.0000   1.0000   1.0000   1.0000   1.0000   1.0000   1.0000
        1.0000   1.0000   1.0000   1.0000   1.0000   1.0000   1.0000   1.0000
        1.0000   1.0000   1.0000   1.0000   1.0000   1.0000   1.0000   1.0000
        1.0000   1.0000   1.0000   1.0000   1.0000   1.0000   1.0000   1.0000
        1.0000   1.0000   1.0000   1.0000   1.0000   1.0000   1.0000   1.0000
        1.0000   1.0000   1.0000   1.0000   1.0000   1.0000   1.0000   1.0000
        1.0000   1.0000   1.0000   1.0000   1.0000   1.0000   1.0000   1.0000
        1.0000   1.0000   1.0000   1.0000   1.0000   1.0000   1.0000   1.0000
        1.0000   1.0000   1.0000   1.0000   1.0000   1.0000   1.0000   1.0000
        1.0000   1.0000   1.0000   1.0000   1.0000   1.0000   1.0000   1.0000
        1.0000   1.0000   1.0000   1.0000   1.0000   1.0000   1.0000   1.0000
        1.0000   1.0000   1.0000   1.0000   1.0000   1.0000   1.0000   1.0000
        1.0000   1.0000   1.0000   1.0000   1.0000   1.0000   1.0000   1.0000
        1.0000   1.0000   1.0000   1.0000   1.0000   1.0000   1.0000   1.0000
        1.0000   1.0000   1.0000   1.0000   1.0000   1.0000   1.0000   1.0000
        1.0000   1.0000   1.0000   1.0000   1.0000   1.0000   1.0000   1.0000
        1.0000   1.0000   1.0000   1.0000   1.0000   1.0000   1.0000   1.0000
        1.0000   1.0000   1.0000   1.0000   1.0000   1.0000   1.0000   1.0000
        1.0000   1.0000   1.0000   1.0000   1.0000   1.0000   1.0000   1.0000
        1.0000   1.0000   1.0000   1.0000   1.0000   1.0000   1.0000   1.0000
        1.0000   1.0000   1.0000   1.0000   1.0000   0.0000   0.5000   0.5000
        0.0000   0.0000   0.0000   0.0000   0.0000   0.0000   0.0000   0.0000
        0.0000   0.0000   0.0000   0.0000   0.0000   0.0000   0.0000   0.0000
        0.0000   0.0000   0.0000   0.0000   0.0000   0.0000   0.0000   0.0000
        0.0000   0.0000   0.0000   0.0000   0.0000   0.0000   0.0000   0.0000
        0.0000   0.0000   0.0000   0.0000   0.0000   0.0000   0.0000   0.0000
        0.0000   0.0000   0.0000   0.0000   0.0000   0.0000   0.0000   0.0000
        0.0000   0.0000   0.0000   0.0000   0.0000   0.0000   0.0000   0.0000
        0.0000   0.0000   0.0000   0.0000   0.0000   0.0000   0.0000   0.0000
        0.0000   0.0000   0.0000   0.0000   0.0000   0.0000   0.0000   0.0000
        0.0000   0.0000   0.0000   0.0000   0.0000   0.0000   0.0000   0.0000
        0.0000   0.0000   0.0000   0.0000   0.0000   0.0000   0.0000   0.0000
        0.0000   0.0000   0.0000   0.0000   0.0000   0.0000   0.0000   0.0000
        0.0000   0.0000   0.0000   0.0000   0.0000   0.0000   0.0000   0.0000
        0.0000   0.0000   0.0000   0.0000   0.0000   0.0000   0.0000   0.0000
        0.0000   0.0000   0.0000   0.0000   0.0000   0.0000   0.0000   0.0000
        0.0000   0.0000   0.0000   0.0000   0.0000   0.0000   0.0000   0.0000
        0.0000   0.0000   0.0000   0.0000   0.0000   0.0000   0.0000   0.0000
        0.0000   0.0000   0.0000   0.0000   0.0000   0.0000   0.0000   0.0000
        0.0000   0.0000   0.0000   0.0000   0.0000   0.0000   0.0000   0.0000
        0.0000   0.0000   0.0000   0.0000   0.0000   0.0000   0.0000   0.0000
        0.0000   0.0000   0.0000   0.0000   0.0000   0.0000   0.0000   0.0000
        0.0000   0.0000   0.0000   0.0000   0.0000   0.0000   0.0000   0.0000
        0.0000   0.0000   0.0000   0.0000   0.0000   0.0000   0.0000   0.0000
        0.0000   0.0000   0.0000   0.0000   0.0000   0.0000   0.0000   0.0000
        0.0000   0.0000   0.0000   0.0000   0.0000   0.0000   0.0000   0.0000
        0.0000   0.0000   0.0000   0.0000   0.0000   0.0000   0.0000   0.0000
        0.0000   0.0000   0.0000   0.0000   0.0000   0.0000   0.0000   0.0000
        0.0000   0.0000   0.0000   0.0000   0.0000   0.0000   0.0000   0.0000
        0.0000   0.0000   0.0000   0.0000   0.0000   0.0000   0.0000   0.0000
        0.0000   0.0000   0.0000   0.0000   0.0000   0.0000   0.0000   0.0000
        0.0000   0.0000   0.0000   0.0000   0.0000   0.0000   0.0000   0.0000
        0.0000   0.0000   0.0000   0.0000   0.0000   0.0000   0.0000   0.0000
        0.0000   0.0000   0.0000   0.0000   0.0000   0.0000   0.0000   0.0000
        0.0000   0.0000   0.0000   0.0000   0.0000   0.0000   0.0000   0.0000
        0.0000   0.0000   0.0000   0.0000   0.0000   0.0000   0.0000   0.0000
        0.0000   0.0000   0.0000   0.0000   0.0000   0.0000   0.0000   0.0000
        0.0000   0.0000   0.0000   0.0000   0.0000   0.0000   0.0000   0.0000
        0.0000   0.0000   0.0000   0.0000   0.0000   0.0000   0.0000   0.0000
        0.0000   0.0000   0.0000   0.0000   0.0000   0.0000   0.0000   0.0000
        0.0000   0.0000   0.0000   0.0000   0.0000   0.0000   0.0000   0.0000
        0.0000   0.0000   0.0000   0.0000   0.0000   0.0000   0.0000   0.0000
        0.0000   0.0000   0.0000   0.0000   0.0000   0.0000   0.0000   0.0000
        0.0000   0.0000   0.0000   0.0000   0.0000   0.0000   0.0000   0.0000
        0.0000   0.0000   0.0000   0.0000   0.0000   0.0000   0.0000   0.0000
        0.0000   0.0000   0.0000   0.0000   0.0000   0.0000   0.0000   0.0000
        0.0000   0.0000   0.0000   0.0000   0.0000   0.0000   0.0000   0.0000
        0.0000   0.0000   0.0000   0.0000   0.0000   0.0000   0.0000   0.0000
        0.0000   0.0000   0.0000   0.0000   0.0000   0.0000   0.0000   0.0000
        0.0000   0.0000   0.0000   0.0000   0.0000   0.0000   0.0000   0.0000
        0.0000   0.0000   0.0000   0.0000   0.0000   0.0000   0.0000   0.0000
        0.0000   0.0000   0.0000   0.0000   0.0000   0.0000   0.0000   0.0000
        0.0000   0.0000   0.0000   0.0000   0.0000   0.0000   0.0000   0.0000
        0.0000   0.0000   0.0000   0.0000   0.0000   0.0000   0.0000   0.0000
        0.0000   0.0000   0.0000   0.0000   0.0000   0.0000

     Estimated max dynamical RAM per process >     230.54 MB

     Estimated total dynamical RAM >       7.20 GB

     Check: negative core charge=   -0.000075
     Generating pointlists ...
     new r_m :   0.0571 (alat units)  1.1564 (a.u.) for type    1
     new r_m :   0.0571 (alat units)  1.1564 (a.u.) for type    2

     Initial potential from superposition of free atoms

     starting charge     860.9911, renormalised to     862.0000
     Starting wfcs are random
     Checking if some PAW data can be deallocated... 

     total cpu time spent up to now is        6.5 secs

     per-process dynamical memory:   142.8 Mb

     Self-consistent Calculation

     iteration #  1     ecut=    45.00 Ry     beta= 0.70
     Davidson diagonalization with overlap
     ethr =  1.00E-02,  avg # of iterations =  8.5

     total cpu time spent up to now is       78.4 secs

     total energy              =   -3970.07100741 Ry
     estimated scf accuracy    <      12.73584997 Ry

     total magnetization       =     2.00 Bohr mag/cell
     absolute magnetization    =     2.13 Bohr mag/cell

     iteration #  2     ecut=    45.00 Ry     beta= 0.70
     Davidson diagonalization with overlap
     ethr =  1.48E-03,  avg # of iterations =  3.0

     total cpu time spent up to now is       97.4 secs

     total energy              =   -3968.01926134 Ry
     estimated scf accuracy    <       5.34028537 Ry

     total magnetization       =     2.00 Bohr mag/cell
     absolute magnetization    =     2.34 Bohr mag/cell

     iteration #  3     ecut=    45.00 Ry     beta= 0.70
     Davidson diagonalization with overlap
     ethr =  6.20E-04,  avg # of iterations =  5.5

     total cpu time spent up to now is      126.5 secs

     total energy              =   -3969.12490206 Ry
     estimated scf accuracy    <      20.39219936 Ry

     total magnetization       =     2.00 Bohr mag/cell
     absolute magnetization    =     2.12 Bohr mag/cell

     iteration #  4     ecut=    45.00 Ry     beta= 0.70
     Davidson diagonalization with overlap
     ethr =  6.20E-04,  avg # of iterations =  6.0

     total cpu time spent up to now is      149.8 secs

     total energy              =   -3971.11501865 Ry
     estimated scf accuracy    <       1.29443534 Ry

     total magnetization       =     2.00 Bohr mag/cell
     absolute magnetization    =     2.08 Bohr mag/cell

     iteration #  5     ecut=    45.00 Ry     beta= 0.70
     Davidson diagonalization with overlap
     ethr =  1.50E-04,  avg # of iterations =  5.0

     total cpu time spent up to now is      170.0 secs

     total energy              =   -3971.22193828 Ry
     estimated scf accuracy    <       0.32555796 Ry

     total magnetization       =     2.00 Bohr mag/cell
     absolute magnetization    =     2.07 Bohr mag/cell

     iteration #  6     ecut=    45.00 Ry     beta= 0.70
     Davidson diagonalization with overlap
     ethr =  3.78E-05,  avg # of iterations = 11.5

     total cpu time spent up to now is      194.2 secs

     total energy              =   -3971.21174160 Ry
     estimated scf accuracy    <       0.12151052 Ry

     total magnetization       =     2.00 Bohr mag/cell
     absolute magnetization    =     2.10 Bohr mag/cell

     iteration #  7     ecut=    45.00 Ry     beta= 0.70
     Davidson diagonalization with overlap
     ethr =  1.41E-05,  avg # of iterations =  6.5

     total cpu time spent up to now is      215.6 secs

     total energy              =   -3971.21803136 Ry
     estimated scf accuracy    <       0.02204182 Ry

     total magnetization       =     2.00 Bohr mag/cell
     absolute magnetization    =     2.13 Bohr mag/cell

     iteration #  8     ecut=    45.00 Ry     beta= 0.70
     Davidson diagonalization with overlap
     ethr =  2.56E-06,  avg # of iterations = 11.5

     total cpu time spent up to now is      242.3 secs

     total energy              =   -3971.22184122 Ry
     estimated scf accuracy    <       0.00264603 Ry

     total magnetization       =     2.00 Bohr mag/cell
     absolute magnetization    =     2.16 Bohr mag/cell

     iteration #  9     ecut=    45.00 Ry     beta= 0.70
     Davidson diagonalization with overlap
     ethr =  3.07E-07,  avg # of iterations =  2.5

     total cpu time spent up to now is      261.0 secs

     total energy              =   -3971.22245775 Ry
     estimated scf accuracy    <       0.00044528 Ry

     total magnetization       =     2.00 Bohr mag/cell
     absolute magnetization    =     2.18 Bohr mag/cell

     iteration # 10     ecut=    45.00 Ry     beta= 0.70
     Davidson diagonalization with overlap
     ethr =  5.17E-08,  avg # of iterations =  2.0

     total cpu time spent up to now is      279.4 secs

     total energy              =   -3971.22259278 Ry
     estimated scf accuracy    <       0.00009816 Ry

     total magnetization       =     2.00 Bohr mag/cell
     absolute magnetization    =     2.19 Bohr mag/cell

     iteration # 11     ecut=    45.00 Ry     beta= 0.70
     Davidson diagonalization with overlap
     ethr =  1.14E-08,  avg # of iterations =  2.5

     total cpu time spent up to now is      298.2 secs

     total energy              =   -3971.22262267 Ry
     estimated scf accuracy    <       0.00002903 Ry

     total magnetization       =     2.00 Bohr mag/cell
     absolute magnetization    =     2.20 Bohr mag/cell

     iteration # 12     ecut=    45.00 Ry     beta= 0.70
     Davidson diagonalization with overlap
     ethr =  3.37E-09,  avg # of iterations =  2.0

     total cpu time spent up to now is      316.5 secs

     total energy              =   -3971.22263095 Ry
     estimated scf accuracy    <       0.00000450 Ry

     total magnetization       =     2.00 Bohr mag/cell
     absolute magnetization    =     2.20 Bohr mag/cell

     iteration # 13     ecut=    45.00 Ry     beta= 0.70
     Davidson diagonalization with overlap
     ethr =  5.22E-10,  avg # of iterations =  3.0

     total cpu time spent up to now is      335.7 secs

     total energy              =   -3971.22263234 Ry
     estimated scf accuracy    <       0.00000147 Ry

     total magnetization       =     2.00 Bohr mag/cell
     absolute magnetization    =     2.20 Bohr mag/cell

     iteration # 14     ecut=    45.00 Ry     beta= 0.70
     Davidson diagonalization with overlap
     ethr =  1.71E-10,  avg # of iterations =  2.5

     total cpu time spent up to now is      354.4 secs

     total energy              =   -3971.22263273 Ry
     estimated scf accuracy    <       0.00000021 Ry

     total magnetization       =     2.00 Bohr mag/cell
     absolute magnetization    =     2.20 Bohr mag/cell

     iteration # 15     ecut=    45.00 Ry     beta= 0.70
     Davidson diagonalization with overlap
     ethr =  2.40E-11,  avg # of iterations =  3.0

     total cpu time spent up to now is      373.6 secs

     total energy              =   -3971.22263279 Ry
     estimated scf accuracy    <       0.00000010 Ry

     total magnetization       =     2.00 Bohr mag/cell
     absolute magnetization    =     2.21 Bohr mag/cell

     iteration # 16     ecut=    45.00 Ry     beta= 0.70
     Davidson diagonalization with overlap
     ethr =  1.20E-11,  avg # of iterations =  2.0

     total cpu time spent up to now is      391.9 secs

     total energy              =   -3971.22263281 Ry
     estimated scf accuracy    <       0.00000001 Ry

     total magnetization       =     2.00 Bohr mag/cell
     absolute magnetization    =     2.21 Bohr mag/cell

     iteration # 17     ecut=    45.00 Ry     beta= 0.70
     Davidson diagonalization with overlap
     ethr =  1.18E-12,  avg # of iterations =  2.0
 
     Magnetic moment per site  (integrated on atomic sphere of radius R)
     atom   1 (R=0.057)  charge=  1.8373  magn=  0.0001
     atom   2 (R=0.057)  charge=  1.8377  magn= -0.0000
     atom   3 (R=0.057)  charge=  1.8384  magn=  0.0000
     atom   4 (R=0.057)  charge=  1.8377  magn= -0.0000
     atom   5 (R=0.057)  charge=  1.8366  magn= -0.0002
     atom   6 (R=0.057)  charge=  1.8369  magn= -0.0009
     atom   7 (R=0.057)  charge=  1.8384  magn=  0.0000
     atom   8 (R=0.057)  charge=  1.8369  magn= -0.0009
     atom   9 (R=0.057)  charge=  1.8369  magn= -0.0003
     atom  10 (R=0.057)  charge=  1.8429  magn=  0.0016
     atom  11 (R=0.057)  charge=  1.8385  magn= -0.0001
     atom  12 (R=0.057)  charge=  1.8385  magn= -0.0001
     atom  13 (R=0.057)  charge=  1.8385  magn= -0.0001
     atom  14 (R=0.057)  charge=  1.8088  magn=  0.0003
     atom  15 (R=0.057)  charge=  1.8396  magn= -0.0029
     atom  16 (R=0.057)  charge=  1.8385  magn= -0.0001
     atom  17 (R=0.057)  charge=  1.8396  magn= -0.0029
     atom  18 (R=0.057)  charge=  1.8416  magn=  0.0012
     atom  19 (R=0.057)  charge=  1.8367  magn=  0.0001
     atom  20 (R=0.057)  charge=  1.8389  magn=  0.0000
     atom  21 (R=0.057)  charge=  1.8383  magn= -0.0001
     atom  22 (R=0.057)  charge=  1.8389  magn=  0.0000
     atom  23 (R=0.057)  charge=  1.8403  magn= -0.0002
     atom  24 (R=0.057)  charge=  1.8329  magn= -0.0002
     atom  25 (R=0.057)  charge=  1.8383  magn= -0.0001
     atom  26 (R=0.057)  charge=  1.8329  magn= -0.0002
     atom  27 (R=0.057)  charge=  1.8378  magn= -0.0009
     atom  28 (R=0.057)  charge=  1.8385  magn= -0.0001
     atom  29 (R=0.057)  charge=  1.8326  magn= -0.0002
     atom  30 (R=0.057)  charge=  1.8375  magn= -0.0009
     atom  31 (R=0.057)  charge=  1.8387  magn= -0.0001
     atom  32 (R=0.057)  charge=  1.8393  magn= -0.0029
     atom  33 (R=0.057)  charge=  1.8416  magn=  0.0012
     atom  34 (R=0.057)  charge=  1.8384  magn=  0.0000
     atom  35 (R=0.057)  charge=  1.8370  magn= -0.0009
     atom  36 (R=0.057)  charge=  1.8369  magn= -0.0003
     atom  37 (R=0.057)  charge=  1.8389  magn=  0.0000
     atom  38 (R=0.057)  charge=  1.8404  magn= -0.0002
     atom  39 (R=0.057)  charge=  1.8327  magn= -0.0002
     atom  40 (R=0.057)  charge=  1.8383  magn= -0.0001
     atom  41 (R=0.057)  charge=  1.8090  magn=  0.0003
     atom  42 (R=0.057)  charge=  1.8396  magn= -0.0029
     atom  43 (R=0.057)  charge=  1.8376  magn= -0.0000
     atom  44 (R=0.057)  charge=  1.8367  magn= -0.0002
     atom  45 (R=0.057)  charge=  1.8371  magn= -0.0009
     atom  46 (R=0.057)  charge=  1.8370  magn=  0.0001
     atom  47 (R=0.057)  charge=  1.8392  magn=  0.0000
     atom  48 (R=0.057)  charge=  1.8382  magn= -0.0001
     atom  49 (R=0.057)  charge=  1.8428  magn=  0.0016
     atom  50 (R=0.057)  charge=  1.8386  magn= -0.0001
     atom  51 (R=0.057)  charge=  1.8383  magn= -0.0001
     atom  52 (R=0.057)  charge=  1.8371  magn=  0.0001
     atom  53 (R=0.057)  charge=  1.8373  magn= -0.0000
     atom  54 (R=0.057)  charge=  1.8386  magn=  0.0000
     atom  55 (R=0.057)  charge=  1.8385  magn= -0.0001
     atom  56 (R=0.057)  charge=  1.8387  magn= -0.0001
     atom  57 (R=0.057)  charge=  1.8384  magn=  0.0000
     atom  58 (R=0.057)  charge=  1.8326  magn= -0.0002
     atom  59 (R=0.057)  charge=  1.8393  magn= -0.0029
     atom  60 (R=0.057)  charge=  1.8370  magn= -0.0009
     atom  61 (R=0.057)  charge=  1.8375  magn= -0.0009
     atom  62 (R=0.057)  charge=  1.8416  magn=  0.0012
     atom  63 (R=0.057)  charge=  1.8369  magn= -0.0003
     atom  64 (R=0.057)  charge=  1.8389  magn=  0.0000
     atom  65 (R=0.057)  charge=  1.8383  magn= -0.0001
     atom  66 (R=0.057)  charge=  1.8376  magn= -0.0000
     atom  67 (R=0.057)  charge=  1.8404  magn= -0.0002
     atom  68 (R=0.057)  charge=  1.8090  magn=  0.0003
     atom  69 (R=0.057)  charge=  1.8367  magn= -0.0002
     atom  70 (R=0.057)  charge=  1.8327  magn= -0.0002
     atom  71 (R=0.057)  charge=  1.8396  magn= -0.0029
     atom  72 (R=0.057)  charge=  1.8371  magn= -0.0009
     atom  73 (R=0.057)  charge=  1.8370  magn=  0.0001
     atom  74 (R=0.057)  charge=  1.8428  magn=  0.0016
     atom  75 (R=0.057)  charge=  1.8371  magn=  0.0001
     atom  76 (R=0.057)  charge=  1.8392  magn=  0.0000
     atom  77 (R=0.057)  charge=  1.8386  magn= -0.0001
     atom  78 (R=0.057)  charge=  1.8373  magn= -0.0000
     atom  79 (R=0.057)  charge=  1.8382  magn= -0.0001
     atom  80 (R=0.057)  charge=  1.8383  magn= -0.0001
     atom  81 (R=0.057)  charge=  1.8386  magn=  0.0000
     atom  82 (R=0.057)  charge=  1.8380  magn=  0.0000
     atom  83 (R=0.057)  charge=  1.8437  magn=  0.0020
     atom  84 (R=0.057)  charge=  1.8376  magn=  0.0000
     atom  85 (R=0.057)  charge=  1.8437  magn=  0.0020
     atom  86 (R=0.057)  charge=  1.8396  magn= -0.0007
     atom  87 (R=0.057)  charge=  1.8429  magn=  0.0036
     atom  88 (R=0.057)  charge=  1.8376  magn=  0.0000
     atom  89 (R=0.057)  charge=  1.8429  magn=  0.0036
     atom  90 (R=0.057)  charge=  1.8379  magn=  0.0005
     atom  91 (R=0.057)  charge=  1.8421  magn=  0.0011
     atom  92 (R=0.057)  charge=  1.8421  magn= -0.0006
     atom  93 (R=0.057)  charge=  1.8437  magn=  0.0020
     atom  94 (R=0.057)  charge=  1.8421  magn= -0.0006
     atom  95 (R=0.057)  charge=  1.8393  magn= -0.0007
     atom  96 (R=0.057)  charge=  1.8437  magn=  0.0020
     atom  97 (R=0.057)  charge=  1.8393  magn= -0.0007
     atom  98 (R=0.057)  charge=  1.8429  magn=  0.0036
     atom  99 (R=0.057)  charge=  1.8385  magn=  0.0001
     atom 100 (R=0.057)  charge=  1.8421  magn=  0.0011
     atom 101 (R=0.057)  charge=  1.8377  magn=  0.0000
     atom 102 (R=0.057)  charge=  1.8421  magn=  0.0011
     atom 103 (R=0.057)  charge=  1.8418  magn= -0.0006
     atom 104 (R=0.057)  charge=  1.8439  magn=  0.0020
     atom 105 (R=0.057)  charge=  1.8377  magn=  0.0000
     atom 106 (R=0.057)  charge=  1.8439  magn=  0.0020
     atom 107 (R=0.057)  charge=  1.8374  magn=  0.0000
     atom 108 (R=0.057)  charge=  1.8379  magn=  0.0002
     atom 109 (R=0.057)  charge=  1.8342  magn=  0.0001
     atom 110 (R=0.057)  charge=  1.8380  magn=  0.0013
     atom 111 (R=0.057)  charge=  1.8342  magn=  0.0001
     atom 112 (R=0.057)  charge=  1.8340  magn=  0.0052
     atom 113 (R=0.057)  charge=  1.8352  magn=  0.0156
     atom 114 (R=0.057)  charge=  1.8380  magn=  0.0013
     atom 115 (R=0.057)  charge=  1.8352  magn=  0.0156
     atom 116 (R=0.057)  charge=  1.8363  magn=  0.0008
     atom 117 (R=0.057)  charge=  1.8387  magn=  0.0009
     atom 118 (R=0.057)  charge=  1.8375  magn=  0.0010
     atom 119 (R=0.057)  charge=  1.8344  magn=  0.0001
     atom 120 (R=0.057)  charge=  1.8375  magn=  0.0010
     atom 121 (R=0.057)  charge=  1.8342  magn=  0.0052
     atom 122 (R=0.057)  charge=  1.8344  magn=  0.0001
     atom 123 (R=0.057)  charge=  1.8342  magn=  0.0052
     atom 124 (R=0.057)  charge=  1.8353  magn=  0.0156
     atom 125 (R=0.057)  charge=  1.8375  magn=  0.0007
     atom 126 (R=0.057)  charge=  1.8387  magn=  0.0009
     atom 127 (R=0.057)  charge=  1.8379  magn=  0.0002
     atom 128 (R=0.057)  charge=  1.8387  magn=  0.0009
     atom 129 (R=0.057)  charge=  1.8375  magn=  0.0010
     atom 130 (R=0.057)  charge=  1.8345  magn=  0.0001
     atom 131 (R=0.057)  charge=  1.8379  magn=  0.0002
     atom 132 (R=0.057)  charge=  1.8345  magn=  0.0001
     atom 133 (R=0.057)  charge=  1.8380  magn=  0.0013
     atom 134 (R=0.057)  charge=  1.8368  magn=  0.0001
     atom 135 (R=0.057)  charge=  1.8306  magn=  0.0040
     atom 136 (R=0.057)  charge=  1.8348  magn=  0.0155
     atom 137 (R=0.057)  charge=  1.8372  magn=  0.0012
     atom 138 (R=0.057)  charge=  1.8578  magn=  0.1921
     atom 139 (R=0.057)  charge=  1.8354  magn=  0.0048
     atom 140 (R=0.057)  charge=  1.8392  magn=  0.0014
     atom 141 (R=0.057)  charge=  1.8373  magn=  0.0010
     atom 142 (R=0.057)  charge=  1.8361  magn=  0.0002
     atom 143 (R=0.057)  charge=  1.8391  magn=  0.0011
     atom 144 (R=0.057)  charge=  1.8406  magn=  0.0075
     atom 145 (R=0.057)  charge=  1.8366  magn=  0.0001
     atom 146 (R=0.057)  charge=  1.8368  magn=  0.0001
     atom 147 (R=0.057)  charge=  1.8307  magn=  0.0040
     atom 148 (R=0.057)  charge=  1.8347  magn=  0.0155
     atom 149 (R=0.057)  charge=  1.8377  magn=  0.0003
     atom 150 (R=0.057)  charge=  1.8364  magn=  0.0001
     atom 151 (R=0.057)  charge=  1.8379  magn=  0.0011
     atom 152 (R=0.057)  charge=  1.8377  magn=  0.0003
     atom 153 (R=0.057)  charge=  1.8364  magn=  0.0001
     atom 154 (R=0.057)  charge=  1.8379  magn=  0.0011
     atom 155 (R=0.057)  charge=  1.8393  magn=  0.0014
     atom 156 (R=0.057)  charge=  1.8373  magn=  0.0010
     atom 157 (R=0.057)  charge=  1.8361  magn=  0.0002
     atom 158 (R=0.057)  charge=  1.8374  magn=  0.0006
     atom 159 (R=0.057)  charge=  1.8379  magn=  0.0017
     atom 160 (R=0.057)  charge=  1.8377  magn=  0.0003
     atom 161 (R=0.057)  charge=  1.8368  magn=  0.0001
     atom 162 (R=0.057)  charge=  1.8372  magn=  0.0012
     atom 163 (R=0.057)  charge=  1.8392  magn=  0.0014
     atom 164 (R=0.057)  charge=  1.8306  magn=  0.0040
     atom 165 (R=0.057)  charge=  1.8578  magn=  0.1921
     atom 166 (R=0.057)  charge=  1.8373  magn=  0.0010
     atom 167 (R=0.057)  charge=  1.8348  magn=  0.0155
     atom 168 (R=0.057)  charge=  1.8354  magn=  0.0048
     atom 169 (R=0.057)  charge=  1.8361  magn=  0.0002
     atom 170 (R=0.057)  charge=  1.8391  magn=  0.0011
     atom 171 (R=0.057)  charge=  1.8368  magn=  0.0001
     atom 172 (R=0.057)  charge=  1.8377  magn=  0.0003
     atom 173 (R=0.057)  charge=  1.8406  magn=  0.0075
     atom 174 (R=0.057)  charge=  1.8307  magn=  0.0040
     atom 175 (R=0.057)  charge=  1.8364  magn=  0.0001
     atom 176 (R=0.057)  charge=  1.8366  magn=  0.0001
     atom 177 (R=0.057)  charge=  1.8347  magn=  0.0155
     atom 178 (R=0.057)  charge=  1.8379  magn=  0.0011
     atom 179 (R=0.057)  charge=  1.8377  magn=  0.0003
     atom 180 (R=0.057)  charge=  1.8393  magn=  0.0014
     atom 181 (R=0.057)  charge=  1.8374  magn=  0.0006
     atom 182 (R=0.057)  charge=  1.8364  magn=  0.0001
     atom 183 (R=0.057)  charge=  1.8373  magn=  0.0010
     atom 184 (R=0.057)  charge=  1.8379  magn=  0.0017
     atom 185 (R=0.057)  charge=  1.8379  magn=  0.0011
     atom 186 (R=0.057)  charge=  1.8361  magn=  0.0002
     atom 187 (R=0.057)  charge=  1.8377  magn=  0.0003
     atom 188 (R=0.057)  charge=  1.8364  magn=  0.0001
     atom 189 (R=0.057)  charge=  1.8348  magn=  0.0155
     atom 190 (R=0.057)  charge=  1.8379  magn=  0.0011
     atom 191 (R=0.057)  charge=  1.8348  magn=  0.0155
     atom 192 (R=0.057)  charge=  1.8353  magn=  0.0048
     atom 193 (R=0.057)  charge=  1.8361  magn=  0.0002
     atom 194 (R=0.057)  charge=  1.8379  magn=  0.0011
     atom 195 (R=0.057)  charge=  1.8361  magn=  0.0002
     atom 196 (R=0.057)  charge=  1.8377  magn=  0.0003
     atom 197 (R=0.057)  charge=  1.8406  magn=  0.0075
     atom 198 (R=0.057)  charge=  1.8306  magn=  0.0040
     atom 199 (R=0.057)  charge=  1.8364  magn=  0.0001
     atom 200 (R=0.057)  charge=  1.8306  magn=  0.0040
     atom 201 (R=0.057)  charge=  1.8576  magn=  0.1921
     atom 202 (R=0.057)  charge=  1.8373  magn=  0.0010
     atom 203 (R=0.057)  charge=  1.8364  magn=  0.0001
     atom 204 (R=0.057)  charge=  1.8373  magn=  0.0010
     atom 205 (R=0.057)  charge=  1.8378  magn=  0.0017
     atom 206 (R=0.057)  charge=  1.8391  magn=  0.0011
     atom 207 (R=0.057)  charge=  1.8368  magn=  0.0001
     atom 208 (R=0.057)  charge=  1.8377  magn=  0.0003
     atom 209 (R=0.057)  charge=  1.8368  magn=  0.0001
     atom 210 (R=0.057)  charge=  1.8372  magn=  0.0012
     atom 211 (R=0.057)  charge=  1.8392  magn=  0.0014
     atom 212 (R=0.057)  charge=  1.8377  magn=  0.0003
     atom 213 (R=0.057)  charge=  1.8392  magn=  0.0014
     atom 214 (R=0.057)  charge=  1.8374  magn=  0.0006
     atom 215 (R=0.057)  charge=  2.9006  magn=  0.1241

     total cpu time spent up to now is      410.4 secs

     End of self-consistent calculation

 ------ SPIN UP ------------


          k = 0.0000 0.0000 0.0000 ( 42379 PWs)   bands (ev):

    -8.3155  -7.6100  -7.2894  -7.2894  -7.2351  -7.2351  -7.1631  -6.7204
    -6.2975  -6.2975  -6.2784  -6.2784  -6.2592  -6.2363  -6.2311  -6.2311
    -6.1726  -6.1726  -6.0127  -5.5586  -5.2623  -5.2610  -5.2610  -5.2267
    -5.2254  -5.2254  -5.0644  -4.5018  -4.2745  -4.2745  -4.2487  -4.2487
    -4.1951  -3.9188  -3.4102  -3.4102  -3.3818  -3.3818  -3.3757  -3.3617
    -3.3617  -3.3582  -3.3564  -3.3509  -3.3509  -3.3295  -3.3259  -3.3259
    -3.2967  -3.2967  -3.2846  -3.2825  -3.2825  -3.2741  -3.1947  -3.1946
    -3.0328  -2.8543  -2.6405  -2.6405  -2.5906  -2.5807  -2.5807  -2.5725
    -2.5669  -2.5669  -2.5653  -2.5430  -2.5430  -2.5269  -2.5269  -2.5205
    -2.5035  -2.5035  -2.4717  -2.4559  -2.4559  -2.4124  -2.2959  -2.2958
    -1.6495  -1.0844  -0.9207  -0.9207  -0.8706  -0.8706  -0.8606  -0.8543
    -0.8543  -0.8486  -0.7942  -0.7942  -0.4499   0.3309   0.3883   0.3883
     0.4132   0.4132   0.4525   0.6523   0.8068   0.8069   0.8906   0.8937
     0.8937   0.8961   0.8961   0.9070   0.9095   0.9095   0.9166   0.9475
     0.9475   0.9679   0.9897   1.0178   1.0178   1.0330   1.0330   1.0415
     1.0674   1.0674   1.0812   1.1064   1.1064   1.1078   1.1299   1.1362
     1.1362   1.1363   1.1451   1.1451   1.1461   1.1742   1.1742   1.1969
     1.1969   1.2048   1.2084   1.2084   1.2123   1.2123   1.2286   1.4287
     1.5684   1.5684   1.9410   2.1853   2.1853   2.1884   2.2412   2.2412
     2.2469   2.2470   2.2772   2.2772   2.4202   2.4202   3.3587   3.6784
     3.6784   3.7212   3.7825   3.7926   3.7954   3.7954   3.7974   3.7974
     3.8114   3.8117   3.8267   3.8296   3.8296   3.8508   3.8508   3.9607
     3.9607   3.9649   4.0089   4.3273   4.3274   4.3694   4.4410   4.4507
     4.4507   4.4529   4.4571   4.4571   4.4653   4.4653   4.4797   4.4822
     4.4892   4.4892   4.4907   4.4907   4.5042   4.5225   4.5226   4.5313
     4.7437   4.7437   5.2002   5.2002   5.2491   5.3114   5.3114   5.3129
     5.3161   5.3166   5.3167   5.3311   5.3356   5.3356   5.3592   5.3592
     5.4110   5.4110   5.4136   5.4315   5.4399   5.4694   5.4694   5.5085
     5.5403   5.5403   5.6105   5.7224   5.7224   5.8181   5.8342   5.8342
     5.8493   5.8592   5.8592   5.8641   5.8653   5.8678   5.8678   5.8793
     5.8793   5.8871   5.9000   5.9145   5.9145   5.9198   5.9418   5.9418
     5.9497   5.9763   5.9763   6.0146   6.0146   6.2918   6.3510   6.3510
     6.8340   6.8340   6.9035   6.9086   6.9412   6.9412   7.0533   7.3461
     7.3461   7.4434   7.4515   7.4515   7.4720   7.4756   7.4756   7.5034
     7.5577   7.5577   7.6885   7.6886   7.8143   7.8575   7.8633   7.8656
     7.8656   7.8750   7.8750   7.9027   7.9271   7.9271   7.9385   8.0456
     8.0456   8.0861   8.1069   8.1130   8.1130   8.1319   8.1346   8.1346
     8.1362   8.1362   8.1411   8.1504   8.1504   8.1568   8.1824   8.1824
     8.1926   8.2031   8.2031   8.2050   8.2050   8.2209   8.2656   8.2657
     8.2928   8.3150   8.3193   8.3193   8.3221   8.3280   8.3331   8.3331
     8.3376   8.3376   8.3475   8.3516   8.3535   8.3536   8.3575   8.3575
     8.3634   8.3651   8.3651   8.3685   8.3803   8.3803   8.3881   8.3935
     8.3935   8.3942   8.4043   8.4043   8.4310   8.4310   8.4417   8.4526
     8.4526   8.4888   8.4888   8.4994   8.5060   8.5451   8.5517   8.5517
     8.5525   8.6705   8.6706   8.9068   8.9220   8.9220   9.0811   9.0811
     9.1503   9.1563   9.1563   9.1616   9.1944   9.1944   9.1976   9.2034
     9.2203   9.2204   9.2230   9.2303   9.2303   9.2399   9.2399   9.2619
     9.3225   9.3225   9.3813   9.9133  10.1445  10.1445  10.4655  10.5041
    10.5041  10.5712  10.5712  10.5750  10.5991  10.6078  10.6078  10.6096
    10.6681  10.6681  10.6882  10.7622  10.7622  10.8265  10.8333  10.8333
    10.8367  10.8367  10.8417  10.8418  10.8520  10.8790  10.8790  10.9047
    10.9058  10.9058  10.9064  10.9380  10.9381  11.4207  11.5240  11.5240
    11.7088  11.7359  11.7359  11.7505  11.7812  11.7812  11.7820  11.8144
    11.8605  11.8605  12.9423  13.0154  13.0154  13.7677  15.2745  15.2746
    17.2966  17.2966  17.3027  17.3558  17.3558  17.3715  17.8426  17.9423
    17.9423  17.9550  17.9550  18.0167  18.0794  18.0794  18.1322  18.1916
    18.1916  18.2008  18.8079  18.8079  18.8321  19.3400  19.4689  19.4689
    19.4863  19.5143  19.5143  19.5355  19.5376  19.5376  19.5478  19.5478
    19.5886  19.9482  20.1738  20.1738  20.2125  20.2182  20.2182  20.2256
    20.2270  20.2270  20.2325  20.2325  20.2486  20.2487  20.2560  20.2568
    20.2872  20.2872  20.2880  20.3270  20.3270  20.3556  20.3696  20.3696
    20.3705  20.5967  20.6404  20.6404  20.7034  20.7121  20.7175  20.7175
    20.7284  20.7284  20.7403  20.7508  20.7508  20.7570  20.7797  20.7797
    20.8092  20.8092  20.8130  20.8269  20.8284  20.8284  20.8380  20.8547
    20.8547  20.8634  20.8654  20.8654  20.8737  20.8737  20.8829  20.8829
    20.8973  20.9122  20.9122  20.9498  20.9547  21.0079  21.0146  21.0146
    21.0760  21.0760  21.0854  21.1791  21.2798  21.2798  21.3104  21.3269
    21.3269  21.3397  21.3409  21.3409  21.3506  21.3506  21.3532  21.3712
    21.3712  21.3805  21.3971  21.4016  21.4016  21.4056  21.4056  21.4171
    21.4171  21.4215  21.4237  21.4312  21.4313  21.4518  21.4518  21.4544
    21.4683  21.4683  21.5028  21.5044  21.5044  21.5165  21.5946  21.6157
    21.6158  21.6301  21.6529  21.6529  21.6602  21.6740  21.6862  21.6862
    21.7024  21.7024  21.7230  21.7506  21.7506  21.7718  21.8026  21.8261
    21.8261  21.9405  21.9405  21.9711  21.9981  21.9981  22.1104  22.1104
    22.1332  22.1804  22.1804  22.1875  22.1991  22.2036  22.2036  22.3350
    22.3490  22.3490  22.3954  22.4549  22.4550  22.4849  22.4867  22.4867
    22.6446  22.6864  22.6864  22.8018  22.9475  22.9475  22.9797  23.1008
    23.1008  23.1087  23.1219  23.1219  23.1279  23.1280  23.1413  23.1413
    23.1457  23.1461  23.1731  23.1865  23.2032  23.2032  23.2068  23.2644
    23.3033  23.3033  23.3545  23.3546  23.4147  23.4546  23.4547  23.7711
    23.7711  23.7867  23.7872  23.7909  23.8071  23.8071  23.8112  23.8279
    23.8279  23.8461  23.8461  23.8568  23.8569  23.8643  23.8948  23.8972
    23.9716  23.9716  23.9763  24.1010  24.1010  24.1829  24.1829  24.2229
    24.2262  24.2262  24.2489  24.2738  24.2738  24.2752  24.2842  24.2842
    24.2980  24.3255  24.3255  24.3482  24.3784  24.3784  24.4001  24.4001
    24.4004  24.4004  24.4006  24.4110  24.4672  24.4766  24.4780  24.4780
    24.4809  24.4872  24.4872  24.5061  24.5119  24.5119  24.5250  24.5250
    24.5381  24.5601  24.5601  24.5737  24.6573  24.6573  24.6953  24.7936
    24.7936  24.8998  24.8998  25.4938  25.5119  25.5119  25.6020  25.7386
    25.7959  25.7959  25.8044  25.8044  25.9946  25.9946  26.0001  26.0141
    26.0415  26.0415  26.0965  26.1240  26.1466  26.1466  26.2100  26.2799
    26.2799  26.4309  26.5607  26.5607  26.5697  26.6347  26.6379  26.6422
    26.6422  26.6742  26.6742  26.6900  26.6901  26.6954  26.7479  26.7491
    26.7491  26.7771  26.7835  26.7836  26.8248  26.8391  26.8391  26.9419
    26.9419  27.0346  27.0346  27.0742  27.0889  27.1002  27.1003  27.1123
    27.1225  27.1225  27.1226  27.1301  27.1301  27.1542  27.1542  27.1766
    27.1889  27.2131  27.2131  27.2442  27.2442  27.2527  27.2622  27.2622
    27.2727  27.2812  27.2897  27.2897  27.2974  27.3092  27.3093  27.3107
    27.3107  27.3129  27.3294  27.3413  27.3414  27.3416  27.3622  27.3623
    27.3662  27.3738  27.3830  27.3830  27.3966  27.3966  27.4079  27.4174
    27.4326  27.4326  27.4631  27.4819  27.4819  27.5031  27.5031  27.5117
    27.5117  27.5312  27.5493  27.5493  27.5510  27.5530  27.5799  27.5880
    27.5880  27.5973  27.5973  27.6059  27.6071  27.6071  27.6081  27.6464
    27.6464  27.7168  27.7168  27.7239  27.7597  27.8607  27.8607  27.8809
    27.9138  27.9291  27.9292  27.9811  28.0508  28.0508  28.0926  28.0926
    28.1202  28.1532  28.1532  28.2888  28.3123  28.3123  28.3241  28.3517
    28.3679  28.3679  28.5691  28.6449  28.6450  28.7391  29.7090  29.7995
    29.7996  29.8535  29.9359  29.9360  30.0021  30.0619

 ------ SPIN DOWN ----------


          k = 0.0000 0.0000 0.0000 ( 42379 PWs)   bands (ev):

    -8.3047  -7.5689  -7.2866  -7.2866  -7.2293  -7.2293  -7.1506  -6.6919
    -6.2944  -6.2944  -6.2761  -6.2761  -6.2557  -6.2317  -6.2255  -6.2255
    -6.1588  -6.1588  -5.9909  -5.5403  -5.2576  -5.2542  -5.2542  -5.2195
    -5.2127  -5.2127  -5.0421  -4.4763  -4.2686  -4.2686  -4.2405  -4.2405
    -4.1876  -3.8929  -3.4030  -3.4030  -3.3791  -3.3791  -3.3748  -3.3579
    -3.3579  -3.3556  -3.3539  -3.3482  -3.3482  -3.3279  -3.3221  -3.3221
    -3.2870  -3.2870  -3.2753  -3.2721  -3.2721  -3.2693  -3.1747  -3.1747
    -3.0209  -2.8450  -2.6358  -2.6358  -2.5870  -2.5763  -2.5763  -2.5648
    -2.5636  -2.5629  -2.5629  -2.5374  -2.5374  -2.5208  -2.5208  -2.5118
    -2.4989  -2.4989  -2.4616  -2.4448  -2.4448  -2.4010  -2.2429  -2.2429
    -1.5957  -1.0704  -0.9153  -0.9152  -0.8610  -0.8610  -0.8555  -0.8479
    -0.8479  -0.8435  -0.7681  -0.7681  -0.3966   0.3471   0.3931   0.3931
     0.4198   0.4198   0.4583   0.6775   0.8156   0.8156   0.8909   0.8961
     0.8961   0.8983   0.8983   0.9101   0.9152   0.9152   0.9186   0.9504
     0.9504   0.9752   0.9992   1.0267   1.0267   1.0435   1.0435   1.0469
     1.0801   1.0801   1.0855   1.1113   1.1113   1.1169   1.1338   1.1385
     1.1412   1.1412   1.1509   1.1509   1.1558   1.1779   1.1779   1.2029
     1.2029   1.2107   1.2138   1.2138   1.2317   1.2317   1.2585   1.4491
     1.6091   1.6092   1.9606   2.1932   2.1932   2.2083   2.2453   2.2453
     2.2507   2.2551   2.2833   2.2833   2.4713   2.4713   3.4251   3.6907
     3.6907   3.7341   3.7895   3.7991   3.7995   3.7995   3.8005   3.8005
     3.8145   3.8191   3.8330   3.8341   3.8341   3.8592   3.8593   3.9747
     3.9747   3.9781   4.0268   4.3384   4.3384   4.3935   4.4437   4.4535
     4.4535   4.4544   4.4622   4.4622   4.4712   4.4712   4.4824   4.4940
     4.4940   4.4990   4.4990   4.5003   4.5158   4.5325   4.5325   4.5394
     4.7926   4.7927   5.2131   5.2131   5.2654   5.3132   5.3132   5.3175
     5.3179   5.3197   5.3197   5.3329   5.3395   5.3395   5.3629   5.3629
     5.4174   5.4174   5.4211   5.4415   5.4463   5.4814   5.4814   5.5199
     5.5493   5.5493   5.6432   5.7315   5.7315   5.8313   5.8371   5.8371
     5.8535   5.8631   5.8631   5.8689   5.8742   5.8742   5.8751   5.8851
     5.8852   5.8941   5.9124   5.9230   5.9262   5.9262   5.9512   5.9512
     5.9678   5.9892   5.9892   6.0284   6.0285   6.3260   6.3879   6.3879
     6.8437   6.8437   6.9109   6.9260   6.9561   6.9561   7.1220   7.3627
     7.3627   7.4547   7.4547   7.4556   7.4759   7.4819   7.4819   7.5215
     7.5708   7.5709   7.6989   7.6989   7.8371   7.8622   7.8704   7.8704
     7.8837   7.8851   7.8851   7.9100   7.9362   7.9362   7.9538   8.0565
     8.0565   8.0904   8.1099   8.1160   8.1160   8.1348   8.1372   8.1372
     8.1398   8.1398   8.1436   8.1528   8.1528   8.1627   8.1883   8.1883
     8.1972   8.2079   8.2079   8.2168   8.2168   8.2281   8.2715   8.2715
     8.3007   8.3221   8.3221   8.3238   8.3301   8.3306   8.3360   8.3360
     8.3405   8.3405   8.3510   8.3562   8.3566   8.3566   8.3651   8.3651
     8.3672   8.3680   8.3680   8.3732   8.3861   8.3861   8.3981   8.4014
     8.4014   8.4083   8.4179   8.4179   8.4377   8.4378   8.4489   8.4579
     8.4579   8.5011   8.5012   8.5208   8.5293   8.5507   8.5624   8.5719
     8.5719   8.7029   8.7029   8.9262   8.9376   8.9376   9.0879   9.0879
     9.1531   9.1596   9.1596   9.1635   9.1993   9.1993   9.2021   9.2163
     9.2300   9.2300   9.2305   9.2418   9.2418   9.2567   9.2568   9.2665
     9.3528   9.3528   9.4106   9.9961  10.1988  10.1988  10.5188  10.5188
    10.5744  10.5744  10.5793  10.5880  10.6015  10.6192  10.6192  10.6408
    10.6730  10.6730  10.6973  10.7670  10.7670  10.8357  10.8387  10.8387
    10.8431  10.8431  10.8537  10.8537  10.8564  10.8896  10.8896  10.9186
    10.9188  10.9189  10.9229  10.9473  10.9474  11.4941  11.5477  11.5477
    11.7441  11.7441  11.7528  11.7853  11.7880  11.7880  11.8252  11.8777
    11.8777  12.0054  13.0442  13.0442  13.0560  14.5034  16.2247  16.2248
    17.3006  17.3006  17.3179  17.3666  17.3666  17.3816  17.8539  17.9495
    17.9495  17.9608  17.9608  18.0260  18.0848  18.0849  18.1612  18.2077
    18.2077  18.2114  18.8251  18.8252  18.8447  19.3592  19.4722  19.4722
    19.4888  19.5230  19.5230  19.5412  19.5424  19.5424  19.5527  19.5527
    19.5963  19.9645  20.1778  20.1778  20.2152  20.2213  20.2213  20.2283
    20.2303  20.2303  20.2395  20.2395  20.2556  20.2556  20.2611  20.2618
    20.2935  20.2953  20.2953  20.3328  20.3328  20.3647  20.3779  20.3779
    20.3791  20.6090  20.6507  20.6507  20.7053  20.7135  20.7204  20.7204
    20.7315  20.7315  20.7426  20.7534  20.7534  20.7604  20.7840  20.7840
    20.8134  20.8135  20.8165  20.8323  20.8323  20.8392  20.8415  20.8652
    20.8653  20.8673  20.8732  20.8732  20.8845  20.8845  20.8913  20.8913
    20.9024  20.9192  20.9192  20.9566  20.9631  21.0189  21.0207  21.0207
    21.0835  21.0835  21.0927  21.1882  21.2871  21.2871  21.3133  21.3313
    21.3313  21.3437  21.3443  21.3443  21.3558  21.3558  21.3565  21.3757
    21.3757  21.3934  21.3999  21.4079  21.4079  21.4099  21.4099  21.4252
    21.4253  21.4286  21.4288  21.4377  21.4378  21.4661  21.4661  21.4697
    21.4803  21.4803  21.5148  21.5235  21.5235  21.5399  21.6004  21.6264
    21.6264  21.6335  21.6575  21.6575  21.6632  21.6887  21.6933  21.6933
    21.7102  21.7102  21.7351  21.7565  21.7565  21.7769  21.8238  21.8440
    21.8440  21.9624  21.9624  21.9777  22.0140  22.0141  22.1139  22.1140
    22.1352  22.1949  22.1950  22.1950  22.2072  22.2111  22.2111  22.3452
    22.3593  22.3593  22.4178  22.4636  22.4637  22.4909  22.4909  22.4922
    22.6662  22.7204  22.7204  22.8662  22.9644  22.9645  22.9972  23.1069
    23.1069  23.1106  23.1249  23.1249  23.1325  23.1325  23.1445  23.1445
    23.1501  23.1514  23.1778  23.1981  23.2161  23.2161  23.2319  23.3035
    23.3392  23.3393  23.3741  23.3741  23.4400  23.4837  23.4837  23.7805
    23.7806  23.7886  23.7921  23.8117  23.8117  23.8142  23.8335  23.8335
    23.8347  23.8555  23.8555  23.8634  23.8634  23.8708  23.9033  23.9124
    23.9849  23.9897  23.9897  24.1130  24.1130  24.1972  24.1972  24.2303
    24.2317  24.2317  24.2516  24.2778  24.2778  24.2816  24.2892  24.2892
    24.3044  24.3329  24.3329  24.3530  24.3881  24.3881  24.4068  24.4069
    24.4069  24.4168  24.4168  24.4212  24.4699  24.4839  24.4916  24.4916
    24.4976  24.5043  24.5043  24.5151  24.5197  24.5197  24.5332  24.5332
    24.5425  24.5651  24.5651  24.5974  24.6965  24.6965  24.7174  24.8959
    24.8959  24.9566  24.9566  25.5491  25.5556  25.5556  25.6312  25.7514
    25.8074  25.8075  25.8173  25.8173  26.0021  26.0047  26.0047  26.0192
    26.0518  26.0518  26.1245  26.1329  26.1620  26.1620  26.2351  26.3082
    26.3082  26.4471  26.5703  26.5703  26.5902  26.6409  26.6438  26.6483
    26.6483  26.6799  26.6799  26.6978  26.6978  26.7092  26.7576  26.7576
    26.7617  26.7822  26.7896  26.7897  26.8327  26.8517  26.8517  26.9642
    26.9642  27.0461  27.0461  27.0833  27.0914  27.1045  27.1045  27.1168
    27.1262  27.1263  27.1266  27.1335  27.1335  27.1603  27.1603  27.1884
    27.1928  27.2182  27.2182  27.2501  27.2501  27.2568  27.2669  27.2669
    27.2821  27.2848  27.2976  27.2976  27.3036  27.3144  27.3145  27.3193
    27.3193  27.3239  27.3316  27.3481  27.3520  27.3520  27.3701  27.3701
    27.3716  27.3839  27.3882  27.3882  27.4038  27.4038  27.4253  27.4360
    27.4421  27.4421  27.4690  27.4909  27.4909  27.5184  27.5184  27.5192
    27.5192  27.5429  27.5541  27.5541  27.5572  27.5573  27.5855  27.5961
    27.5961  27.6059  27.6059  27.6115  27.6134  27.6134  27.6173  27.6755
    27.6755  27.7416  27.7416  27.7797  27.7938  27.8967  27.8976  27.8976
    27.9227  27.9460  27.9460  28.0108  28.0677  28.0678  28.1244  28.1244
    28.1330  28.1817  28.1817  28.3097  28.3382  28.3558  28.3559  28.4049
    28.4261  28.4261  28.6320  28.7321  28.7322  28.8319  29.7479  29.8150
    29.8150  29.9280  29.9585  29.9586  30.0159  30.0686

     highest occupied, lowest unoccupied level (ev):    15.27460958   14.50335976

!    total energy              =   -3971.22263282 Ry
     total all-electron energy =    -16414.038236 Ry
     estimated scf accuracy    <          2.1E-09 Ry

     The total energy is the sum of the following terms:
     one-electron contribution =     885.66196745 Ry
     hartree contribution      =     218.19858567 Ry
     xc contribution           =   -1009.04970475 Ry
     ewald contribution        =   -2739.25867879 Ry
     one-center paw contrib.   =   -1326.77480239 Ry

     total magnetization       =     2.00 Bohr mag/cell
     absolute magnetization    =     2.21 Bohr mag/cell

     convergence has been achieved in  17 iterations

     Forces acting on atoms (cartesian axes, Ry/au):

     atom    1 type  1   force =     0.00013015    0.00013293   -0.00016241
     atom    2 type  1   force =     0.00000146   -0.00000623    0.00009728
     atom    3 type  1   force =     0.00022520    0.00034664   -0.00017103
     atom    4 type  1   force =    -0.00009287   -0.00002926    0.00000281
     atom    5 type  1   force =    -0.00021275    0.00006088    0.00019793
     atom    6 type  1   force =     0.00010238    0.00012950    0.00060121
     atom    7 type  1   force =     0.00009090    0.00031395   -0.00030534
     atom    8 type  1   force =    -0.00061172   -0.00004376   -0.00011276
     atom    9 type  1   force =     0.00046045   -0.00006204   -0.00044540
     atom   10 type  1   force =     0.00066290    0.00026807   -0.00072784
     atom   11 type  1   force =     0.00007354   -0.00016163    0.00019021
     atom   12 type  1   force =    -0.00002601   -0.00005179    0.00022286
     atom   13 type  1   force =    -0.00014455   -0.00021460   -0.00002793
     atom   14 type  1   force =     0.00574949    0.00084810   -0.00595528
     atom   15 type  1   force =     0.00594711    0.00089935   -0.00295098
     atom   16 type  1   force =    -0.00020497   -0.00009526    0.00004382
     atom   17 type  1   force =     0.00282466    0.00014164   -0.00607351
     atom   18 type  1   force =     0.00485267   -0.00554958   -0.00350606
     atom   19 type  1   force =     0.00003768    0.00008023   -0.00005713
     atom   20 type  1   force =     0.00003549    0.00016204   -0.00015354
     atom   21 type  1   force =    -0.00006663   -0.00001676    0.00004096
     atom   22 type  1   force =     0.00011193    0.00018055   -0.00007705
     atom   23 type  1   force =    -0.00007530    0.00045218   -0.00003443
     atom   24 type  1   force =     0.00026337   -0.00063257   -0.00016027
     atom   25 type  1   force =    -0.00003772   -0.00000977    0.00006991
     atom   26 type  1   force =     0.00031227   -0.00062067   -0.00011136
     atom   27 type  1   force =     0.00065482   -0.00016369   -0.00061513
     atom   28 type  1   force =    -0.00000993   -0.00008999   -0.00003971
     atom   29 type  1   force =     0.00009825   -0.00003780    0.00068158
     atom   30 type  1   force =     0.00035663    0.00065451    0.00050150
     atom   31 type  1   force =    -0.00018979   -0.00013461   -0.00000793
     atom   32 type  1   force =     0.00059968    0.00623219    0.00226022
     atom   33 type  1   force =     0.00190627    0.00250584    0.00751299
     atom   34 type  1   force =     0.00005965    0.00039296   -0.00019938
     atom   35 type  1   force =    -0.00059680   -0.00007568   -0.00015347
     atom   36 type  1   force =     0.00026070    0.00048730    0.00029671
     atom   37 type  1   force =     0.00012224    0.00014495   -0.00012375
     atom   38 type  1   force =     0.00003311    0.00015190   -0.00044697
     atom   39 type  1   force =     0.00003856   -0.00001575    0.00069037
     atom   40 type  1   force =    -0.00019045   -0.00009340    0.00013774
     atom   41 type  1   force =     0.00346301    0.00709661    0.00258192
     atom   42 type  1   force =     0.00463674    0.00442610    0.00186148
     atom   43 type  1   force =    -0.00008986   -0.00004885   -0.00002244
     atom   44 type  1   force =    -0.00011035   -0.00022188   -0.00018553
     atom   45 type  1   force =     0.00032600   -0.00049006   -0.00024383
     atom   46 type  1   force =     0.00004151    0.00007707   -0.00006129
     atom   47 type  1   force =     0.00002762    0.00018619   -0.00011853
     atom   48 type  1   force =    -0.00004474   -0.00007251   -0.00003907
     atom   49 type  1   force =     0.00043638    0.00089944    0.00013731
     atom   50 type  1   force =     0.00009776   -0.00022141    0.00010627
     atom   51 type  1   force =     0.00004346   -0.00023811   -0.00003315
     atom   52 type  1   force =     0.00010168    0.00021407   -0.00005433
     atom   53 type  1   force =     0.00003794   -0.00010381   -0.00003897
     atom   54 type  1   force =     0.00023990    0.00030960   -0.00022058
     atom   55 type  1   force =     0.00005952   -0.00007310    0.00002976
     atom   56 type  1   force =     0.00003399   -0.00008023    0.00021588
     atom   57 type  1   force =     0.00010282    0.00040346   -0.00015624
     atom   58 type  1   force =    -0.00065040   -0.00021949   -0.00006704
     atom   59 type  1   force =    -0.00364727    0.00520169   -0.00198685
     atom   60 type  1   force =     0.00014985    0.00010554    0.00059316
     atom   61 type  1   force =    -0.00063130    0.00041485   -0.00048643
     atom   62 type  1   force =    -0.00783430    0.00014250   -0.00222762
     atom   63 type  1   force =    -0.00039561    0.00032806   -0.00035962
     atom   64 type  1   force =     0.00008959    0.00013699   -0.00015636
     atom   65 type  1   force =    -0.00011723   -0.00007562    0.00021094
     atom   66 type  1   force =     0.00003084   -0.00001955    0.00009829
     atom   67 type  1   force =     0.00039932    0.00024073   -0.00008071
     atom   68 type  1   force =    -0.00408197    0.00526601   -0.00496296
     atom   69 type  1   force =     0.00022933   -0.00013951    0.00015420
     atom   70 type  1   force =    -0.00066578   -0.00018670   -0.00001402
     atom   71 type  1   force =    -0.00271884    0.00264128   -0.00549423
     atom   72 type  1   force =     0.00036172   -0.00048147   -0.00020815
     atom   73 type  1   force =     0.00004252    0.00007725   -0.00006018
     atom   74 type  1   force =    -0.00033296    0.00071293   -0.00063204
     atom   75 type  1   force =     0.00000523    0.00019071   -0.00015078
     atom   76 type  1   force =     0.00007210    0.00019684   -0.00007407
     atom   77 type  1   force =    -0.00004830   -0.00025685   -0.00003978
     atom   78 type  1   force =     0.00006340   -0.00009766   -0.00001355
     atom   79 type  1   force =     0.00005378   -0.00004862    0.00005946
     atom   80 type  1   force =     0.00008952   -0.00022689    0.00001291
     atom   81 type  1   force =     0.00014815    0.00028729   -0.00031232
     atom   82 type  1   force =     0.00013877   -0.00028103   -0.00007064
     atom   83 type  1   force =    -0.00024491    0.00003027   -0.00099687
     atom   84 type  1   force =     0.00002988    0.00006526   -0.00011274
     atom   85 type  1   force =     0.00095420    0.00032123    0.00020229
     atom   86 type  1   force =    -0.00043755   -0.00020363    0.00048696
     atom   87 type  1   force =     0.00039335    0.00079804    0.00019649
     atom   88 type  1   force =     0.00009505    0.00008116   -0.00004762
     atom   89 type  1   force =    -0.00036781    0.00061337   -0.00056459
     atom   90 type  1   force =     0.00019593    0.00047937   -0.00031221
     atom   91 type  1   force =     0.00109290    0.00136163   -0.00142323
     atom   92 type  1   force =     0.00009963    0.00017054    0.00009467
     atom   93 type  1   force =     0.00003564   -0.00009707   -0.00102658
     atom   94 type  1   force =    -0.00012935    0.00011500   -0.00013437
     atom   95 type  1   force =     0.00023462   -0.00050246    0.00041717
     atom   96 type  1   force =     0.00102122    0.00014202   -0.00004114
     atom   97 type  1   force =    -0.00028012   -0.00062739   -0.00009761
     atom   98 type  1   force =     0.00062119    0.00017217   -0.00066293
     atom   99 type  1   force =     0.00010107    0.00023295   -0.00015753
     atom  100 type  1   force =     0.00008278    0.00181505   -0.00132300
     atom  101 type  1   force =    -0.00028797   -0.00008672   -0.00002648
     atom  102 type  1   force =     0.00085973    0.00200347   -0.00054610
     atom  103 type  1   force =     0.00016565   -0.00001699   -0.00016160
     atom  104 type  1   force =    -0.00032932    0.00089631    0.00033258
     atom  105 type  1   force =     0.00003793   -0.00000757    0.00029947
     atom  106 type  1   force =    -0.00054381    0.00084442    0.00011812
     atom  107 type  1   force =     0.00001055    0.00011626   -0.00003870
     atom  108 type  1   force =     0.00005660   -0.00032946    0.00002339
     atom  109 type  1   force =    -0.00010601    0.00032740   -0.00023147
     atom  110 type  1   force =    -0.00007431   -0.00015797    0.00008790
     atom  111 type  1   force =     0.00014463    0.00038816    0.00001920
     atom  112 type  1   force =    -0.00042067    0.00058337    0.00027919
     atom  113 type  1   force =    -0.00087041   -0.00178371   -0.00054712
     atom  114 type  1   force =    -0.00005022   -0.00015211    0.00011202
     atom  115 type  1   force =     0.00092696   -0.00134767    0.00125032
     atom  116 type  1   force =    -0.00011126   -0.00025749    0.00017372
     atom  117 type  1   force =    -0.00080618    0.00035787    0.00071933
     atom  118 type  1   force =    -0.00019778   -0.00031857   -0.00042526
     atom  119 type  1   force =     0.00025166    0.00016384   -0.00026750
     atom  120 type  1   force =     0.00048252   -0.00015357    0.00025504
     atom  121 type  1   force =     0.00073630    0.00006322    0.00016449
     atom  122 type  1   force =     0.00022850    0.00015818   -0.00029071
     atom  123 type  1   force =    -0.00015363   -0.00015279   -0.00072545
     atom  124 type  1   force =    -0.00141407   -0.00029821    0.00148643
     atom  125 type  1   force =    -0.00020503   -0.00049717    0.00032565
     atom  126 type  1   force =     0.00088722   -0.00040285    0.00054923
     atom  127 type  1   force =    -0.00030214   -0.00016906    0.00005931
     atom  128 type  1   force =    -0.00041327   -0.00071853   -0.00075111
     atom  129 type  1   force =    -0.00040227    0.00024237    0.00034343
     atom  130 type  1   force =     0.00017719    0.00037142    0.00001703
     atom  131 type  1   force =    -0.00002638   -0.00010217    0.00033508
     atom  132 type  1   force =    -0.00009907    0.00030445   -0.00025919
     atom  133 type  1   force =    -0.00008129   -0.00013835    0.00011490
     atom  134 type  1   force =     0.00022310   -0.00004105    0.00008851
     atom  135 type  1   force =    -0.00032376   -0.00070881   -0.00086711
     atom  136 type  1   force =    -0.00219675   -0.00124137    0.00014003
     atom  137 type  1   force =     0.00016903    0.00025760   -0.00012948
     atom  138 type  1   force =     0.02148699   -0.01272746    0.01512243
     atom  139 type  1   force =    -0.00089112    0.00037185   -0.00049310
     atom  140 type  1   force =    -0.00030725   -0.00010817    0.00051255
     atom  141 type  1   force =     0.00018675    0.00013926   -0.00021740
     atom  142 type  1   force =    -0.00011896   -0.00008526   -0.00012295
     atom  143 type  1   force =    -0.00051307   -0.00056829    0.00029170
     atom  144 type  1   force =     0.00309104   -0.00215197    0.00241659
     atom  145 type  1   force =    -0.00024419    0.00014234   -0.00015718
     atom  146 type  1   force =     0.00022040   -0.00002560    0.00010822
     atom  147 type  1   force =    -0.00075703    0.00048577    0.00076073
     atom  148 type  1   force =    -0.00225882   -0.00106009    0.00038318
     atom  149 type  1   force =    -0.00004850   -0.00007731    0.00038586
     atom  150 type  1   force =    -0.00012608   -0.00033758   -0.00009150
     atom  151 type  1   force =    -0.00015787   -0.00020530    0.00001501
     atom  152 type  1   force =     0.00005969   -0.00037197   -0.00002079
     atom  153 type  1   force =    -0.00023384   -0.00004846    0.00030237
     atom  154 type  1   force =    -0.00019433   -0.00010970    0.00014669
     atom  155 type  1   force =    -0.00014179   -0.00056014   -0.00010969
     atom  156 type  1   force =     0.00012912    0.00030255    0.00000210
     atom  157 type  1   force =    -0.00017378    0.00007061    0.00008382
     atom  158 type  1   force =     0.00003758   -0.00019902    0.00017299
     atom  159 type  1   force =     0.00022224   -0.00025036    0.00025884
     atom  160 type  1   force =    -0.00007584   -0.00001302    0.00000677
     atom  161 type  1   force =    -0.00006991   -0.00011213   -0.00020455
     atom  162 type  1   force =     0.00006991    0.00023361   -0.00022862
     atom  163 type  1   force =    -0.00048112   -0.00015037    0.00033869
     atom  164 type  1   force =     0.00100014   -0.00038752    0.00045680
     atom  165 type  1   force =    -0.01107558   -0.02062833   -0.01744037
     atom  166 type  1   force =     0.00018370    0.00013847   -0.00022045
     atom  167 type  1   force =     0.00009373   -0.00068558    0.00243054
     atom  168 type  1   force =     0.00036589    0.00067682    0.00076389
     atom  169 type  1   force =     0.00013614   -0.00002337    0.00013210
     atom  170 type  1   force =    -0.00016404   -0.00048365    0.00064062
     atom  171 type  1   force =    -0.00009283   -0.00010150   -0.00020504
     atom  172 type  1   force =    -0.00035797   -0.00015244    0.00007642
     atom  173 type  1   force =    -0.00175188   -0.00332703   -0.00242630
     atom  174 type  1   force =    -0.00087519    0.00045714    0.00064266
     atom  175 type  1   force =     0.00016487   -0.00026706    0.00019944
     atom  176 type  1   force =     0.00011221    0.00022884    0.00019922
     atom  177 type  1   force =    -0.00018696   -0.00055736    0.00245509
     atom  178 type  1   force =     0.00002935   -0.00015989    0.00020214
     atom  179 type  1   force =     0.00010958   -0.00035984    0.00002923
     atom  180 type  1   force =     0.00023454   -0.00046877    0.00026659
     atom  181 type  1   force =    -0.00012007   -0.00023730    0.00001539
     atom  182 type  1   force =    -0.00028907   -0.00006189    0.00024718
     atom  183 type  1   force =    -0.00006970    0.00025430   -0.00019677
     atom  184 type  1   force =    -0.00018613   -0.00034950   -0.00014955
     atom  185 type  1   force =    -0.00012215   -0.00009212    0.00021879
     atom  186 type  1   force =    -0.00010308    0.00008779    0.00015453
     atom  187 type  1   force =    -0.00000563    0.00000401    0.00007698
     atom  188 type  1   force =     0.00022131   -0.00006852   -0.00020468
     atom  189 type  1   force =     0.00050718   -0.00245952   -0.00014186
     atom  190 type  1   force =     0.00004877   -0.00021744    0.00012123
     atom  191 type  1   force =     0.00073200   -0.00240497    0.00008295
     atom  192 type  1   force =     0.00075008   -0.00035772   -0.00066321
     atom  193 type  1   force =     0.00015757   -0.00008085    0.00004975
     atom  194 type  1   force =    -0.00006507   -0.00024503    0.00000734
     atom  195 type  1   force =    -0.00002481   -0.00012510   -0.00013264
     atom  196 type  1   force =     0.00001575   -0.00005637   -0.00000201
     atom  197 type  1   force =    -0.00322078    0.00068320    0.00305498
     atom  198 type  1   force =    -0.00048124   -0.00063590   -0.00085203
     atom  199 type  1   force =     0.00014639   -0.00022050    0.00026311
     atom  200 type  1   force =     0.00096378   -0.00028528    0.00059286
     atom  201 type  1   force =    -0.02091201    0.00631029    0.01938093
     atom  202 type  1   force =     0.00012620    0.00030082    0.00000393
     atom  203 type  1   force =    -0.00019946   -0.00030438   -0.00008267
     atom  204 type  1   force =    -0.00007110    0.00025305   -0.00019341
     atom  205 type  1   force =    -0.00030942   -0.00001372    0.00031277
     atom  206 type  1   force =    -0.00006014   -0.00077164    0.00024746
     atom  207 type  1   force =    -0.00018106    0.00013976    0.00013050
     atom  208 type  1   force =    -0.00034183   -0.00019321    0.00001951
     atom  209 type  1   force =    -0.00016496    0.00014364    0.00014664
     atom  210 type  1   force =     0.00004350    0.00031257   -0.00011936
     atom  211 type  1   force =    -0.00036753   -0.00045815   -0.00008682
     atom  212 type  1   force =     0.00001688   -0.00010626    0.00037810
     atom  213 type  1   force =     0.00018183   -0.00032473    0.00046255
     atom  214 type  1   force =    -0.00016790   -0.00010683    0.00019383
     atom  215 type  2   force =     0.00377067    0.00978836   -0.00614559

     Total force =     0.059679     Total SCF correction =     0.000140


     Computing stress (Cartesian axis) and pressure

          total   stress  (Ry/bohr**3)                   (kbar)     P=       27.78
   0.00018899  -0.00000013   0.00000010           27.80       -0.02        0.01
  -0.00000013   0.00018865   0.00000023           -0.02       27.75        0.03
   0.00000010   0.00000023   0.00018890            0.01        0.03       27.79


     Writing all to output data dir ./tmp/diamond_pd.save/ :
     XML data file, charge density
     init_run     :      5.83s CPU      6.29s WALL (       1 calls)
     electrons    :    395.62s CPU    404.22s WALL (       1 calls)
     forces       :      4.05s CPU      4.19s WALL (       1 calls)
     stress       :     14.09s CPU     14.35s WALL (       1 calls)

     Called by init_run:
     wfcinit      :      4.83s CPU      5.07s WALL (       1 calls)
     potinit      :      0.70s CPU      0.86s WALL (       1 calls)
     hinit0       :      0.11s CPU      0.11s WALL (       1 calls)

     Called by electrons:
     c_bands      :    355.16s CPU    361.87s WALL (      17 calls)
     sum_band     :     25.22s CPU     26.25s WALL (      17 calls)
     v_of_rho     :      0.58s CPU      0.59s WALL (      18 calls)
     newd         :      2.24s CPU      2.71s WALL (      18 calls)
     PAW_pot      :     12.69s CPU     12.94s WALL (      18 calls)
     mix_rho      :      0.46s CPU      0.47s WALL (      17 calls)

     Called by c_bands:
     init_us_2    :      5.24s CPU      5.36s WALL (      74 calls)
     cegterg      :    349.16s CPU    355.40s WALL (      34 calls)

     Called by *egterg:
     cdiaghg      :     64.24s CPU     65.20s WALL (     192 calls)
     h_psi        :     99.48s CPU    101.83s WALL (     194 calls)
     s_psi        :     32.37s CPU     32.58s WALL (     194 calls)
     g_psi        :      0.85s CPU      0.87s WALL (     158 calls)

     Called by h_psi:
     h_psi:calbec :     33.38s CPU     33.61s WALL (     194 calls)
     vloc_psi     :     30.79s CPU     31.36s WALL (     194 calls)
     add_vuspsi   :     33.67s CPU     34.46s WALL (     194 calls)

     General routines
     calbec       :     58.64s CPU     59.05s WALL (     262 calls)
     fft          :      0.21s CPU      0.22s WALL (     420 calls)
     ffts         :      0.02s CPU      0.02s WALL (      34 calls)
     fftw         :     31.86s CPU     32.46s WALL (  174086 calls)
 
     Parallel routines
 
     PWSCF        :   6m59.71s CPU   7m 9.45s WALL

 
   This run was terminated on:   0:40: 4  23Aug2026            

=------------------------------------------------------------------------------=
   JOB DONE.
=------------------------------------------------------------------------------=
