C  N 
 1.0000000000000000
    10.7211360931000002    0.0000000000000000    0.0000000000000000
     0.0000000000000000   10.7211360931000002    0.0000000000000000
     0.0000000000000000    0.0000000000000000   10.7211360931000002
 C   N  
 214   1
Direct
  0.0832314747519856  0.0834526394806108  0.0834351912480120
  0.0835216677486155  0.0834215904421720  0.4167812143490947
  0.0827544557889915  0.0833293906232290  0.7500050047080838
  0.0836330239998387  0.4168461939351799  0.0830336420001589
  0.0833453168940217  0.4169364208914311  0.4166885803263913
  0.0828548503030919  0.4166368186313957  0.7498554436310448
  0.0835016314789286  0.7500582775844171  0.0831650345210690
  0.0837202617106846  0.7501832238661191  0.4164739131628864
  0.0835034106553474  0.7498282848512795  0.7497348892621939
  0.4166616622919175  0.0833293906232290  0.0839122102110060
  0.4167792808746008  0.0835073995088031  0.4171981145760881
  0.4160991845218509  0.0824462176233458  0.7505674824781506
  0.4168112233689564  0.4166368186313957  0.0838118156969057
  0.4185352373149402  0.4174898838791358  0.4185520997719810
  0.4151506232123301  0.4158082473568344  0.7515160437876700
  0.4169317777378077  0.7498282848512795  0.0831632553446502
  0.4165054220184277  0.7504314071579089  0.4168648235719357
  0.4172161817721408  0.7490411021492432  0.7494504852278605
  0.7498854526509063  0.0834215904421720  0.0831449982513821
  0.7499234735637711  0.0838249121265844  0.4167431934362304
  0.7494685524239132  0.0835073995088031  0.7498873861254003
  0.7499780866736101  0.4169364208914311  0.0833213491059759
  0.7564535761596046  0.4126483800258409  0.4102130908403965
  0.7481145672280202  0.4174898838791358  0.7481314296850615
  0.7501927538371151  0.7501832238661191  0.0829464042893130
  0.7502053599925829  0.7498092740895081  0.4164613070074187
  0.7498018434280659  0.7504314071579089  0.7501612449815737
  0.2499960576232302  0.2499949952919163  0.0839122102110060
  0.2501740665088042  0.2501126138745996  0.4171981145760881
  0.2491128846233471  0.2494325175218498  0.7505674824781506
  0.2500882574421732  0.5832187856509049  0.0831449982513821
  0.2504915791265856  0.5832568065637699  0.4167431934362304
  0.2501740665088042  0.5828018854239119  0.7498873861254003
  0.2501193064806119  0.9165648087519882  0.0834351912480120
  0.2500882574421732  0.9168550017486180  0.4167812143490947
  0.2499960576232302  0.9160877897889936  0.7500050047080838
  0.5833034846313934  0.2501445563689552  0.0838118156969057
  0.5841565498791336  0.2518685703149389  0.4185520997719810
  0.5824749133568318  0.2484839562123290  0.7515160437876700
  0.5836030868914287  0.5833114196736090  0.0833213491059759
  0.5793150460258386  0.5897869091596034  0.4102130908403965
  0.5841565498791336  0.5814479002280188  0.7481314296850615
  0.5835128599351774  0.9169663579998409  0.0830336420001589
  0.5836030868914287  0.9166786508940240  0.4166885803263913
  0.5833034846313934  0.9161881843030941  0.7498554436310448
  0.9164949518512807  0.2502651107378063  0.0831632553446502
  0.9170980741579101  0.2498387550184265  0.4168648235719357
  0.9157077691492445  0.2505495147721395  0.7494504852278605
  0.9168498908661203  0.5835260868371139  0.0829464042893130
  0.9164759410895094  0.5835386929925814  0.4164613070074187
  0.9170980741579101  0.5831351764280646  0.7501612449815737
  0.9167249445844183  0.9168349654789311  0.0831650345210690
  0.9168498908661203  0.9170535957106869  0.4164739131628864
  0.9164949518512807  0.9168367446553500  0.7497348892621939
  0.2502076318409012  0.0835409648408999  0.2503389355359781
  0.2495320464006308  0.0828653794006296  0.5836394539974536
  0.2496413792639698  0.0829747122639686  0.9170252877360313
  0.2506547656097167  0.4168915708249128  0.2506462417210845
  0.2498416023581980  0.4163969826161643  0.5836030173838358
  0.2495320464006308  0.4163605460025462  0.9171346205993706
  0.2503292632210712  0.7500484386072177  0.2499515613927823
  0.2506547656097167  0.7493537582789155  0.5831084291750861
  0.2502076318409012  0.7496610644640219  0.9164590351591001
  0.5835582368249115  0.0839880986097155  0.2506462417210845
  0.5830636486161618  0.0831749353581968  0.5836030173838358
  0.5830272120025439  0.0828653794006296  0.9171346205993706
  0.5841014435942020  0.4174347775942045  0.2510241510694232
  0.5830636486161618  0.4163969826161643  0.9168250646418029
  0.5840637680009364  0.7511366273501450  0.2488633726498552
  0.5841014435942020  0.7489758489305768  0.5825652224057956
  0.5835582368249115  0.7493537582789155  0.9160119013902845
  0.9167151056072189  0.0836625962210701  0.2499515613927823
  0.9160204252789167  0.0839880986097155  0.5831084291750861
  0.9163277314640231  0.0835409648408999  0.9164590351591001
  0.9178032943501462  0.4173971020009386  0.2488633726498552
  0.9156425159305780  0.4174347775942045  0.5825652224057956
  0.9160204252789167  0.4168915708249128  0.9160119013902845
  0.9168425497741615  0.7501758827741600  0.2498241172258400
  0.9178032943501462  0.7511366273501450  0.5826028979990613
  0.9167151056072189  0.7500484386072177  0.9163374037789302
  0.0835034106553474  0.2502651107378063  0.2501717151487206
  0.0828548503030919  0.2501445563689552  0.5833631813686042
  0.0827544557889915  0.2499949952919163  0.9166706093767708
  0.0837202617106845  0.5835260868371139  0.2498167761338808
  0.0833453168940217  0.5833114196736090  0.5830635791085689
  0.0835216677486155  0.5832187856509049  0.9165784095578284
  0.0835016314789286  0.9168349654789311  0.2499417224155832
  0.0836330239998387  0.9169663579998409  0.5831538060648201
  0.0832314747519856  0.9165648087519882  0.9165473605193893
  0.4172161817721408  0.2505495147721395  0.2509588978507568
  0.4151506232123301  0.2484839562123290  0.5841917526431658
  0.4160991845218509  0.2494325175218498  0.9175537823766545
  0.4165054220184277  0.5831351764280646  0.2495685928420910
  0.4185352373149402  0.5814479002280188  0.5825101161208640
  0.4167792808746008  0.5828018854239119  0.9164926004911967
  0.4169317777378077  0.9168367446553500  0.2501717151487206
  0.4168112233689564  0.9161881843030941  0.5833631813686042
  0.4166616622919175  0.9160877897889936  0.9166706093767708
  0.7498018434280659  0.2498387550184265  0.2495685928420910
  0.7481145672280202  0.2518685703149389  0.5825101161208640
  0.7494685524239132  0.2501126138745996  0.9164926004911967
  0.7502053599925829  0.5835386929925814  0.2501907259104921
  0.7564535761596046  0.5897869091596034  0.5873516199741590
  0.7499234735637711  0.5832568065637699  0.9161750878734156
  0.7501927538371151  0.9170535957106869  0.2498167761338808
  0.7499780866736101  0.9166786508940240  0.5830635791085689
  0.7498854526509063  0.9168550017486180  0.9165784095578284
  0.9999008708162942  0.0001428371013301  0.9998571628986700
  0.0001366211368219  0.0003034735905022  0.3332069822340341
  0.9995981274187069  0.0003020052651092  0.6665472006854869
  0.9995981274187069  0.3334527993145132  0.9996979947348910
  0.0001368262020992  0.3337049111142000  0.3332256999378423
  0.9990363580037560  0.3339190632905096  0.6660809367094901
  0.0001366211368219  0.6667930177659660  0.9996965264094979
  0.0000817934317983  0.6667119115433821  0.3332880884566179
  0.0001368262020992  0.6667743000621579  0.6662950888858000
  0.3333153834071385  0.9997306232183905  0.0002693767816097
  0.3335930902981561  0.0001925024014821  0.3335438168329879
  0.3331323822251075  0.9993415437872053  0.6668935630071909
  0.3331323822251075  0.3331064369928090  0.0006584562127949
  0.3345342441312000  0.3337064375419103  0.3346826350358038
  0.3322649601710426  0.3325269039401244  0.6674730960598756
  0.3335930902981561  0.6664561831670122  0.9998074975985178
  0.3337324528565914  0.6666729221421973  0.3333270778578028
  0.3345342441312000  0.6653173649641965  0.6662935624580896
  0.6666108124547357  0.0000360189377901  0.9999639810622100
  0.6668081867230093  0.0003612093005522  0.3335055677370040
  0.6664976199081726  0.9998251677597066  0.6665578453791361
  0.6664976199081726  0.3334421546208640  0.0001748322402934
  0.6678891173323493  0.3353441599299118  0.3347646449070810
  0.6624082389676246  0.3334539278754661  0.6665460721245340
  0.6668081867230093  0.6664944322629961  0.9996387906994481
  0.6663500574518881  0.6666033232057080  0.3333966767942922
  0.6678891173323493  0.6652353550929192  0.6646558400700883
  0.1663972902183914  0.1666487174071408  0.0002693767816097
  0.1668591694014833  0.1669264242981587  0.3335438168329879
  0.1660082107872063  0.1664657162251100  0.6668935630071909
  0.1667026859377913  0.4999441454547344  0.9999639810622100
  0.1670278763005533  0.5001415197230071  0.3335055677370040
  0.1664918347597077  0.4998309529081715  0.6665578453791361
  0.1668095041013313  0.8332342038162930  0.9998571628986700
  0.1669701405905034  0.8334699541368208  0.3332069822340341
  0.1669686722651104  0.8329314604187057  0.6665472006854869
  0.4997731039928104  0.1664657162251100  0.0006584562127949
  0.5003731045419116  0.1678675781312022  0.3346826350358038
  0.4991935709401257  0.1655982941710450  0.6674730960598756
  0.5001088216208651  0.4998309529081715  0.0001748322402934
  0.5020108269299129  0.5012224503323481  0.3347646449070810
  0.5001205948754672  0.4957415719676233  0.6665460721245340
  0.5001194663145143  0.8329314604187057  0.9996979947348910
  0.5003715781142012  0.8334701592020981  0.3332256999378423
  0.5005857302905111  0.8323696910037547  0.6660809367094901
  0.8331228491670097  0.1669264242981587  0.9998074975985178
  0.8333395881421949  0.1670657868565939  0.3333270778578028
  0.8319840309641940  0.1678675781312022  0.6662935624580896
  0.8331610982629938  0.5001415197230071  0.9996387906994481
  0.8332699892057058  0.4996833904518869  0.3333966767942922
  0.8319020210929167  0.5012224503323481  0.6646558400700883
  0.8334596837659636  0.8334699541368208  0.9996965264094979
  0.8333785775433796  0.8334151264317970  0.3332880884566179
  0.8334409660621555  0.8334701592020981  0.6662950888858000
  0.1668095041013313  0.0001428371013301  0.1667657961837068
  0.1667026859377913  0.0000360189377901  0.5000558545452657
  0.1663972902183914  0.9997306232183905  0.8333512825928592
  0.1669686722651104  0.3334527993145132  0.1670685395812944
  0.1664918347597077  0.3334421546208640  0.5001690470918286
  0.1660082107872063  0.3331064369928090  0.8335342837748900
  0.1669701405905034  0.6667930177659660  0.1665300458631793
  0.1670278763005533  0.6664944322629961  0.4998584802769930
  0.1668591694014833  0.6664561831670122  0.8330735757018412
  0.5001194663145143  0.0003020052651092  0.1670685395812944
  0.5001088216208651  0.9998251677597066  0.5001690470918286
  0.4997731039928104  0.9993415437872053  0.8335342837748900
  0.5005857302905111  0.3339190632905096  0.1676303089962454
  0.5001205948754672  0.3334539278754661  0.5042584280323766
  0.4991935709401257  0.3325269039401244  0.8344017058289551
  0.5003715781142012  0.6667743000621579  0.1665298407979020
  0.5020108269299129  0.6652353550929192  0.4987775496676518
  0.5003731045419116  0.6653173649641965  0.8321324218687975
  0.8334596837659636  0.0003034735905022  0.1665300458631793
  0.8331610982629938  0.0003612093005522  0.4998584802769930
  0.8331228491670097  0.0001925024014821  0.8330735757018412
  0.8334409660621555  0.3337049111142000  0.1665298407979020
  0.8319020210929167  0.3353441599299118  0.4987775496676518
  0.8319840309641940  0.3337064375419103  0.8321324218687975
  0.8333785775433796  0.6667119115433821  0.1665848735682029
  0.8332699892057058  0.6666033232057080  0.5003166095481131
  0.8333395881421949  0.6666729221421973  0.8329342131434059
  0.9999689438001829  0.1670092911813755  0.1666977231998186
  0.0000193259695718  0.1667090736398200  0.4998434310820673
  0.9992901437847095  0.1669139029824347  0.8330860970175653
  0.0007307435378856  0.5001576012693753  0.1659359234621157
  0.9995770238664496  0.5003388524675176  0.4996611475324824
  0.0000193259695718  0.5001565689179328  0.8332909263601800
  0.0001649623568907  0.8334982953568896  0.1665017046431105
  0.0007307435378856  0.8340640765378844  0.4998423987306245
  0.9999689438001829  0.8333022768001817  0.8329907088186247
  0.3335805689824324  0.1669139029824347  0.1673765232152916
  0.3326781340955472  0.1660114680955497  0.5006302250761414
  0.3327741245453020  0.1661074585453044  0.8338925414546955
  0.3333757396398175  0.5001565689179328  0.1666473410304296
  0.3339695044679527  0.4997372693386466  0.5002627306613533
  0.3326781340955472  0.4993697749238585  0.8339885319044505
  0.3336759571813730  0.8333022768001817  0.1666977231998186
  0.3333757396398175  0.8333526589695706  0.4998434310820673
  0.3335805689824324  0.8326234767847083  0.8330860970175653
  0.6668232359179340  0.1667090736398200  0.1666473410304296
  0.6664039363386480  0.1673028384679551  0.5002627306613533
  0.6660364419238599  0.1660114680955497  0.8339885319044505
  0.6670055194675188  0.5003388524675176  0.1670896431335515
  0.6664039363386480  0.4997372693386466  0.8326971615320448
  0.6668242682693766  0.8340640765378844  0.1659359234621157
  0.6670055194675188  0.8329103568664484  0.4996611475324824
  0.6668232359179340  0.8333526589695706  0.8332909263601800
  0.5755392732753338  0.4088726072753361  0.5911273927246637
Cartesian
  0.0000000000000000  0.0000000000000000  0.0000000000000000
  0.0000000000000000  0.0000000000000000  0.0000000000000000
  0.0000000000000000  0.0000000000000000  0.0000000000000000
  0.0000000000000000  0.0000000000000000  0.0000000000000000
  0.0000000000000000  0.0000000000000000  0.0000000000000000
  0.0000000000000000  0.0000000000000000  0.0000000000000000
  0.0000000000000000  0.0000000000000000  0.0000000000000000
  0.0000000000000000  0.0000000000000000  0.0000000000000000
  0.0000000000000000  0.0000000000000000  0.0000000000000000
  0.0000000000000000  0.0000000000000000  0.0000000000000000
  0.0000000000000000  0.0000000000000000  0.0000000000000000
  0.0000000000000000  0.0000000000000000  0.0000000000000000
  0.0000000000000000  0.0000000000000000  0.0000000000000000
  0.0000000000000000  0.0000000000000000  0.0000000000000000
  0.0000000000000000  0.0000000000000000  0.0000000000000000
  0.0000000000000000  0.0000000000000000  0.0000000000000000
  0.0000000000000000  0.0000000000000000  0.0000000000000000
  0.0000000000000000  0.0000000000000000  0.0000000000000000
  0.0000000000000000  0.0000000000000000  0.0000000000000000
  0.0000000000000000  0.0000000000000000  0.0000000000000000
  0.0000000000000000  0.0000000000000000  0.0000000000000000
  0.0000000000000000  0.0000000000000000  0.0000000000000000
  0.0000000000000000  0.0000000000000000  0.0000000000000000
  0.0000000000000000  0.0000000000000000  0.0000000000000000
  0.0000000000000000  0.0000000000000000  0.0000000000000000
  0.0000000000000000  0.0000000000000000  0.0000000000000000
  0.0000000000000000  0.0000000000000000  0.0000000000000000
  0.0000000000000000  0.0000000000000000  0.0000000000000000
  0.0000000000000000  0.0000000000000000  0.0000000000000000
  0.0000000000000000  0.0000000000000000  0.0000000000000000
  0.0000000000000000  0.0000000000000000  0.0000000000000000
  0.0000000000000000  0.0000000000000000  0.0000000000000000
  0.0000000000000000  0.0000000000000000  0.0000000000000000
  0.0000000000000000  0.0000000000000000  0.0000000000000000
  0.0000000000000000  0.0000000000000000  0.0000000000000000
  0.0000000000000000  0.0000000000000000  0.0000000000000000
  0.0000000000000000  0.0000000000000000  0.0000000000000000
  0.0000000000000000  0.0000000000000000  0.0000000000000000
  0.0000000000000000  0.0000000000000000  0.0000000000000000
  0.0000000000000000  0.0000000000000000  0.0000000000000000
  0.0000000000000000  0.0000000000000000  0.0000000000000000
  0.0000000000000000  0.0000000000000000  0.0000000000000000
  0.0000000000000000  0.0000000000000000  0.0000000000000000
  0.0000000000000000  0.0000000000000000  0.0000000000000000
  0.0000000000000000  0.0000000000000000  0.0000000000000000
  0.0000000000000000  0.0000000000000000  0.0000000000000000
  0.0000000000000000  0.0000000000000000  0.0000000000000000
  0.0000000000000000  0.0000000000000000  0.0000000000000000
  0.0000000000000000  0.0000000000000000  0.0000000000000000
  0.0000000000000000  0.0000000000000000  0.0000000000000000
  0.0000000000000000  0.0000000000000000  0.0000000000000000
  0.0000000000000000  0.0000000000000000  0.0000000000000000
  0.0000000000000000  0.0000000000000000  0.0000000000000000
  0.0000000000000000  0.0000000000000000  0.0000000000000000
  0.0000000000000000  0.0000000000000000  0.0000000000000000
  0.0000000000000000  0.0000000000000000  0.0000000000000000
  0.0000000000000000  0.0000000000000000  0.0000000000000000
  0.0000000000000000  0.0000000000000000  0.0000000000000000
  0.0000000000000000  0.0000000000000000  0.0000000000000000
  0.0000000000000000  0.0000000000000000  0.0000000000000000
  0.0000000000000000  0.0000000000000000  0.0000000000000000
  0.0000000000000000  0.0000000000000000  0.0000000000000000
  0.0000000000000000  0.0000000000000000  0.0000000000000000
  0.0000000000000000  0.0000000000000000  0.0000000000000000
  0.0000000000000000  0.0000000000000000  0.0000000000000000
  0.0000000000000000  0.0000000000000000  0.0000000000000000
  0.0000000000000000  0.0000000000000000  0.0000000000000000
  0.0000000000000000  0.0000000000000000  0.0000000000000000
  0.0000000000000000  0.0000000000000000  0.0000000000000000
  0.0000000000000000  0.0000000000000000  0.0000000000000000
  0.0000000000000000  0.0000000000000000  0.0000000000000000
  0.0000000000000000  0.0000000000000000  0.0000000000000000
  0.0000000000000000  0.0000000000000000  0.0000000000000000
  0.0000000000000000  0.0000000000000000  0.0000000000000000
  0.0000000000000000  0.0000000000000000  0.0000000000000000
  0.0000000000000000  0.0000000000000000  0.0000000000000000
  0.0000000000000000  0.0000000000000000  0.0000000000000000
  0.0000000000000000  0.0000000000000000  0.0000000000000000
  0.0000000000000000  0.0000000000000000  0.0000000000000000
  0.0000000000000000  0.0000000000000000  0.0000000000000000
  0.0000000000000000  0.0000000000000000  0.0000000000000000
  0.0000000000000000  0.0000000000000000  0.0000000000000000
  0.0000000000000000  0.0000000000000000  0.0000000000000000
  0.0000000000000000  0.0000000000000000  0.0000000000000000
  0.0000000000000000  0.0000000000000000  0.0000000000000000
  0.0000000000000000  0.0000000000000000  0.0000000000000000
  0.0000000000000000  0.0000000000000000  0.0000000000000000
  0.0000000000000000  0.0000000000000000  0.0000000000000000
  0.0000000000000000  0.0000000000000000  0.0000000000000000
  0.0000000000000000  0.0000000000000000  0.0000000000000000
  0.0000000000000000  0.0000000000000000  0.0000000000000000
  0.0000000000000000  0.0000000000000000  0.0000000000000000
  0.0000000000000000  0.0000000000000000  0.0000000000000000
  0.0000000000000000  0.0000000000000000  0.0000000000000000
  0.0000000000000000  0.0000000000000000  0.0000000000000000
  0.0000000000000000  0.0000000000000000  0.0000000000000000
  0.0000000000000000  0.0000000000000000  0.0000000000000000
  0.0000000000000000  0.0000000000000000  0.0000000000000000
  0.0000000000000000  0.0000000000000000  0.0000000000000000
  0.0000000000000000  0.0000000000000000  0.0000000000000000
  0.0000000000000000  0.0000000000000000  0.0000000000000000
  0.0000000000000000  0.0000000000000000  0.0000000000000000
  0.0000000000000000  0.0000000000000000  0.0000000000000000
  0.0000000000000000  0.0000000000000000  0.0000000000000000
  0.0000000000000000  0.0000000000000000  0.0000000000000000
  0.0000000000000000  0.0000000000000000  0.0000000000000000
  0.0000000000000000  0.0000000000000000  0.0000000000000000
  0.0000000000000000  0.0000000000000000  0.0000000000000000
  0.0000000000000000  0.0000000000000000  0.0000000000000000
  0.0000000000000000  0.0000000000000000  0.0000000000000000
  0.0000000000000000  0.0000000000000000  0.0000000000000000
  0.0000000000000000  0.0000000000000000  0.0000000000000000
  0.0000000000000000  0.0000000000000000  0.0000000000000000
  0.0000000000000000  0.0000000000000000  0.0000000000000000
  0.0000000000000000  0.0000000000000000  0.0000000000000000
  0.0000000000000000  0.0000000000000000  0.0000000000000000
  0.0000000000000000  0.0000000000000000  0.0000000000000000
  0.0000000000000000  0.0000000000000000  0.0000000000000000
  0.0000000000000000  0.0000000000000000  0.0000000000000000
  0.0000000000000000  0.0000000000000000  0.0000000000000000
  0.0000000000000000  0.0000000000000000  0.0000000000000000
  0.0000000000000000  0.0000000000000000  0.0000000000000000
  0.0000000000000000  0.0000000000000000  0.0000000000000000
  0.0000000000000000  0.0000000000000000  0.0000000000000000
  0.0000000000000000  0.0000000000000000  0.0000000000000000
  0.0000000000000000  0.0000000000000000  0.0000000000000000
  0.0000000000000000  0.0000000000000000  0.0000000000000000
  0.0000000000000000  0.0000000000000000  0.0000000000000000
  0.0000000000000000  0.0000000000000000  0.0000000000000000
  0.0000000000000000  0.0000000000000000  0.0000000000000000
  0.0000000000000000  0.0000000000000000  0.0000000000000000
  0.0000000000000000  0.0000000000000000  0.0000000000000000
  0.0000000000000000  0.0000000000000000  0.0000000000000000
  0.0000000000000000  0.0000000000000000  0.0000000000000000
  0.0000000000000000  0.0000000000000000  0.0000000000000000
  0.0000000000000000  0.0000000000000000  0.0000000000000000
  0.0000000000000000  0.0000000000000000  0.0000000000000000
  0.0000000000000000  0.0000000000000000  0.0000000000000000
  0.0000000000000000  0.0000000000000000  0.0000000000000000
  0.0000000000000000  0.0000000000000000  0.0000000000000000
  0.0000000000000000  0.0000000000000000  0.0000000000000000
  0.0000000000000000  0.0000000000000000  0.0000000000000000
  0.0000000000000000  0.0000000000000000  0.0000000000000000
  0.0000000000000000  0.0000000000000000  0.0000000000000000
  0.0000000000000000  0.0000000000000000  0.0000000000000000
  0.0000000000000000  0.0000000000000000  0.0000000000000000
  0.0000000000000000  0.0000000000000000  0.0000000000000000
  0.0000000000000000  0.0000000000000000  0.0000000000000000
  0.0000000000000000  0.0000000000000000  0.0000000000000000
  0.0000000000000000  0.0000000000000000  0.0000000000000000
  0.0000000000000000  0.0000000000000000  0.0000000000000000
  0.0000000000000000  0.0000000000000000  0.0000000000000000
  0.0000000000000000  0.0000000000000000  0.0000000000000000
  0.0000000000000000  0.0000000000000000  0.0000000000000000
  0.0000000000000000  0.0000000000000000  0.0000000000000000
  0.0000000000000000  0.0000000000000000  0.0000000000000000
  0.0000000000000000  0.0000000000000000  0.0000000000000000
  0.0000000000000000  0.0000000000000000  0.0000000000000000
  0.0000000000000000  0.0000000000000000  0.0000000000000000
  0.0000000000000000  0.0000000000000000  0.0000000000000000
  0.0000000000000000  0.0000000000000000  0.0000000000000000
  0.0000000000000000  0.0000000000000000  0.0000000000000000
  0.0000000000000000  0.0000000000000000  0.0000000000000000
  0.0000000000000000  0.0000000000000000  0.0000000000000000
  0.0000000000000000  0.0000000000000000  0.0000000000000000
  0.0000000000000000  0.0000000000000000  0.0000000000000000
  0.0000000000000000  0.0000000000000000  0.0000000000000000
  0.0000000000000000  0.0000000000000000  0.0000000000000000
  0.0000000000000000  0.0000000000000000  0.0000000000000000
  0.0000000000000000  0.0000000000000000  0.0000000000000000
  0.0000000000000000  0.0000000000000000  0.0000000000000000
  0.0000000000000000  0.0000000000000000  0.0000000000000000
  0.0000000000000000  0.0000000000000000  0.0000000000000000
  0.0000000000000000  0.0000000000000000  0.0000000000000000
  0.0000000000000000  0.0000000000000000  0.0000000000000000
  0.0000000000000000  0.0000000000000000  0.0000000000000000
  0.0000000000000000  0.0000000000000000  0.0000000000000000
  0.0000000000000000  0.0000000000000000  0.0000000000000000
  0.0000000000000000  0.0000000000000000  0.0000000000000000
  0.0000000000000000  0.0000000000000000  0.0000000000000000
  0.0000000000000000  0.0000000000000000  0.0000000000000000
  0.0000000000000000  0.0000000000000000  0.0000000000000000
  0.0000000000000000  0.0000000000000000  0.0000000000000000
  0.0000000000000000  0.0000000000000000  0.0000000000000000
  0.0000000000000000  0.0000000000000000  0.0000000000000000
  0.0000000000000000  0.0000000000000000  0.0000000000000000
  0.0000000000000000  0.0000000000000000  0.0000000000000000
  0.0000000000000000  0.0000000000000000  0.0000000000000000
  0.0000000000000000  0.0000000000000000  0.0000000000000000
  0.0000000000000000  0.0000000000000000  0.0000000000000000
  0.0000000000000000  0.0000000000000000  0.0000000000000000
  0.0000000000000000  0.0000000000000000  0.0000000000000000
  0.0000000000000000  0.0000000000000000  0.0000000000000000
  0.0000000000000000  0.0000000000000000  0.0000000000000000
  0.0000000000000000  0.0000000000000000  0.0000000000000000
  0.0000000000000000  0.0000000000000000  0.0000000000000000
  0.0000000000000000  0.0000000000000000  0.0000000000000000
  0.0000000000000000  0.0000000000000000  0.0000000000000000
  0.0000000000000000  0.0000000000000000  0.0000000000000000
  0.0000000000000000  0.0000000000000000  0.0000000000000000
  0.0000000000000000  0.0000000000000000  0.0000000000000000
  0.0000000000000000  0.0000000000000000  0.0000000000000000
  0.0000000000000000  0.0000000000000000  0.0000000000000000
  0.0000000000000000  0.0000000000000000  0.0000000000000000
  0.0000000000000000  0.0000000000000000  0.0000000000000000
  0.0000000000000000  0.0000000000000000  0.0000000000000000
  0.0000000000000000  0.0000000000000000  0.0000000000000000
  0.0000000000000000  0.0000000000000000  0.0000000000000000
  0.0000000000000000  0.0000000000000000  0.0000000000000000
  0.0000000000000000  0.0000000000000000  0.0000000000000000
  0.0000000000000000  0.0000000000000000  0.0000000000000000
  0.0000000000000000  0.0000000000000000  0.0000000000000000
  0.0000000000000000  0.0000000000000000  0.0000000000000000
  0.0000000000000000  0.0000000000000000  0.0000000000000000
  0.0000000000000000  0.0000000000000000  0.0000000000000000
