
     Program PWSCF v.7.4.1 starts on  4Aug2026 at 13:21:52 

     This program is part of the open-source Quantum ESPRESSO suite
     for quantum simulation of materials; please cite
         "P. Giannozzi et al., J. Phys.:Condens. Matter 21 395502 (2009);
         "P. Giannozzi et al., J. Phys.:Condens. Matter 29 465901 (2017);
         "P. Giannozzi et al., J. Chem. Phys. 152 154105 (2020);
          URL http://www.quantum-espresso.org", 
     in publications or presentations arising from this work. More details at
     http://www.quantum-espresso.org/quote

     Parallel version (MPI), running on    24 processors

     MPI processes distributed on     1 nodes
     97182 MiB available memory on the printing compute node when the environment starts
 
     Reading input from diamond_pd_nscf.in

     Current dimensions of program PWSCF are:
     Max number of different atomic species (ntypx) = 10
     Max number of k-points (npk) =  40000
     Max angular momentum in pseudopotentials (lmaxx) =  4
     file C.pbe-n-kjpaw_psl.1.0.0.UPF: wavefunction(s)  2S 2P renormalized
     file N.pbe-n-kjpaw_psl.1.0.0.UPF: wavefunction(s)  2S renormalized

     Atomic positions and unit cell read from directory:
     ../tmp/diamond_pd.save/
 
 
     R & G space division:  proc/nbgrp/npool/nimage =      24
     Subspace diagonalization in iterative solution of the eigenvalue problem:
     one sub-group per band group will be used
     scalapack distributed-memory algorithm (size of sub-group:  4*  4 procs)

 
     Parallelization info
     --------------------
     sticks:   dense  smooth     PW     G-vecs:    dense   smooth      PW
     Min         244     244     61                14112    14112    1765
     Max         245     245     62                14117    14117    1768
     Sum        5877    5877   1473               338755   338755   42379
 
     Using Slab Decomposition
 


     bravais-lattice index     =            0
     lattice parameter (alat)  =      20.2515  a.u.
     unit-cell volume          =    8305.5769 (a.u.)^3
     number of atoms/cell      =          215
     number of atomic types    =            2
     number of electrons       =       859.00 (up: 430.00, down: 429.00)
     number of Kohn-Sham states=          860
     kinetic-energy cutoff     =      45.0000  Ry
     charge density cutoff     =     180.0000  Ry
     Exchange-correlation= SLA  PW   PBX  PBC
                           (   1   4   3   4   0   0   0)

     celldm(1)=  20.251472  celldm(2)=   0.000000  celldm(3)=   0.000000
     celldm(4)=   0.000000  celldm(5)=   0.000000  celldm(6)=   0.000000

     crystal axes: (cart. coord. in units of alat)
               a(1) = (  -0.707107   0.000000   0.707107 )  
               a(2) = (   0.408248   0.816497   0.408248 )  
               a(3) = (  -0.577350   0.577350  -0.577350 )  

     reciprocal axes: (cart. coord. in units 2 pi/alat)
               b(1) = ( -0.707107  0.000000  0.707107 )  
               b(2) = (  0.408248  0.816497  0.408248 )  
               b(3) = ( -0.577350  0.577350 -0.577350 )  


     PseudoPot. # 1 for C  read from file:
     ../../../pseudos/C.pbe-n-kjpaw_psl.1.0.0.UPF
     MD5 check sum: 5f16ad9a65e90284d1d834d4ab3b0f7d
     Pseudo is Projector augmented-wave + core cor, Zval =  4.0
     Generated using &quot;atomic&quot; code by A. Dal Corso  v.6.3
     Shape of augmentation charge: PSQ
     Using radial grid of 1073 points,  4 beta functions with: 
                l(1) =   0
                l(2) =   0
                l(3) =   1
                l(4) =   1
     Q(r) pseudized with 0 coefficients 


     PseudoPot. # 2 for N  read from file:
     ../../../pseudos/N.pbe-n-kjpaw_psl.1.0.0.UPF
     MD5 check sum: a6186d50559fdcbe4b2d0187dd61a119
     Pseudo is Projector augmented-wave + core cor, Zval =  5.0
     Generated using &quot;atomic&quot; code by A. Dal Corso  v.6.3
     Shape of augmentation charge: PSQ
     Using radial grid of 1085 points,  4 beta functions with: 
                l(1) =   0
                l(2) =   0
                l(3) =   1
                l(4) =   1
     Q(r) pseudized with 0 coefficients 


     atomic species   valence    mass     pseudopotential
     C                 4.00    12.01070     C ( 1.00)
     N                 5.00    14.00670     N ( 1.00)

     Starting magnetic structure 
     atomic species   magnetization
     C               0.000
     N               0.000

     No symmetry found


                                    s                        frac. trans.

      isym =  1     identity                                     

 cryst.   s( 1) = (     1          0          0      )
                  (     0          1          0      )
                  (     0          0          1      )

 cart.    s( 1) = (  1.0000000  0.0000000 -0.0000000 )
                  (  0.0000000  1.0000000  0.0000000 )
                  ( -0.0000000  0.0000000  1.0000000 )


   Cartesian axes

     site n.     atom                  positions (alat units)
         1        C      tau(   1) = (  -0.0000662   0.0002117   0.0000148  )
         2        C      tau(   2) = (  -0.1925229   0.1927900  -0.1922377  )
         3        C      tau(   3) = (  -0.3848694   0.3851500  -0.3849408  )
         4        C      tau(   4) = (   0.1357942   0.2724531   0.1360795  )
         5        C      tau(   5) = (  -0.0567349   0.4650642  -0.0561086  )
         6        C      tau(   6) = (  -0.2487335   0.6573865  -0.2489110  )
         7        C      tau(   7) = (   0.2721470   0.5445689   0.2720756  )
         8        C      tau(   8) = (   0.0797331   0.7370858   0.0795556  )
         9        C      tau(   9) = (  -0.1126533   0.9295414  -0.1128913  )
        10        C      tau(  10) = (  -0.2357558   0.0000731   0.2357381  )
        11        C      tau(  11) = (  -0.4282421   0.1925406   0.0432754  )
        12        C      tau(  12) = (  -0.6204949   0.3851964  -0.1490827  )
        13        C      tau(  13) = (  -0.0996660   0.2722666   0.3718516  )
        14        C      tau(  14) = (  -0.2943730   0.4646814   0.1816224  )
        15        C      tau(  15) = (  -0.4826217   0.6580665  -0.0106518  )
        16        C      tau(  16) = (   0.0362846   0.5445579   0.5076968  )
        17        C      tau(  17) = (  -0.1585613   0.7366967   0.3134085  )
        18        C      tau(  18) = (  -0.3477254   0.9285953   0.1224104  )
        19        C      tau(  19) = (  -0.4714137   0.0000456   0.4714026  )
        20        C      tau(  20) = (  -0.6640782   0.1922629   0.2789482  )
        21        C      tau(  21) = (  -0.8562101   0.3851095   0.0865465  )
        22        C      tau(  22) = (  -0.3352780   0.2720433   0.6077484  )
        23        C      tau(  23) = (  -0.5282780   0.4640653   0.4156769  )
        24        C      tau(  24) = (  -0.7192270   0.6568148   0.2225024  )
        25        C      tau(  25) = (  -0.1993266   0.5444961   0.7434300  )
        26        C      tau(  26) = (  -0.3915192   0.7363301   0.5502102  )
        27        C      tau(  27) = (  -0.5840750   0.9293471   0.3585776  )
        28        C      tau(  28) = (  -0.0499344   0.1363504   0.1858941  )
        29        C      tau(  29) = (  -0.2425561   0.3293567  -0.0057245  )
        30        C      tau(  30) = (  -0.4346927   0.5212276  -0.1989239  )
        31        C      tau(  31) = (   0.0860699   0.4085430   0.3218976  )
        32        C      tau(  32) = (  -0.1092495   0.6019738   0.1293762  )
        33        C      tau(  33) = (  -0.2983587   0.7937223  -0.0618302  )
        34        C      tau(  34) = (   0.2223277   0.6806777   0.4580037  )
        35        C      tau(  35) = (   0.0299034   0.8732218   0.2655202  )
        36        C      tau(  36) = (  -0.1624864   1.0656866   0.0730871  )
        37        C      tau(  37) = (  -0.2854539   0.1359219   0.4218031  )
        38        C      tau(  38) = (  -0.4783826   0.3277487   0.2294657  )
        39        C      tau(  39) = (  -0.6696348   0.5213261   0.0374203  )
        40        C      tau(  40) = (  -0.1494645   0.4083174   0.5576998  )
        41        C      tau(  41) = (  -0.3432365   0.5981770   0.3639802  )
        42        C      tau(  42) = (  -0.5315724   0.7918037   0.1720401  )
        43        C      tau(  43) = (  -0.0135800   0.6805498   0.6935486  )
        44        C      tau(  44) = (  -0.2059753   0.8727943   0.5008599  )
        45        C      tau(  45) = (  -0.3981627   1.0656326   0.3087641  )
        46        C      tau(  46) = (  -0.5212511   0.1362043   0.6573996  )
        47        C      tau(  47) = (  -0.7139544   0.3285282   0.4650900  )
        48        C      tau(  48) = (  -0.9060024   0.5211446   0.2723744  )
        49        C      tau(  49) = (  -0.3851896   0.4083338   0.7934323  )
        50        C      tau(  50) = (  -0.5776720   0.6007920   0.6009573  )
        51        C      tau(  51) = (  -0.7698621   0.7932756   0.4083638  )
        52        C      tau(  52) = (  -0.2490919   0.6805622   0.9293902  )
        53        C      tau(  53) = (  -0.4414503   0.8728726   0.7367722  )
        54        C      tau(  54) = (  -0.6339127   1.0655496   0.5445017  )
        55        C      tau(  55) = (  -0.2141443   0.0965064   0.0216842  )
        56        C      tau(  56) = (  -0.4065261   0.2890191  -0.1706983  )
        57        C      tau(  57) = (  -0.5989866   0.4813934  -0.3633106  )
        58        C      tau(  58) = (  -0.0790053   0.3690408   0.1578263  )
        59        C      tau(  59) = (  -0.2706872   0.5628024  -0.0320615  )
        60        C      tau(  60) = (  -0.4628928   0.7536494  -0.2272760  )
        61        C      tau(  61) = (   0.0579508   0.6407630   0.2937196  )
        62        C      tau(  62) = (  -0.1355517   0.8332259   0.1009768  )
        63        C      tau(  63) = (  -0.3268282   1.0258106  -0.0912548  )
        64        C      tau(  64) = (  -0.4499412   0.0960106   0.2573158  )
        65        C      tau(  65) = (  -0.6422674   0.2887433   0.0648969  )
        66        C      tau(  66) = (  -0.8345117   0.4813583  -0.1273831  )
        67        C      tau(  67) = (  -0.3138347   0.3676747   0.3940136  )
        68        C      tau(  68) = (  -0.5043787   0.5590773   0.2028380  )
        69        C      tau(  69) = (  -0.6981471   0.7533734   0.0086881  )
        70        C      tau(  70) = (  -0.1783765   0.6405253   0.5286786  )
        71        C      tau(  71) = (  -0.3689511   0.8312623   0.3346615  )
        72        C      tau(  72) = (  -0.5624925   1.0257595   0.1444343  )
        73        C      tau(  73) = (  -0.6856100   0.0963241   0.4930406  )
        74        C      tau(  74) = (  -0.8780036   0.2887571   0.3006183  )
        75        C      tau(  75) = (  -1.0703468   0.4812924   0.1081353  )
        76        C      tau(  76) = (  -0.5496413   0.3683972   0.6294031  )
        77        C      tau(  77) = (  -0.7418994   0.5609437   0.4367298  )
        78        C      tau(  78) = (  -0.9340654   0.7533442   0.2441571  )
        79        C      tau(  79) = (  -0.4133283   0.6406874   0.7650485  )
        80        C      tau(  80) = (  -0.6056779   0.8331134   0.5725480  )
        81        C      tau(  81) = (  -0.7982109   1.0256842   0.3802035  )
        82        C      tau(  82) = (  -0.0284556   0.2326259  -0.0279889  )
        83        C      tau(  83) = (  -0.2205848   0.4249498  -0.2202401  )
        84        C      tau(  84) = (  -0.4130829   0.6174349  -0.4130750  )
        85        C      tau(  85) = (   0.1074729   0.5045500   0.1078176  )
        86        C      tau(  86) = (  -0.0845653   0.6973064  -0.0846296  )
        87        C      tau(  87) = (  -0.2768578   0.8899692  -0.2772238  )
        88        C      tau(  88) = (   0.2439198   0.7768505   0.2439277  )
        89        C      tau(  89) = (   0.0516118   0.9696693   0.0512458  )
        90        C      tau(  90) = (  -0.1409266   1.1617590  -0.1409634  )
        91        C      tau(  91) = (  -0.2639412   0.2318612   0.2076823  )
        92        C      tau(  92) = (  -0.4563218   0.4249415   0.0153820  )
        93        C      tau(  93) = (  -0.6487770   0.6174187  -0.1769836  )
        94        C      tau(  94) = (  -0.1281505   0.5045692   0.3435532  )
        95        C      tau(  95) = (  -0.5125899   0.8896996  -0.0413894  )
        96        C      tau(  96) = (   0.0078436   0.7767416   0.4796370  )
        97        C      tau(  97) = (  -0.1841561   0.9693910   0.2870444  )
        98        C      tau(  98) = (  -0.3764585   1.1620816   0.0944902  )
        99        C      tau(  99) = (  -0.4997481   0.2321326   0.4434233  )
       100        C      tau( 100) = (  -0.6924724   0.4244825   0.2509732  )
       101        C      tau( 101) = (  -0.8842105   0.6172798   0.0584605  )
       102        C      tau( 102) = (  -0.3636496   0.5042683   0.5797961  )
       103        C      tau( 103) = (  -0.5558322   0.6968079   0.3867582  )
       104        C      tau( 104) = (  -0.7482520   0.8891902   0.1942637  )
       105        C      tau( 105) = (  -0.2275675   0.7766081   0.7151035  )
       106        C      tau( 106) = (  -0.4196894   0.9689129   0.5228263  )
       107        C      tau( 107) = (  -0.6123036   1.1617152   0.3304243  )
       108        C      tau( 108) = (  -0.0731574   0.1163386   0.0449289  )
       109        C      tau( 109) = (  -0.2657473   0.3090726  -0.1470813  )
       110        C      tau( 110) = (  -0.4580522   0.5010601  -0.3404135  )
       111        C      tau( 111) = (   0.0624271   0.3887010   0.1810932  )
       112        C      tau( 112) = (  -0.1296292   0.5816717  -0.0115080  )
       113        C      tau( 113) = (  -0.3220786   0.7733383  -0.2059225  )
       114        C      tau( 114) = (   0.1994800   0.6606042   0.3171187  )
       115        C      tau( 115) = (   0.0085465   0.8535614   0.1247026  )
       116        C      tau( 116) = (  -0.1858373   1.0454057  -0.0678206  )
       117        C      tau( 117) = (  -0.3089598   0.1157285   0.2808794  )
       118        C      tau( 118) = (  -0.5013818   0.3083027   0.0883322  )
       119        C      tau( 119) = (  -0.6931685   0.5011955  -0.1039020  )
       120        C      tau( 120) = (  -0.1728112   0.3880272   0.4169028  )
       121        C      tau( 121) = (  -0.5568702   0.7737123   0.0316527  )
       122        C      tau( 122) = (  -0.0370235   0.6604030   0.5522430  )
       123        C      tau( 123) = (  -0.2290373   0.8532579   0.3594856  )
       124        C      tau( 124) = (  -0.4223328   1.0472362   0.1682307  )
       125        C      tau( 125) = (  -0.5446052   0.1159201   0.5164783  )
       126        C      tau( 126) = (  -0.7371424   0.3081924   0.3241345  )
       127        C      tau( 127) = (  -0.9292467   0.5011428   0.1314118  )
       128        C      tau( 128) = (  -0.4085863   0.3879135   0.6526906  )
       129        C      tau( 129) = (  -0.6010127   0.5804999   0.4601599  )
       130        C      tau( 130) = (  -0.7926786   0.7730630   0.2674763  )
       131        C      tau( 131) = (  -0.2723467   0.6605334   0.7883118  )
       132        C      tau( 132) = (  -0.4647074   0.8526422   0.5954475  )
       133        C      tau( 133) = (  -0.6574331   1.0457790   0.4036846  )
       134        C      tau( 134) = (  -0.1231749   0.2523758   0.2309439  )
       135        C      tau( 135) = (  -0.3165746   0.4458874   0.0397677  )
       136        C      tau( 136) = (  -0.5076538   0.6370957  -0.1555246  )
       137        C      tau( 137) = (   0.0130313   0.5244383   0.3668396  )
       138        C      tau( 138) = (  -0.1667222   0.7205148   0.1751331  )
       139        C      tau( 139) = (  -0.3720431   0.9097122  -0.0183811  )
       140        C      tau( 140) = (   0.1494310   0.7966652   0.5028105  )
       141        C      tau( 141) = (  -0.0431090   0.9892819   0.3105475  )
       142        C      tau( 142) = (  -0.2355598   1.1817033   0.1181149  )
       143        C      tau( 143) = (  -0.3587007   0.2514948   0.4670428  )
       144        C      tau( 144) = (  -0.5519660   0.4428245   0.2751930  )
       145        C      tau( 145) = (  -0.7427467   0.6371712   0.0818036  )
       146        C      tau( 146) = (  -0.2226965   0.5242730   0.6023604  )
       147        C      tau( 147) = (  -0.4153268   0.7156804   0.4083120  )
       148        C      tau( 148) = (  -0.6077788   0.9106419   0.2181479  )
       149        C      tau( 149) = (  -0.0866310   0.7964122   0.7385454  )
       150        C      tau( 150) = (  -0.2789041   0.9888907   0.5459810  )
       151        C      tau( 151) = (  -0.4714305   1.1819507   0.3539665  )
       152        C      tau( 152) = (  -0.5945679   0.2522705   0.7023421  )
       153        C      tau( 153) = (  -0.7868876   0.4448769   0.5099519  )
       154        C      tau( 154) = (  -0.9791135   0.6371160   0.3168165  )
       155        C      tau( 155) = (  -0.4581069   0.5246386   0.8383222  )
       156        C      tau( 156) = (  -0.6505352   0.7169517   0.6456441  )
       157        C      tau( 157) = (  -0.8429878   0.9093771   0.4532164  )
       158        C      tau( 158) = (  -0.3220481   0.7966000   0.9743956  )
       159        C      tau( 159) = (  -0.5143290   0.9890503   0.7819901  )
       160        C      tau( 160) = (  -0.7070829   1.1815287   0.5894391  )
       161        C      tau( 161) = (  -0.2873478   0.2125408   0.0667711  )
       162        C      tau( 162) = (  -0.4795883   0.4049087  -0.1257800  )
       163        C      tau( 163) = (  -0.6719351   0.5973683  -0.3185557  )
       164        C      tau( 164) = (  -0.1527798   0.4856307   0.2035625  )
       165        C      tau( 165) = (  -0.3447196   0.6773254  -0.0028642  )
       166        C      tau( 166) = (  -0.5360759   0.8696681  -0.1824195  )
       167        C      tau( 167) = (  -0.0136042   0.7569722   0.3385250  )
       168        C      tau( 168) = (  -0.2072045   0.9497087   0.1464575  )
       169        C      tau( 169) = (  -0.4000034   1.1418025  -0.0463288  )
       170        C      tau( 170) = (  -0.5232226   0.2115751   0.3025209  )
       171        C      tau( 171) = (  -0.7150761   0.4048016   0.1099809  )
       172        C      tau( 172) = (  -0.9076197   0.5972070  -0.0824433  )
       173        C      tau( 173) = (  -0.3874821   0.4827350   0.4396768  )
       174        C      tau( 174) = (  -0.5772000   0.6764034   0.2464387  )
       175        C      tau( 175) = (  -0.7714276   0.8693844   0.0534575  )
       176        C      tau( 176) = (  -0.2508863   0.7565166   0.5736640  )
       177        C      tau( 177) = (  -0.4439300   0.9503983   0.3819967  )
       178        C      tau( 178) = (  -0.6359139   1.1420403   0.1894831  )
       179        C      tau( 179) = (  -0.7587210   0.2124403   0.5381890  )
       180        C      tau( 180) = (  -0.9511082   0.4050164   0.3453208  )
       181        C      tau( 181) = (  -1.1435019   0.5972818   0.1529419  )
       182        C      tau( 182) = (  -0.6227295   0.4847083   0.6741100  )
       183        C      tau( 183) = (  -0.8147711   0.6771014   0.4814082  )
       184        C      tau( 184) = (  -1.0074576   0.8693973   0.2888615  )
       185        C      tau( 185) = (  -0.4859249   0.7567837   0.8100051  )
       186        C      tau( 186) = (  -0.6787044   0.9492389   0.6174998  )
       187        C      tau( 187) = (  -0.8712922   1.1416848   0.4252298  )
       188        C      tau( 188) = (  -0.1017401   0.3490439   0.0170479  )
       189        C      tau( 189) = (  -0.2941214   0.5411147  -0.1770958  )
       190        C      tau( 190) = (  -0.4863659   0.7334683  -0.3686354  )
       191        C      tau( 191) = (   0.0360792   0.6212348   0.1531048  )
       192        C      tau( 192) = (  -0.1572212   0.8131523  -0.0400827  )
       193        C      tau( 193) = (  -0.3501882   1.0057056  -0.2322407  )
       194        C      tau( 194) = (   0.1713061   0.8930462   0.2890366  )
       195        C      tau( 195) = (  -0.0214613   1.0854682   0.0964862  )
       196        C      tau( 196) = (  -0.2139775   1.2777198  -0.0960493  )
       197        C      tau( 197) = (  -0.3376059   0.3464713   0.2535379  )
       198        C      tau( 198) = (  -0.5275338   0.5407127   0.0610803  )
       199        C      tau( 199) = (  -0.7216508   0.7333916  -0.1323120  )
       200        C      tau( 200) = (  -0.2018660   0.6197330   0.3867481  )
       201        C      tau( 201) = (  -0.3986902   0.8247790   0.1985653  )
       202        C      tau( 202) = (  -0.5858768   1.0057258   0.0034385  )
       203        C      tau( 203) = (  -0.0649695   0.8927292   0.5243693  )
       204        C      tau( 204) = (  -0.2571454   1.0854894   0.3321699  )
       205        C      tau( 205) = (  -0.4498806   1.2779189   0.1398055  )
       206        C      tau( 206) = (  -0.5731097   0.3478696   0.4887024  )
       207        C      tau( 207) = (  -0.7648572   0.5408062   0.2957669  )
       208        C      tau( 208) = (  -0.9573949   0.7331952   0.1033208  )
       209        C      tau( 209) = (  -0.4366500   0.6204427   0.6239741  )
       210        C      tau( 210) = (  -0.6289631   0.8130088   0.4316941  )
       211        C      tau( 211) = (  -0.8214254   1.0057843   0.2393503  )
       212        C      tau( 212) = (  -0.3005592   0.8925702   0.7601565  )
       213        C      tau( 213) = (  -0.4930607   1.0854590   0.5677151  )
       214        C      tau( 214) = (  -0.6854811   1.2777974   0.3754355  )
       215        N      tau( 215) = (  -0.3690456   0.5707405   0.2305607  )

   Crystallographic axes

     site n.     atom                  positions (cryst. coord.)
         1        C      tau(   1) = (  0.0000573  0.0001519  0.0001519  )
         2        C      tau(   2) = (  0.0002017  0.0003345  0.3334490  )
         3        C      tau(   3) = ( -0.0000505  0.0002000  0.6668166  )
         4        C      tau(   4) = (  0.0002017  0.3334490  0.0003345  )
         5        C      tau(   5) = (  0.0004429  0.3336551  0.3336551  )
         6        C      tau(   6) = ( -0.0001255  0.3335913  0.6668574  )
         7        C      tau(   7) = ( -0.0000505  0.6668166  0.0002000  )
         8        C      tau(   8) = ( -0.0001255  0.6668574  0.3335913  )
         9        C      tau(   9) = ( -0.0001683  0.6668892  0.6668892  )
        10        C      tau(  10) = (  0.3333965  0.0000524  0.0000524  )
        11        C      tau(  11) = (  0.3334133  0.0000468  0.3334240  )
        12        C      tau(  12) = (  0.3333387  0.0003328  0.6667091  )
        13        C      tau(  13) = (  0.3334133  0.3334240  0.0000468  )
        14        C      tau(  14) = (  0.3365796  0.3333806  0.3333806  )
        15        C      tau(  15) = (  0.3337331  0.3359310  0.6647264  )
        16        C      tau(  16) = (  0.3333387  0.6667091  0.0003328  )
        17        C      tau(  17) = (  0.3337331  0.6647264  0.3359310  )
        18        C      tau(  18) = (  0.3324363  0.6662105  0.6662105  )
        19        C      tau(  19) = (  0.6666718  0.0000327  0.0000327  )
        20        C      tau(  20) = (  0.6668203 -0.0002466  0.3333580  )
        21        C      tau(  21) = (  0.6666296  0.0002267  0.6667085  )
        22        C      tau(  22) = (  0.6668203  0.3333580 -0.0002466  )
        23        C      tau(  23) = (  0.6674769  0.3329385  0.3329385  )
        24        C      tau(  24) = (  0.6659033  0.3335001  0.6659963  )
        25        C      tau(  25) = (  0.6666296  0.6667085  0.0002267  )
        26        C      tau(  26) = (  0.6659033  0.6659963  0.3335001  )
        27        C      tau(  27) = (  0.6665560  0.6667498  0.6667498  )
        28        C      tau(  28) = (  0.1667559  0.1668349  0.0002256  )
        29        C      tau(  29) = (  0.1674652  0.1675585  0.3334991  )
        30        C      tau(  30) = (  0.1667138  0.1669077  0.6667496  )
        31        C      tau(  31) = (  0.1667554  0.5001260  0.0003323  )
        32        C      tau(  32) = (  0.1687339  0.4997262  0.3359296  )
        33        C      tau(  33) = (  0.1672509  0.5010251  0.6662110  )
        34        C      tau(  34) = (  0.1666481  0.8335151  0.0001999  )
        35        C      tau(  35) = (  0.1666063  0.8335888  0.3335919  )
        36        C      tau(  36) = (  0.1665756  0.8336324  0.6668891  )
        37        C      tau(  37) = (  0.5001062  0.1666441 -0.0002467  )
        38        C      tau(  38) = (  0.5005243  0.1659858  0.3329380  )
        39        C      tau(  39) = (  0.4999635  0.1675604  0.6659970  )
        40        C      tau(  40) = (  0.5000407  0.5000511  0.0000474  )
        41        C      tau(  41) = (  0.5000777  0.4968781  0.3333813  )
        42        C      tau(  42) = (  0.4975292  0.4997266  0.6647242  )
        43        C      tau(  43) = (  0.5000155  0.8332626  0.0003355  )
        44        C      tau(  44) = (  0.4998080  0.8330197  0.3336563  )
        45        C      tau(  45) = (  0.4998727  0.8335885  0.6668576  )
        46        C      tau(  46) = (  0.8334319  0.1667927  0.0000322  )
        47        C      tau(  47) = (  0.8337103  0.1666437  0.3333577  )
        48        C      tau(  48) = (  0.8332382  0.1668353  0.6667083  )
        49        C      tau(  49) = (  0.8334116  0.5000676  0.0000526  )
        50        C      tau(  50) = (  0.8334168  0.5000508  0.3334237  )
        51        C      tau(  51) = (  0.8331315  0.5001258  0.6667090  )
        52        C      tau(  52) = (  0.8333127  0.8334073  0.0001524  )
        53        C      tau(  53) = (  0.8331291  0.8332621  0.3334491  )
        54        C      tau(  54) = (  0.8332648  0.8335157  0.6668168  )
        55        C      tau(  55) = (  0.1667559  0.0002256  0.1668349  )
        56        C      tau(  56) = (  0.1667554  0.0003323  0.5001260  )
        57        C      tau(  57) = (  0.1666481  0.0001999  0.8335151  )
        58        C      tau(  58) = (  0.1674652  0.3334991  0.1675585  )
        59        C      tau(  59) = (  0.1687339  0.3359296  0.4997262  )
        60        C      tau(  60) = (  0.1666063  0.3335919  0.8335888  )
        61        C      tau(  61) = (  0.1667138  0.6667496  0.1669077  )
        62        C      tau(  62) = (  0.1672509  0.6662110  0.5010251  )
        63        C      tau(  63) = (  0.1665756  0.6668891  0.8336324  )
        64        C      tau(  64) = (  0.5001062 -0.0002467  0.1666441  )
        65        C      tau(  65) = (  0.5000407  0.0000474  0.5000511  )
        66        C      tau(  66) = (  0.5000155  0.0003355  0.8332626  )
        67        C      tau(  67) = (  0.5005243  0.3329380  0.1659858  )
        68        C      tau(  68) = (  0.5000777  0.3333813  0.4968781  )
        69        C      tau(  69) = (  0.4998080  0.3336563  0.8330197  )
        70        C      tau(  70) = (  0.4999635  0.6659970  0.1675604  )
        71        C      tau(  71) = (  0.4975292  0.6647242  0.4997266  )
        72        C      tau(  72) = (  0.4998727  0.6668576  0.8335885  )
        73        C      tau(  73) = (  0.8334319  0.0000322  0.1667927  )
        74        C      tau(  74) = (  0.8334116  0.0000526  0.5000676  )
        75        C      tau(  75) = (  0.8333127  0.0001524  0.8334073  )
        76        C      tau(  76) = (  0.8337103  0.3333577  0.1666437  )
        77        C      tau(  77) = (  0.8334168  0.3334237  0.5000508  )
        78        C      tau(  78) = (  0.8331291  0.3334491  0.8332621  )
        79        C      tau(  79) = (  0.8332382  0.6667083  0.1668352  )
        80        C      tau(  80) = (  0.8331315  0.6667090  0.5001258  )
        81        C      tau(  81) = (  0.8332648  0.6668168  0.8335157  )
        82        C      tau(  82) = (  0.0003300  0.1668948  0.1668948  )
        83        C      tau(  83) = (  0.0002437  0.1670041  0.4998553  )
        84        C      tau(  84) = (  0.0000056  0.1668559  0.8334586  )
        85        C      tau(  85) = (  0.0002437  0.4998553  0.1670041  )
        86        C      tau(  86) = ( -0.0000454  0.5002748  0.5002748  )
        87        C      tau(  87) = ( -0.0002588  0.5004539  0.8337231  )
        88        C      tau(  88) = (  0.0000056  0.8334586  0.1668559  )
        89        C      tau(  89) = ( -0.0002588  0.8337231  0.5004539  )
        90        C      tau(  90) = ( -0.0000261  0.8334911  0.8334911  )
        91        C      tau(  91) = (  0.3334882  0.1663462  0.1663462  )
        92        C      tau(  92) = (  0.3335449  0.1669504  0.4999168  )
        93        C      tau(  93) = (  0.3336083  0.1670049  0.8332200  )
        94        C      tau(  94) = (  0.3335449  0.4999168  0.1669504  )
        95        C      tau(  95) = (  0.3331891  0.5002756  0.8335084  )
        96        C      tau(  96) = (  0.3336083  0.8332200  0.1670049  )
        97        C      tau(  97) = (  0.3331891  0.8335084  0.5002756  )
        98        C      tau(  98) = (  0.3330110  0.8337226  0.8337226  )
        99        C      tau(  99) = (  0.6669229  0.1665410  0.1665410  )
       100        C      tau( 100) = (  0.6671168  0.1663472  0.4999747  )
       101        C      tau( 101) = (  0.6665690  0.1668958  0.8331336  )
       102        C      tau( 102) = (  0.6671168  0.4999747  0.1663472  )
       103        C      tau( 103) = (  0.6665121  0.4999171  0.4999171  )
       104        C      tau( 104) = (  0.6664593  0.4998559  0.8332195  )
       105        C      tau( 105) = (  0.6665690  0.8331336  0.1668958  )
       106        C      tau( 106) = (  0.6664593  0.8332195  0.4998559  )
       107        C      tau( 107) = (  0.6666093  0.8334597  0.8334597  )
       108        C      tau( 108) = (  0.0834997  0.0834659  0.0834659  )
       109        C      tau( 109) = (  0.0839096  0.0838201  0.4167898  )
       110        C      tau( 110) = (  0.0831831  0.0831416  0.7502816  )
       111        C      tau( 111) = (  0.0839096  0.4167898  0.0838201  )
       112        C      tau( 112) = (  0.0835243  0.4173139  0.4173139  )
       113        C      tau( 113) = (  0.0821347  0.4158725  0.7513286  )
       114        C      tau( 114) = (  0.0831831  0.7502816  0.0831416  )
       115        C      tau( 115) = (  0.0821347  0.7513286  0.4158725  )
       116        C      tau( 116) = (  0.0834504  0.7500148  0.7500148  )
       117        C      tau( 117) = (  0.4170793  0.0830281  0.0830281  )
       118        C      tau( 118) = (  0.4169907  0.0831013  0.4164729  )
       119        C      tau( 119) = (  0.4166744  0.0838217  0.7495542  )
       120        C      tau( 120) = (  0.4169907  0.4164729  0.0831013  )
       121        C      tau( 121) = (  0.4161485  0.4173143  0.7499375  )
       122        C      tau( 122) = (  0.4166744  0.7495542  0.0838217  )
       123        C      tau( 123) = (  0.4161485  0.7499375  0.4173143  )
       124        C      tau( 124) = (  0.4175915  0.7513280  0.7513280  )
       125        C      tau( 125) = (  0.7502993  0.0831656  0.0831656  )
       126        C      tau( 126) = (  0.7504360  0.0830283  0.4163852  )
       127        C      tau( 127) = (  0.7499988  0.0834666  0.7499651  )
       128        C      tau( 128) = (  0.7504360  0.4163852  0.0830283  )
       129        C      tau( 129) = (  0.7503624  0.4164732  0.4164732  )
       130        C      tau( 130) = (  0.7496427  0.4167904  0.7495538  )
       131        C      tau( 131) = (  0.7499988  0.7499651  0.0834666  )
       132        C      tau( 132) = (  0.7496427  0.7495538  0.4167904  )
       133        C      tau( 133) = (  0.7503235  0.7502826  0.7502826  )
       134        C      tau( 134) = (  0.2503998  0.2500605  0.0834887  )
       135        C      tau( 135) = (  0.2519721  0.2510596  0.4172478  )
       136        C      tau( 136) = (  0.2489930  0.2494450  0.7507136  )
       137        C      tau( 137) = (  0.2501803  0.5832837  0.0834660  )
       138        C      tau( 138) = (  0.2417282  0.5917316  0.4111333  )
       139        C      tau( 139) = (  0.2500768  0.5833869  0.7506341  )
       140        C      tau( 140) = (  0.2498770  0.9167509  0.0833830  )
       141        C      tau( 141) = (  0.2500729  0.9169266  0.4167565  )
       142        C      tau( 142) = (  0.2500858  0.9169100  0.7500635  )
       143        C      tau( 143) = (  0.5838889  0.2495752  0.0826492  )
       144        C      tau( 144) = (  0.5848897  0.2485726  0.4154598  )
       145        C      tau( 145) = (  0.5830451  0.2504192  0.7494666  )
       146        C      tau( 146) = (  0.5834033  0.5830642  0.0834901  )
       147        C      tau( 147) = (  0.5824005  0.5814868  0.4172483  )
       148        C      tau( 148) = (  0.5840184  0.5844699  0.7507128  )
       149        C      tau( 149) = (  0.5834878  0.9164108  0.0834259  )
       150        C      tau( 150) = (  0.5832819  0.9164596  0.4167393  )
       151        C      tau( 151) = (  0.5836438  0.9171042  0.7502174  )
       152        C      tau( 152) = (  0.9170539  0.2499767  0.0834250  )
       153        C      tau( 153) = (  0.9170040  0.2501819  0.4167387  )
       154        C      tau( 154) = (  0.9163609  0.2498214  0.7502165  )
       155        C      tau( 155) = (  0.9167138  0.5835878  0.0833828  )
       156        C      tau( 156) = (  0.9165372  0.5833918  0.4167561  )
       157        C      tau( 157) = (  0.9165548  0.5833798  0.7500637  )
       158        C      tau( 158) = (  0.9167241  0.9167409  0.0832842  )
       159        C      tau( 159) = (  0.9166360  0.9168284  0.4164943  )
       160        C      tau( 160) = (  0.9167795  0.9166863  0.7500776  )
       161        C      tau( 161) = (  0.2503998  0.0834888  0.2500605  )
       162        C      tau( 162) = (  0.2501803  0.0834660  0.5832837  )
       163        C      tau( 163) = (  0.2498770  0.0833830  0.9167509  )
       164        C      tau( 164) = (  0.2519721  0.4172478  0.2510596  )
       165        C      tau( 165) = (  0.2417282  0.4111334  0.5917316  )
       166        C      tau( 166) = (  0.2500729  0.4167565  0.9169266  )
       167        C      tau( 167) = (  0.2489930  0.7507136  0.2494450  )
       168        C      tau( 168) = (  0.2500768  0.7506341  0.5833869  )
       169        C      tau( 169) = (  0.2500858  0.7500635  0.9169100  )
       170        C      tau( 170) = (  0.5838889  0.0826492  0.2495752  )
       171        C      tau( 171) = (  0.5834033  0.0834901  0.5830642  )
       172        C      tau( 172) = (  0.5834878  0.0834259  0.9164108  )
       173        C      tau( 173) = (  0.5848897  0.4154598  0.2485726  )
       174        C      tau( 174) = (  0.5824005  0.4172483  0.5814868  )
       175        C      tau( 175) = (  0.5832819  0.4167393  0.9164595  )
       176        C      tau( 176) = (  0.5830451  0.7494666  0.2504192  )
       177        C      tau( 177) = (  0.5840184  0.7507128  0.5844699  )
       178        C      tau( 178) = (  0.5836438  0.7502174  0.9171042  )
       179        C      tau( 179) = (  0.9170539  0.0834250  0.2499767  )
       180        C      tau( 180) = (  0.9167138  0.0833828  0.5835878  )
       181        C      tau( 181) = (  0.9167241  0.0832842  0.9167409  )
       182        C      tau( 182) = (  0.9170040  0.4167387  0.2501819  )
       183        C      tau( 183) = (  0.9165372  0.4167561  0.5833918  )
       184        C      tau( 184) = (  0.9166360  0.4164943  0.9168284  )
       185        C      tau( 185) = (  0.9163609  0.7502165  0.2498214  )
       186        C      tau( 186) = (  0.9165548  0.7500637  0.5833798  )
       187        C      tau( 187) = (  0.9167795  0.7500776  0.9166863  )
       188        C      tau( 188) = (  0.0839958  0.2504177  0.2504177  )
       189        C      tau( 189) = (  0.0827496  0.2494447  0.5844701  )
       190        C      tau( 190) = (  0.0832480  0.2498215  0.9171033  )
       191        C      tau( 191) = (  0.0827496  0.5844701  0.2494447  )
       192        C      tau( 192) = (  0.0828294  0.5833871  0.5833872  )
       193        C      tau( 193) = (  0.0834015  0.5833796  0.9169099  )
       194        C      tau( 194) = (  0.0832480  0.9171033  0.2498215  )
       195        C      tau( 195) = (  0.0834015  0.9169099  0.5833796  )
       196        C      tau( 196) = (  0.0833878  0.9166859  0.9166859  )
       197        C      tau( 197) = (  0.4180018  0.2485720  0.2485720  )
       198        C      tau( 198) = (  0.4162130  0.2510612  0.5814877  )
       199        C      tau( 199) = (  0.4167255  0.2501828  0.9164595  )
       200        C      tau( 200) = (  0.4162130  0.5814877  0.2510612  )
       201        C      tau( 201) = (  0.4223234  0.5917286  0.5917286  )
       202        C      tau( 202) = (  0.4167089  0.5833922  0.9169270  )
       203        C      tau( 203) = (  0.4167255  0.9164595  0.2501828  )
       204        C      tau( 204) = (  0.4167089  0.9169270  0.5833922  )
       205        C      tau( 205) = (  0.4169711  0.9168288  0.9168288  )
       206        C      tau( 206) = (  0.7508145  0.2495752  0.2495752  )
       207        C      tau( 207) = (  0.7499744  0.2500611  0.5830640  )
       208        C      tau( 208) = (  0.7500393  0.2499770  0.9164104  )
       209        C      tau( 209) = (  0.7499745  0.5830640  0.2500611  )
       210        C      tau( 210) = (  0.7499979  0.5832842  0.5832842  )
       211        C      tau( 211) = (  0.7500817  0.5835883  0.9167511  )
       212        C      tau( 212) = (  0.7500393  0.9164104  0.2499770  )
       213        C      tau( 213) = (  0.7500817  0.9167511  0.5835883  )
       214        C      tau( 214) = (  0.7501814  0.9167416  0.9167416  )
       215        N      tau( 215) = (  0.4239856  0.4094715  0.4094715  )

     number of k points=     1
                       cart. coord. in units 2pi/alat
        k(    1) = (   0.0000000   0.0000000   0.0000000), wk =   1.0000000

                       cryst. coord.
        k(    1) = (   0.0000000   0.0000000   0.0000000), wk =   1.0000000

     Dense  grid:   338755 G-vectors     FFT dimensions: (  90,  90,  90)

     Dynamical RAM for                 wfc:      23.15 MB

     Dynamical RAM for     wfc (w. buffer):      69.44 MB

     Dynamical RAM for           str. fact:       0.43 MB

     Dynamical RAM for           local pot:       0.00 MB

     Dynamical RAM for          nlocal pot:      46.30 MB

     Dynamical RAM for                qrad:       0.62 MB

     Dynamical RAM for          rho,v,vnew:       2.78 MB

     Dynamical RAM for           G-vectors:       0.92 MB

     Dynamical RAM for          h,s,v(r/c):       8.46 MB

     Dynamical RAM for          <psi|beta>:      22.57 MB

     Dynamical RAM for                 psi:      46.30 MB

     Dynamical RAM for                hpsi:      46.30 MB

     Dynamical RAM for                spsi:      46.30 MB

     Dynamical RAM for      wfcinit/wfcrot:      63.23 MB

     Dynamical RAM for           addusdens:      55.58 MB

     Estimated static dynamical RAM per process >     122.61 MB

     Estimated max dynamical RAM per process >     292.53 MB

     Estimated total dynamical RAM >       6.86 GB

     Check: negative core charge=   -0.000075
     Generating pointlists ...
     new r_m :   0.0571 (alat units)  1.1568 (a.u.) for type    1
     new r_m :   0.0572 (alat units)  1.1581 (a.u.) for type    2

     The potential is recalculated from file :
     ../tmp/diamond_pd.save/charge-density

     Starting wfcs are random
     Checking if some PAW data can be deallocated... 
       PAW data deallocated on   23 nodes for type:  2

     Band Structure Calculation
     Davidson diagonalization with overlap

     Computing kpt #:     1  of     2
     total cpu time spent up to now is      324.9 secs

     Computing kpt #:     2  of     2
     total cpu time spent up to now is      645.7 secs

     ethr =  1.16E-12,  avg # of iterations = 82.0

     total cpu time spent up to now is      645.7 secs

     End of band structure calculation

 ------ SPIN UP ------------


          k = 0.0000 0.0000 0.0000 ( 42379 PWs)   bands (ev):

    -8.2979  -7.6516  -7.2300  -7.2299  -7.1895  -7.1895  -7.1711  -6.6703
    -6.2542  -6.2541  -6.2212  -6.2212  -6.2079  -6.1868  -6.1868  -6.1830
    -6.1830  -6.1783  -6.0749  -5.4881  -5.2480  -5.2480  -5.2469  -5.2184
    -5.2159  -5.2159  -5.1005  -4.5620  -4.2480  -4.2480  -4.2333  -4.2333
    -4.1197  -3.8930  -3.4016  -3.4016  -3.3641  -3.3641  -3.3193  -3.3193
    -3.2958  -3.2931  -3.2925  -3.2925  -3.2872  -3.2856  -3.2856  -3.2792
    -3.2792  -3.2743  -3.2688  -3.2688  -3.2672  -3.2672  -3.2630  -3.2429
    -2.9723  -2.8048  -2.6221  -2.6221  -2.5411  -2.5327  -2.5327  -2.5205
    -2.5204  -2.5160  -2.5135  -2.5135  -2.4960  -2.4806  -2.4806  -2.4713
    -2.4687  -2.4687  -2.4656  -2.4626  -2.4626  -2.4537  -2.4385  -2.4385
    -1.8680  -1.0713  -0.8918  -0.8918  -0.8642  -0.8641  -0.8552  -0.8449
    -0.8449  -0.8252  -0.8131  -0.8131  -0.5438   0.2752   0.3898   0.3898
     0.4441   0.4441   0.5507   0.7112   0.8240   0.8240   0.9149   0.9149
     0.9233   0.9233   0.9257   0.9555   0.9555   0.9665   0.9945   1.0040
     1.0040   1.0125   1.0132   1.0132   1.0159   1.0159   1.0162   1.0357
     1.0359   1.0360   1.0420   1.1578   1.1703   1.1703   1.1815   1.1816
     1.1844   1.1844   1.2021   1.2021   1.2091   1.2091   1.2160   1.2382
     1.2382   1.2387   1.2388   1.2435   1.2435   1.2490   1.2491   1.2919
     1.4335   1.4335   1.9917   2.1985   2.1985   2.2116   2.2299   2.2712
     2.2737   2.2737   2.2823   2.2823   2.3395   2.3395   3.2716   3.6914
     3.6914   3.7182   3.7663   3.8086   3.8086   3.8353   3.8360   3.8361
     3.8430   3.8477   3.8523   3.8523   3.8563   3.8563   3.8573   3.9914
     3.9915   4.0015   4.0169   4.3418   4.3418   4.3810   4.4383   4.4421
     4.4421   4.4482   4.4742   4.4742   4.4958   4.4958   4.5072   4.5077
     4.5078   4.5136   4.5136   4.5224   4.5224   4.5242   4.5378   4.5498
     4.6745   4.6745   5.1716   5.1716   5.3028   5.3059   5.3531   5.3531
     5.3577   5.3756   5.3756   5.3866   5.4212   5.4212   5.4296   5.4337
     5.4337   5.4346   5.4387   5.4387   5.4520   5.4520   5.4579   5.5427
     5.5527   5.5527   5.6106   5.7790   5.7790   5.8087   5.8493   5.8493
     5.8767   5.8767   5.8895   5.8907   5.8907   5.8971   5.9005   5.9047
     5.9047   5.9068   5.9192   5.9192   5.9219   5.9219   5.9272   5.9315
     5.9363   5.9537   5.9537   6.0013   6.0013   6.2556   6.3111   6.3111
     6.8463   6.8463   6.9027   6.9193   6.9266   6.9266   6.9859   7.3552
     7.3552   7.4027   7.4799   7.4799   7.4864   7.4864   7.4957   7.5066
     7.5566   7.5566   7.6840   7.6840   7.7913   7.8202   7.8415   7.8415
     7.8471   7.8835   7.8836   7.9045   7.9198   7.9245   7.9245   7.9608
     7.9608   8.0251   8.0251   8.0561   8.1172   8.1743   8.1743   8.1819
     8.1959   8.1959   8.2014   8.2014   8.2250   8.2330   8.2493   8.2493
     8.2512   8.2614   8.2614   8.2725   8.2725   8.2836   8.2923   8.2924
     8.3003   8.3041   8.3225   8.3514   8.3514   8.3595   8.3611   8.3611
     8.3681   8.3838   8.3838   8.3905   8.3905   8.3913   8.3971   8.3971
     8.3991   8.4045   8.4056   8.4056   8.4099   8.4099   8.4146   8.4175
     8.4175   8.4186   8.4291   8.4291   8.4364   8.4682   8.4682   8.5139
     8.5139   8.5153   8.5200   8.5201   8.5284   8.5284   8.5287   8.5371
     8.5432   8.5433   8.5579   8.9688   8.9976   8.9976   9.1211   9.1212
     9.1601   9.1601   9.1771   9.2043   9.2074   9.2074   9.2258   9.2275
     9.2297   9.2297   9.2481   9.2481   9.2496   9.2575   9.2575   9.2688
     9.2734   9.2734   9.2912   9.7734   9.9566   9.9566  10.2068  10.5206
    10.5206  10.5449  10.5704  10.5763  10.5763  10.6398  10.6398  10.6459
    10.7124  10.7124  10.7128  10.7426  10.7426  10.8352  10.8352  10.8598
    10.8598  10.8598  10.8619  10.8623  10.8623  10.8678  10.8678  10.8775
    10.9254  10.9288  10.9288  10.9330  10.9330  11.3568  11.5960  11.5996
    11.5996  11.7600  11.7601  11.7742  11.8037  11.8038  11.8039  11.8158
    11.8193  11.8194  12.6465  12.9704  12.9705  13.3593  14.2407  14.2408
    17.3393  17.3499  17.3499  17.4199  17.4199  17.4392  17.8621  17.9598
    17.9598  17.9909  18.0011  18.0012  18.1235  18.1328  18.1329  18.2490
    18.2490  18.2504  18.8067  18.8097  18.8098  19.3179  19.5023  19.5023
    19.5118  19.5118  19.5146  19.5355  19.6142  19.6142  19.6401  19.6401
    19.6933  19.9921  20.1605  20.1606  20.1823  20.2130  20.2165  20.2166
    20.2291  20.2291  20.2782  20.2956  20.2978  20.2978  20.3138  20.3138
    20.3247  20.3281  20.3281  20.3825  20.3825  20.3835  20.4332  20.4332
    20.4567  20.6172  20.6173  20.6445  20.7224  20.7540  20.7540  20.7746
    20.7746  20.8187  20.8188  20.8198  20.8326  20.8413  20.8494  20.8494
    20.8517  20.8604  20.8604  20.8702  20.8703  20.8764  20.8878  20.8878
    20.8936  20.8936  20.8997  20.9038  20.9038  20.9054  20.9156  20.9255
    20.9256  20.9349  20.9349  20.9409  20.9435  21.0508  21.0617  21.0618
    21.1250  21.1251  21.1412  21.2243  21.2677  21.2677  21.3249  21.3392
    21.3568  21.3568  21.3852  21.3852  21.3892  21.3922  21.3922  21.4067
    21.4094  21.4095  21.4096  21.4183  21.4183  21.4276  21.4318  21.4318
    21.4365  21.4417  21.4417  21.4517  21.4517  21.4544  21.4654  21.4654
    21.4774  21.4775  21.4817  21.4922  21.5116  21.5116  21.5911  21.5911
    21.6017  21.6466  21.7149  21.7149  21.7371  21.7371  21.7382  21.7645
    21.7788  21.7788  21.7869  21.7942  21.8069  21.8089  21.8090  21.8176
    21.8176  21.9431  21.9431  22.0470  22.0471  22.0560  22.1562  22.1562
    22.1639  22.2186  22.2186  22.2267  22.2381  22.2381  22.2571  22.3879
    22.3963  22.3964  22.4360  22.4999  22.5000  22.5078  22.5079  22.5161
    22.5986  22.6029  22.6029  22.6147  22.8241  22.8242  22.8498  23.1318
    23.1318  23.1379  23.1387  23.1531  23.1531  23.1658  23.1681  23.1681
    23.1837  23.1958  23.1958  23.2028  23.2087  23.2151  23.2151  23.2288
    23.2819  23.2820  23.3712  23.3712  23.3964  23.4365  23.4366  23.7049
    23.7091  23.7317  23.7318  23.7912  23.7912  23.8801  23.8845  23.8845
    23.8956  23.9110  23.9110  23.9128  23.9500  23.9500  23.9571  23.9652
    23.9979  23.9979  24.0012  24.1145  24.1145  24.1294  24.1294  24.2338
    24.2338  24.2913  24.2964  24.3208  24.3208  24.3484  24.3484  24.3496
    24.3638  24.3638  24.3813  24.3940  24.3940  24.3968  24.4204  24.4205
    24.4367  24.4457  24.4457  24.4760  24.4804  24.4805  24.4968  24.5153
    24.5416  24.5417  24.5463  24.5469  24.5586  24.5586  24.5762  24.5782
    24.5783  24.5828  24.5828  24.5946  24.5998  24.5998  24.6099  24.6100
    24.6119  24.7662  24.7662  25.3131  25.3988  25.3989  25.4103  25.7936
    25.7936  25.7976  25.8565  25.8565  25.9861  26.0041  26.0041  26.0212
    26.0714  26.0714  26.1642  26.1642  26.1679  26.1797  26.2532  26.2533
    26.2550  26.4602  26.5625  26.5625  26.5769  26.6512  26.6569  26.6570
    26.6665  26.7101  26.7101  26.7271  26.7271  26.7362  26.7566  26.7566
    26.7918  26.8144  26.8460  26.8460  26.8661  26.8996  26.8996  26.9213
    26.9213  27.0419  27.0419  27.0913  27.0923  27.1118  27.1118  27.1755
    27.1756  27.1893  27.1917  27.1958  27.1958  27.2399  27.2523  27.2523
    27.2572  27.2688  27.2688  27.2823  27.2823  27.2915  27.3068  27.3119
    27.3119  27.3194  27.3194  27.3217  27.3247  27.3294  27.3294  27.3327
    27.3342  27.3342  27.3527  27.3527  27.3544  27.3670  27.3736  27.3737
    27.3996  27.4094  27.4094  27.4205  27.4352  27.4493  27.4493  27.4587
    27.4587  27.4670  27.4980  27.4980  27.5092  27.5320  27.5360  27.5360
    27.5589  27.5626  27.5626  27.5731  27.5731  27.5762  27.5815  27.5815
    27.6002  27.6077  27.6077  27.6323  27.6463  27.6463  27.6567  27.6583
    27.6643  27.6643  27.7051  27.7482  27.7482  27.7613  27.7614  27.9199
    27.9199  27.9252  27.9698  28.0241  28.0620  28.0620  28.0926  28.0927
    28.1207  28.1207  28.1272  28.1756  28.1756  28.2438  28.2737  28.3505
    28.3636  28.3636  28.3676  28.4222  28.4222  28.4235  29.0084  29.7806
    29.8362  29.8363  29.9068  29.9068

     occupation numbers 
     1.0000   1.0000   1.0000   1.0000   1.0000   1.0000   1.0000   1.0000
     1.0000   1.0000   1.0000   1.0000   1.0000   1.0000   1.0000   1.0000
     1.0000   1.0000   1.0000   1.0000   1.0000   1.0000   1.0000   1.0000
     1.0000   1.0000   1.0000   1.0000   1.0000   1.0000   1.0000   1.0000
     1.0000   1.0000   1.0000   1.0000   1.0000   1.0000   1.0000   1.0000
     1.0000   1.0000   1.0000   1.0000   1.0000   1.0000   1.0000   1.0000
     1.0000   1.0000   1.0000   1.0000   1.0000   1.0000   1.0000   1.0000
     1.0000   1.0000   1.0000   1.0000   1.0000   1.0000   1.0000   1.0000
     1.0000   1.0000   1.0000   1.0000   1.0000   1.0000   1.0000   1.0000
     1.0000   1.0000   1.0000   1.0000   1.0000   1.0000   1.0000   1.0000
     1.0000   1.0000   1.0000   1.0000   1.0000   1.0000   1.0000   1.0000
     1.0000   1.0000   1.0000   1.0000   1.0000   1.0000   1.0000   1.0000
     1.0000   1.0000   1.0000   1.0000   1.0000   1.0000   1.0000   1.0000
     1.0000   1.0000   1.0000   1.0000   1.0000   1.0000   1.0000   1.0000
     1.0000   1.0000   1.0000   1.0000   1.0000   1.0000   1.0000   1.0000
     1.0000   1.0000   1.0000   1.0000   1.0000   1.0000   1.0000   1.0000
     1.0000   1.0000   1.0000   1.0000   1.0000   1.0000   1.0000   1.0000
     1.0000   1.0000   1.0000   1.0000   1.0000   1.0000   1.0000   1.0000
     1.0000   1.0000   1.0000   1.0000   1.0000   1.0000   1.0000   1.0000
     1.0000   1.0000   1.0000   1.0000   1.0000   1.0000   1.0000   1.0000
     1.0000   1.0000   1.0000   1.0000   1.0000   1.0000   1.0000   1.0000
     1.0000   1.0000   1.0000   1.0000   1.0000   1.0000   1.0000   1.0000
     1.0000   1.0000   1.0000   1.0000   1.0000   1.0000   1.0000   1.0000
     1.0000   1.0000   1.0000   1.0000   1.0000   1.0000   1.0000   1.0000
     1.0000   1.0000   1.0000   1.0000   1.0000   1.0000   1.0000   1.0000
     1.0000   1.0000   1.0000   1.0000   1.0000   1.0000   1.0000   1.0000
     1.0000   1.0000   1.0000   1.0000   1.0000   1.0000   1.0000   1.0000
     1.0000   1.0000   1.0000   1.0000   1.0000   1.0000   1.0000   1.0000
     1.0000   1.0000   1.0000   1.0000   1.0000   1.0000   1.0000   1.0000
     1.0000   1.0000   1.0000   1.0000   1.0000   1.0000   1.0000   1.0000
     1.0000   1.0000   1.0000   1.0000   1.0000   1.0000   1.0000   1.0000
     1.0000   1.0000   1.0000   1.0000   1.0000   1.0000   1.0000   1.0000
     1.0000   1.0000   1.0000   1.0000   1.0000   1.0000   1.0000   1.0000
     1.0000   1.0000   1.0000   1.0000   1.0000   1.0000   1.0000   1.0000
     1.0000   1.0000   1.0000   1.0000   1.0000   1.0000   1.0000   1.0000
     1.0000   1.0000   1.0000   1.0000   1.0000   1.0000   1.0000   1.0000
     1.0000   1.0000   1.0000   1.0000   1.0000   1.0000   1.0000   1.0000
     1.0000   1.0000   1.0000   1.0000   1.0000   1.0000   1.0000   1.0000
     1.0000   1.0000   1.0000   1.0000   1.0000   1.0000   1.0000   1.0000
     1.0000   1.0000   1.0000   1.0000   1.0000   1.0000   1.0000   1.0000
     1.0000   1.0000   1.0000   1.0000   1.0000   1.0000   1.0000   1.0000
     1.0000   1.0000   1.0000   1.0000   1.0000   1.0000   1.0000   1.0000
     1.0000   1.0000   1.0000   1.0000   1.0000   1.0000   1.0000   1.0000
     1.0000   1.0000   1.0000   1.0000   1.0000   1.0000   1.0000   1.0000
     1.0000   1.0000   1.0000   1.0000   1.0000   1.0000   1.0000   1.0000
     1.0000   1.0000   1.0000   1.0000   1.0000   1.0000   1.0000   1.0000
     1.0000   1.0000   1.0000   1.0000   1.0000   1.0000   1.0000   1.0000
     1.0000   1.0000   1.0000   1.0000   1.0000   1.0000   1.0000   1.0000
     1.0000   1.0000   1.0000   1.0000   1.0000   1.0000   1.0000   1.0000
     1.0000   1.0000   1.0000   1.0000   1.0000   1.0000   1.0000   1.0000
     1.0000   1.0000   1.0000   1.0000   1.0000   1.0000   1.0000   1.0000
     1.0000   1.0000   1.0000   1.0000   1.0000   1.0000   1.0000   1.0000
     1.0000   1.0000   1.0000   1.0000   1.0000   1.0000   1.0000   1.0000
     1.0000   1.0000   1.0000   1.0000   1.0000   1.0000   0.0000   0.0000
     0.0000   0.0000   0.0000   0.0000   0.0000   0.0000   0.0000   0.0000
     0.0000   0.0000   0.0000   0.0000   0.0000   0.0000   0.0000   0.0000
     0.0000   0.0000   0.0000   0.0000   0.0000   0.0000   0.0000   0.0000
     0.0000   0.0000   0.0000   0.0000   0.0000   0.0000   0.0000   0.0000
     0.0000   0.0000   0.0000   0.0000   0.0000   0.0000   0.0000   0.0000
     0.0000   0.0000   0.0000   0.0000   0.0000   0.0000   0.0000   0.0000
     0.0000   0.0000   0.0000   0.0000   0.0000   0.0000   0.0000   0.0000
     0.0000   0.0000   0.0000   0.0000   0.0000   0.0000   0.0000   0.0000
     0.0000   0.0000   0.0000   0.0000   0.0000   0.0000   0.0000   0.0000
     0.0000   0.0000   0.0000   0.0000   0.0000   0.0000   0.0000   0.0000
     0.0000   0.0000   0.0000   0.0000   0.0000   0.0000   0.0000   0.0000
     0.0000   0.0000   0.0000   0.0000   0.0000   0.0000   0.0000   0.0000
     0.0000   0.0000   0.0000   0.0000   0.0000   0.0000   0.0000   0.0000
     0.0000   0.0000   0.0000   0.0000   0.0000   0.0000   0.0000   0.0000
     0.0000   0.0000   0.0000   0.0000   0.0000   0.0000   0.0000   0.0000
     0.0000   0.0000   0.0000   0.0000   0.0000   0.0000   0.0000   0.0000
     0.0000   0.0000   0.0000   0.0000   0.0000   0.0000   0.0000   0.0000
     0.0000   0.0000   0.0000   0.0000   0.0000   0.0000   0.0000   0.0000
     0.0000   0.0000   0.0000   0.0000   0.0000   0.0000   0.0000   0.0000
     0.0000   0.0000   0.0000   0.0000   0.0000   0.0000   0.0000   0.0000
     0.0000   0.0000   0.0000   0.0000   0.0000   0.0000   0.0000   0.0000
     0.0000   0.0000   0.0000   0.0000   0.0000   0.0000   0.0000   0.0000
     0.0000   0.0000   0.0000   0.0000   0.0000   0.0000   0.0000   0.0000
     0.0000   0.0000   0.0000   0.0000   0.0000   0.0000   0.0000   0.0000
     0.0000   0.0000   0.0000   0.0000   0.0000   0.0000   0.0000   0.0000
     0.0000   0.0000   0.0000   0.0000   0.0000   0.0000   0.0000   0.0000
     0.0000   0.0000   0.0000   0.0000   0.0000   0.0000   0.0000   0.0000
     0.0000   0.0000   0.0000   0.0000   0.0000   0.0000   0.0000   0.0000
     0.0000   0.0000   0.0000   0.0000   0.0000   0.0000   0.0000   0.0000
     0.0000   0.0000   0.0000   0.0000   0.0000   0.0000   0.0000   0.0000
     0.0000   0.0000   0.0000   0.0000   0.0000   0.0000   0.0000   0.0000
     0.0000   0.0000   0.0000   0.0000   0.0000   0.0000   0.0000   0.0000
     0.0000   0.0000   0.0000   0.0000   0.0000   0.0000   0.0000   0.0000
     0.0000   0.0000   0.0000   0.0000   0.0000   0.0000   0.0000   0.0000
     0.0000   0.0000   0.0000   0.0000   0.0000   0.0000   0.0000   0.0000
     0.0000   0.0000   0.0000   0.0000   0.0000   0.0000   0.0000   0.0000
     0.0000   0.0000   0.0000   0.0000   0.0000   0.0000   0.0000   0.0000
     0.0000   0.0000   0.0000   0.0000   0.0000   0.0000   0.0000   0.0000
     0.0000   0.0000   0.0000   0.0000   0.0000   0.0000   0.0000   0.0000
     0.0000   0.0000   0.0000   0.0000   0.0000   0.0000   0.0000   0.0000
     0.0000   0.0000   0.0000   0.0000   0.0000   0.0000   0.0000   0.0000
     0.0000   0.0000   0.0000   0.0000   0.0000   0.0000   0.0000   0.0000
     0.0000   0.0000   0.0000   0.0000   0.0000   0.0000   0.0000   0.0000
     0.0000   0.0000   0.0000   0.0000   0.0000   0.0000   0.0000   0.0000
     0.0000   0.0000   0.0000   0.0000   0.0000   0.0000   0.0000   0.0000
     0.0000   0.0000   0.0000   0.0000   0.0000   0.0000   0.0000   0.0000
     0.0000   0.0000   0.0000   0.0000   0.0000   0.0000   0.0000   0.0000
     0.0000   0.0000   0.0000   0.0000   0.0000   0.0000   0.0000   0.0000
     0.0000   0.0000   0.0000   0.0000   0.0000   0.0000   0.0000   0.0000
     0.0000   0.0000   0.0000   0.0000   0.0000   0.0000   0.0000   0.0000
     0.0000   0.0000   0.0000   0.0000   0.0000   0.0000   0.0000   0.0000
     0.0000   0.0000   0.0000   0.0000   0.0000   0.0000   0.0000   0.0000
     0.0000   0.0000   0.0000   0.0000   0.0000   0.0000   0.0000   0.0000
     0.0000   0.0000   0.0000   0.0000

 ------ SPIN DOWN ----------


          k = 0.0000 0.0000 0.0000 ( 42379 PWs)   bands (ev):

    -8.2792  -7.6012  -7.2244  -7.2244  -7.1854  -7.1854  -7.1617  -6.6434
    -6.2466  -6.2466  -6.2155  -6.2155  -6.2015  -6.1821  -6.1821  -6.1790
    -6.1790  -6.1752  -6.0627  -5.4696  -5.2417  -5.2405  -5.2405  -5.2128
    -5.2110  -5.2110  -5.0925  -4.5384  -4.2414  -4.2414  -4.2265  -4.2265
    -4.1131  -3.8753  -3.3901  -3.3901  -3.3537  -3.3537  -3.3128  -3.3128
    -3.2908  -3.2881  -3.2881  -3.2860  -3.2825  -3.2818  -3.2818  -3.2735
    -3.2735  -3.2703  -3.2621  -3.2621  -3.2615  -3.2615  -3.2599  -3.2400
    -2.9630  -2.7953  -2.6111  -2.6111  -2.5333  -2.5249  -2.5249  -2.5162
    -2.5162  -2.5092  -2.5086  -2.5086  -2.4911  -2.4755  -2.4755  -2.4651
    -2.4640  -2.4640  -2.4618  -2.4588  -2.4588  -2.4473  -2.4321  -2.4321
    -1.8458  -1.0574  -0.8852  -0.8851  -0.8562  -0.8562  -0.8498  -0.8374
    -0.8374  -0.8195  -0.8069  -0.8069  -0.5300   0.2922   0.3980   0.3980
     0.4512   0.4512   0.5558   0.7244   0.8342   0.8342   0.9239   0.9239
     0.9305   0.9314   0.9315   0.9634   0.9635   0.9725   1.0017   1.0100
     1.0100   1.0182   1.0182   1.0204   1.0204   1.0206   1.0216   1.0402
     1.0407   1.0407   1.0451   1.1664   1.1761   1.1761   1.1840   1.1881
     1.1882   1.1891   1.2076   1.2076   1.2137   1.2137   1.2240   1.2413
     1.2420   1.2420   1.2437   1.2491   1.2491   1.2534   1.2534   1.3109
     1.4461   1.4461   2.0009   2.2060   2.2060   2.2227   2.2332   2.2781
     2.2781   2.2787   2.2888   2.2888   2.3495   2.3495   3.3016   3.7026
     3.7027   3.7277   3.7786   3.8149   3.8150   3.8413   3.8413   3.8433
     3.8468   3.8533   3.8559   3.8559   3.8597   3.8597   3.8606   3.9998
     3.9998   4.0141   4.0239   4.3528   4.3528   4.3936   4.4496   4.4521
     4.4532   4.4532   4.4792   4.4792   4.5026   4.5026   4.5111   4.5126
     4.5126   4.5187   4.5187   4.5285   4.5285   4.5293   4.5417   4.5595
     4.6847   4.6847   5.1846   5.1846   5.3081   5.3225   5.3607   5.3608
     5.3630   5.3861   5.3861   5.3915   5.4255   5.4255   5.4349   5.4375
     5.4381   5.4381   5.4435   5.4435   5.4561   5.4561   5.4630   5.5577
     5.5596   5.5597   5.6256   5.7868   5.7868   5.8206   5.8566   5.8566
     5.8823   5.8823   5.8959   5.8960   5.8963   5.9009   5.9041   5.9107
     5.9112   5.9112   5.9242   5.9242   5.9279   5.9279   5.9348   5.9403
     5.9415   5.9599   5.9599   6.0073   6.0073   6.2795   6.3247   6.3247
     6.8540   6.8540   6.9057   6.9343   6.9351   6.9351   7.0126   7.3669
     7.3669   7.4206   7.4848   7.4848   7.4939   7.4939   7.4980   7.5170
     7.5626   7.5626   7.6949   7.6949   7.8113   7.8242   7.8504   7.8505
     7.8597   7.8904   7.8904   7.9067   7.9292   7.9300   7.9300   7.9679
     7.9679   8.0352   8.0353   8.0611   8.1242   8.1850   8.1850   8.1905
     8.2019   8.2019   8.2104   8.2104   8.2301   8.2374   8.2566   8.2566
     8.2577   8.2666   8.2666   8.2778   8.2778   8.2927   8.2971   8.2972
     8.3040   8.3149   8.3288   8.3589   8.3589   8.3663   8.3663   8.3687
     8.3777   8.3880   8.3880   8.3943   8.3960   8.3960   8.4014   8.4035
     8.4035   8.4086   8.4088   8.4088   8.4177   8.4177   8.4230   8.4249
     8.4249   8.4267   8.4344   8.4344   8.4428   8.4767   8.4767   8.5177
     8.5185   8.5185   8.5239   8.5239   8.5367   8.5367   8.5385   8.5430
     8.5507   8.5507   8.5615   8.9912   9.0054   9.0054   9.1267   9.1268
     9.1690   9.1690   9.1797   9.2096   9.2165   9.2165   9.2286   9.2330
     9.2331   9.2404   9.2527   9.2540   9.2540   9.2658   9.2658   9.2749
     9.2807   9.2807   9.2954   9.8617   9.9750   9.9750  10.2912  10.5282
    10.5282  10.5658  10.5721  10.5854  10.5854  10.6461  10.6461  10.6472
    10.7166  10.7166  10.7199  10.7476  10.7477  10.8448  10.8448  10.8612
    10.8654  10.8654  10.8710  10.8710  10.8740  10.8740  10.8756  10.8800
    10.9345  10.9345  10.9350  10.9386  10.9386  11.4762  11.6079  11.6080
    11.6286  11.7657  11.7657  11.7769  11.8076  11.8151  11.8151  11.8195
    11.8267  11.8268  12.7901  12.9865  12.9866  13.4962  14.3805  14.3805
    17.3508  17.3544  17.3544  17.4245  17.4245  17.4459  17.8726  17.9647
    17.9647  17.9969  18.0046  18.0046  18.1326  18.1374  18.1374  18.2546
    18.2546  18.2571  18.8148  18.8149  18.8173  19.3418  19.5083  19.5083
    19.5156  19.5156  19.5172  19.5415  19.6189  19.6189  19.6440  19.6440
    19.6976  20.0088  20.1664  20.1664  20.1888  20.2169  20.2252  20.2252
    20.2346  20.2346  20.2838  20.2999  20.3016  20.3016  20.3194  20.3194
    20.3279  20.3329  20.3330  20.3868  20.3868  20.3887  20.4382  20.4383
    20.4623  20.6260  20.6261  20.6573  20.7269  20.7612  20.7612  20.7823
    20.7823  20.8251  20.8252  20.8296  20.8371  20.8458  20.8534  20.8534
    20.8548  20.8656  20.8656  20.8762  20.8762  20.8834  20.8925  20.8926
    20.8977  20.8977  20.9025  20.9090  20.9090  20.9102  20.9190  20.9313
    20.9313  20.9404  20.9405  20.9471  20.9479  21.0595  21.0669  21.0670
    21.1291  21.1291  21.1484  21.2352  21.2745  21.2745  21.3284  21.3463
    21.3621  21.3622  21.3886  21.3886  21.3925  21.3967  21.3968  21.4122
    21.4136  21.4150  21.4150  21.4233  21.4233  21.4306  21.4391  21.4391
    21.4462  21.4468  21.4468  21.4557  21.4558  21.4582  21.4716  21.4717
    21.4820  21.4820  21.4899  21.4961  21.5157  21.5158  21.5956  21.5956
    21.6116  21.6579  21.7219  21.7219  21.7417  21.7417  21.7456  21.7729
    21.7828  21.7828  21.7913  21.8042  21.8097  21.8168  21.8168  21.8238
    21.8239  21.9530  21.9530  22.0525  22.0525  22.0625  22.1635  22.1635
    22.1661  22.2246  22.2246  22.2407  22.2461  22.2462  22.2595  22.3969
    22.4024  22.4024  22.4449  22.5057  22.5058  22.5130  22.5130  22.5190
    22.6118  22.6118  22.6129  22.6310  22.8327  22.8328  22.8627  23.1371
    23.1371  23.1416  23.1467  23.1579  23.1579  23.1733  23.1733  23.1807
    23.1859  23.1989  23.1989  23.2057  23.2124  23.2181  23.2181  23.2371
    23.2897  23.2897  23.3784  23.3784  23.4119  23.4462  23.4462  23.7101
    23.7314  23.7404  23.7404  23.7971  23.7971  23.8829  23.8912  23.8912
    23.8976  23.9172  23.9174  23.9174  23.9561  23.9561  23.9694  23.9694
    24.0042  24.0042  24.0048  24.1245  24.1245  24.1435  24.1435  24.2417
    24.2417  24.2959  24.3071  24.3294  24.3294  24.3539  24.3539  24.3582
    24.3700  24.3701  24.3853  24.4015  24.4015  24.4030  24.4288  24.4288
    24.4502  24.4523  24.4524  24.4825  24.4885  24.4885  24.5086  24.5191
    24.5482  24.5482  24.5507  24.5526  24.5652  24.5652  24.5819  24.5856
    24.5856  24.5891  24.5891  24.5980  24.6050  24.6050  24.6166  24.6172
    24.6173  24.7786  24.7786  25.3322  25.4128  25.4129  25.4256  25.7996
    25.7996  25.8093  25.8612  25.8612  25.9890  26.0149  26.0149  26.0265
    26.0778  26.0778  26.1731  26.1731  26.1819  26.1843  26.2593  26.2594
    26.2630  26.4755  26.5722  26.5722  26.5908  26.6556  26.6637  26.6638
    26.6735  26.7172  26.7172  26.7330  26.7330  26.7472  26.7626  26.7626
    26.8013  26.8169  26.8519  26.8519  26.8737  26.9053  26.9054  26.9280
    26.9281  27.0542  27.0542  27.0942  27.1039  27.1208  27.1208  27.1811
    27.1811  27.1949  27.2049  27.2049  27.2088  27.2533  27.2558  27.2559
    27.2663  27.2755  27.2755  27.2898  27.2899  27.2959  27.3104  27.3170
    27.3171  27.3260  27.3260  27.3281  27.3300  27.3345  27.3345  27.3392
    27.3392  27.3406  27.3579  27.3590  27.3590  27.3757  27.3787  27.3787
    27.4108  27.4144  27.4144  27.4232  27.4435  27.4546  27.4547  27.4628
    27.4628  27.4721  27.5047  27.5047  27.5120  27.5386  27.5407  27.5408
    27.5649  27.5687  27.5687  27.5790  27.5790  27.5799  27.5854  27.5854
    27.6099  27.6132  27.6132  27.6386  27.6528  27.6528  27.6608  27.6657
    27.6697  27.6697  27.7201  27.7604  27.7605  27.7705  27.7705  27.9319
    27.9320  27.9358  27.9759  28.0327  28.0717  28.0718  28.0969  28.0969
    28.1255  28.1255  28.1342  28.1896  28.1896  28.2559  28.2864  28.3591
    28.3676  28.3676  28.3727  28.4280  28.4280  28.4335  29.0672  29.7953
    29.8410  29.8410  29.9175  29.9175

     occupation numbers 
     1.0000   1.0000   1.0000   1.0000   1.0000   1.0000   1.0000   1.0000
     1.0000   1.0000   1.0000   1.0000   1.0000   1.0000   1.0000   1.0000
     1.0000   1.0000   1.0000   1.0000   1.0000   1.0000   1.0000   1.0000
     1.0000   1.0000   1.0000   1.0000   1.0000   1.0000   1.0000   1.0000
     1.0000   1.0000   1.0000   1.0000   1.0000   1.0000   1.0000   1.0000
     1.0000   1.0000   1.0000   1.0000   1.0000   1.0000   1.0000   1.0000
     1.0000   1.0000   1.0000   1.0000   1.0000   1.0000   1.0000   1.0000
     1.0000   1.0000   1.0000   1.0000   1.0000   1.0000   1.0000   1.0000
     1.0000   1.0000   1.0000   1.0000   1.0000   1.0000   1.0000   1.0000
     1.0000   1.0000   1.0000   1.0000   1.0000   1.0000   1.0000   1.0000
     1.0000   1.0000   1.0000   1.0000   1.0000   1.0000   1.0000   1.0000
     1.0000   1.0000   1.0000   1.0000   1.0000   1.0000   1.0000   1.0000
     1.0000   1.0000   1.0000   1.0000   1.0000   1.0000   1.0000   1.0000
     1.0000   1.0000   1.0000   1.0000   1.0000   1.0000   1.0000   1.0000
     1.0000   1.0000   1.0000   1.0000   1.0000   1.0000   1.0000   1.0000
     1.0000   1.0000   1.0000   1.0000   1.0000   1.0000   1.0000   1.0000
     1.0000   1.0000   1.0000   1.0000   1.0000   1.0000   1.0000   1.0000
     1.0000   1.0000   1.0000   1.0000   1.0000   1.0000   1.0000   1.0000
     1.0000   1.0000   1.0000   1.0000   1.0000   1.0000   1.0000   1.0000
     1.0000   1.0000   1.0000   1.0000   1.0000   1.0000   1.0000   1.0000
     1.0000   1.0000   1.0000   1.0000   1.0000   1.0000   1.0000   1.0000
     1.0000   1.0000   1.0000   1.0000   1.0000   1.0000   1.0000   1.0000
     1.0000   1.0000   1.0000   1.0000   1.0000   1.0000   1.0000   1.0000
     1.0000   1.0000   1.0000   1.0000   1.0000   1.0000   1.0000   1.0000
     1.0000   1.0000   1.0000   1.0000   1.0000   1.0000   1.0000   1.0000
     1.0000   1.0000   1.0000   1.0000   1.0000   1.0000   1.0000   1.0000
     1.0000   1.0000   1.0000   1.0000   1.0000   1.0000   1.0000   1.0000
     1.0000   1.0000   1.0000   1.0000   1.0000   1.0000   1.0000   1.0000
     1.0000   1.0000   1.0000   1.0000   1.0000   1.0000   1.0000   1.0000
     1.0000   1.0000   1.0000   1.0000   1.0000   1.0000   1.0000   1.0000
     1.0000   1.0000   1.0000   1.0000   1.0000   1.0000   1.0000   1.0000
     1.0000   1.0000   1.0000   1.0000   1.0000   1.0000   1.0000   1.0000
     1.0000   1.0000   1.0000   1.0000   1.0000   1.0000   1.0000   1.0000
     1.0000   1.0000   1.0000   1.0000   1.0000   1.0000   1.0000   1.0000
     1.0000   1.0000   1.0000   1.0000   1.0000   1.0000   1.0000   1.0000
     1.0000   1.0000   1.0000   1.0000   1.0000   1.0000   1.0000   1.0000
     1.0000   1.0000   1.0000   1.0000   1.0000   1.0000   1.0000   1.0000
     1.0000   1.0000   1.0000   1.0000   1.0000   1.0000   1.0000   1.0000
     1.0000   1.0000   1.0000   1.0000   1.0000   1.0000   1.0000   1.0000
     1.0000   1.0000   1.0000   1.0000   1.0000   1.0000   1.0000   1.0000
     1.0000   1.0000   1.0000   1.0000   1.0000   1.0000   1.0000   1.0000
     1.0000   1.0000   1.0000   1.0000   1.0000   1.0000   1.0000   1.0000
     1.0000   1.0000   1.0000   1.0000   1.0000   1.0000   1.0000   1.0000
     1.0000   1.0000   1.0000   1.0000   1.0000   1.0000   1.0000   1.0000
     1.0000   1.0000   1.0000   1.0000   1.0000   1.0000   1.0000   1.0000
     1.0000   1.0000   1.0000   1.0000   1.0000   1.0000   1.0000   1.0000
     1.0000   1.0000   1.0000   1.0000   1.0000   1.0000   1.0000   1.0000
     1.0000   1.0000   1.0000   1.0000   1.0000   1.0000   1.0000   1.0000
     1.0000   1.0000   1.0000   1.0000   1.0000   1.0000   1.0000   1.0000
     1.0000   1.0000   1.0000   1.0000   1.0000   1.0000   1.0000   1.0000
     1.0000   1.0000   1.0000   1.0000   1.0000   1.0000   1.0000   1.0000
     1.0000   1.0000   1.0000   1.0000   1.0000   1.0000   1.0000   1.0000
     1.0000   1.0000   1.0000   1.0000   1.0000   1.0000   1.0000   1.0000
     1.0000   1.0000   1.0000   1.0000   1.0000   0.0000   0.0000   0.0000
     0.0000   0.0000   0.0000   0.0000   0.0000   0.0000   0.0000   0.0000
     0.0000   0.0000   0.0000   0.0000   0.0000   0.0000   0.0000   0.0000
     0.0000   0.0000   0.0000   0.0000   0.0000   0.0000   0.0000   0.0000
     0.0000   0.0000   0.0000   0.0000   0.0000   0.0000   0.0000   0.0000
     0.0000   0.0000   0.0000   0.0000   0.0000   0.0000   0.0000   0.0000
     0.0000   0.0000   0.0000   0.0000   0.0000   0.0000   0.0000   0.0000
     0.0000   0.0000   0.0000   0.0000   0.0000   0.0000   0.0000   0.0000
     0.0000   0.0000   0.0000   0.0000   0.0000   0.0000   0.0000   0.0000
     0.0000   0.0000   0.0000   0.0000   0.0000   0.0000   0.0000   0.0000
     0.0000   0.0000   0.0000   0.0000   0.0000   0.0000   0.0000   0.0000
     0.0000   0.0000   0.0000   0.0000   0.0000   0.0000   0.0000   0.0000
     0.0000   0.0000   0.0000   0.0000   0.0000   0.0000   0.0000   0.0000
     0.0000   0.0000   0.0000   0.0000   0.0000   0.0000   0.0000   0.0000
     0.0000   0.0000   0.0000   0.0000   0.0000   0.0000   0.0000   0.0000
     0.0000   0.0000   0.0000   0.0000   0.0000   0.0000   0.0000   0.0000
     0.0000   0.0000   0.0000   0.0000   0.0000   0.0000   0.0000   0.0000
     0.0000   0.0000   0.0000   0.0000   0.0000   0.0000   0.0000   0.0000
     0.0000   0.0000   0.0000   0.0000   0.0000   0.0000   0.0000   0.0000
     0.0000   0.0000   0.0000   0.0000   0.0000   0.0000   0.0000   0.0000
     0.0000   0.0000   0.0000   0.0000   0.0000   0.0000   0.0000   0.0000
     0.0000   0.0000   0.0000   0.0000   0.0000   0.0000   0.0000   0.0000
     0.0000   0.0000   0.0000   0.0000   0.0000   0.0000   0.0000   0.0000
     0.0000   0.0000   0.0000   0.0000   0.0000   0.0000   0.0000   0.0000
     0.0000   0.0000   0.0000   0.0000   0.0000   0.0000   0.0000   0.0000
     0.0000   0.0000   0.0000   0.0000   0.0000   0.0000   0.0000   0.0000
     0.0000   0.0000   0.0000   0.0000   0.0000   0.0000   0.0000   0.0000
     0.0000   0.0000   0.0000   0.0000   0.0000   0.0000   0.0000   0.0000
     0.0000   0.0000   0.0000   0.0000   0.0000   0.0000   0.0000   0.0000
     0.0000   0.0000   0.0000   0.0000   0.0000   0.0000   0.0000   0.0000
     0.0000   0.0000   0.0000   0.0000   0.0000   0.0000   0.0000   0.0000
     0.0000   0.0000   0.0000   0.0000   0.0000   0.0000   0.0000   0.0000
     0.0000   0.0000   0.0000   0.0000   0.0000   0.0000   0.0000   0.0000
     0.0000   0.0000   0.0000   0.0000   0.0000   0.0000   0.0000   0.0000
     0.0000   0.0000   0.0000   0.0000   0.0000   0.0000   0.0000   0.0000
     0.0000   0.0000   0.0000   0.0000   0.0000   0.0000   0.0000   0.0000
     0.0000   0.0000   0.0000   0.0000   0.0000   0.0000   0.0000   0.0000
     0.0000   0.0000   0.0000   0.0000   0.0000   0.0000   0.0000   0.0000
     0.0000   0.0000   0.0000   0.0000   0.0000   0.0000   0.0000   0.0000
     0.0000   0.0000   0.0000   0.0000   0.0000   0.0000   0.0000   0.0000
     0.0000   0.0000   0.0000   0.0000   0.0000   0.0000   0.0000   0.0000
     0.0000   0.0000   0.0000   0.0000   0.0000   0.0000   0.0000   0.0000
     0.0000   0.0000   0.0000   0.0000   0.0000   0.0000   0.0000   0.0000
     0.0000   0.0000   0.0000   0.0000   0.0000   0.0000   0.0000   0.0000
     0.0000   0.0000   0.0000   0.0000   0.0000   0.0000   0.0000   0.0000
     0.0000   0.0000   0.0000   0.0000   0.0000   0.0000   0.0000   0.0000
     0.0000   0.0000   0.0000   0.0000   0.0000   0.0000   0.0000   0.0000
     0.0000   0.0000   0.0000   0.0000   0.0000   0.0000   0.0000   0.0000
     0.0000   0.0000   0.0000   0.0000   0.0000   0.0000   0.0000   0.0000
     0.0000   0.0000   0.0000   0.0000   0.0000   0.0000   0.0000   0.0000
     0.0000   0.0000   0.0000   0.0000   0.0000   0.0000   0.0000   0.0000
     0.0000   0.0000   0.0000   0.0000   0.0000   0.0000   0.0000   0.0000
     0.0000   0.0000   0.0000   0.0000   0.0000   0.0000   0.0000   0.0000
     0.0000   0.0000   0.0000   0.0000   0.0000   0.0000   0.0000   0.0000
     0.0000   0.0000   0.0000   0.0000

     highest occupied, lowest unoccupied level (ev):    13.35934104   13.49622486

     Writing all to output data dir ../tmp/diamond_pd.save/ :
     XML data file, pseudopotentials, collected wavefunctions
 
     init_run     :      1.32s CPU      1.65s WALL (       1 calls)
     electrons    :    636.04s CPU    643.53s WALL (       1 calls)

     Called by init_run:
     wfcinit      :      0.00s CPU      0.00s WALL (       1 calls)
     wfcinit:wfcr :      9.13s CPU      9.32s WALL (       2 calls)
     potinit      :      0.96s CPU      1.22s WALL (       1 calls)
     hinit0       :      0.16s CPU      0.19s WALL (       1 calls)

     Called by electrons:
     c_bands      :    636.04s CPU    643.52s WALL (       1 calls)
     v_of_rho     :      0.04s CPU      0.05s WALL (       1 calls)
     v_h          :      0.00s CPU      0.00s WALL (       1 calls)
     v_xc         :      0.04s CPU      0.05s WALL (       1 calls)
     newd         :      0.12s CPU      0.14s WALL (       1 calls)
     PAW_pot      :      0.90s CPU      1.05s WALL (       1 calls)

     Called by c_bands:
     init_us_2    :      0.09s CPU      0.11s WALL (       2 calls)
     cegterg      :    626.58s CPU    633.77s WALL (      10 calls)

     Called by sum_band:

     Called by *egterg:
     cdiaghg      :    111.62s CPU    114.88s WALL (     166 calls)
     cegterg:over :     85.60s CPU     86.11s WALL (     164 calls)
     cegterg:upda :     55.09s CPU     55.46s WALL (     164 calls)
     cegterg:last :    153.25s CPU    154.12s WALL (      66 calls)
     cdiaghg:chol :     10.72s CPU     10.79s WALL (     166 calls)
     cdiaghg:inve :      4.75s CPU      4.77s WALL (     166 calls)
     cdiaghg:para :     39.40s CPU     41.64s WALL (     332 calls)
     h_psi        :    159.58s CPU    161.23s WALL (     176 calls)
     s_psi        :     59.78s CPU     60.12s WALL (     176 calls)
     g_psi        :      0.69s CPU      0.70s WALL (     164 calls)

     Called by h_psi:
     h_psi:calbec :     58.84s CPU     59.18s WALL (     176 calls)
     vloc_psi     :     39.75s CPU     40.52s WALL (     176 calls)
     add_vuspsi   :     59.84s CPU     60.21s WALL (     176 calls)

     General routines
     calbec       :     58.84s CPU     59.18s WALL (     176 calls)
     fft          :      0.02s CPU      0.03s WALL (      21 calls)
     fftw         :     34.58s CPU     35.26s WALL (  115726 calls)
 
     Parallel routines

     PAW routines
     PAW_pot      :      0.90s CPU      1.05s WALL (       1 calls)
 
     PWSCF        :  10m38.42s CPU  10m57.46s WALL

 
   This run was terminated on:  13:32:49   4Aug2026            

=------------------------------------------------------------------------------=
   JOB DONE.
=------------------------------------------------------------------------------=
