
     Program PWSCF v.7.4.1 starts on 23Aug2026 at  0:29: 0 

     This program is part of the open-source Quantum ESPRESSO suite
     for quantum simulation of materials; please cite
         "P. Giannozzi et al., J. Phys.:Condens. Matter 21 395502 (2009);
         "P. Giannozzi et al., J. Phys.:Condens. Matter 29 465901 (2017);
         "P. Giannozzi et al., J. Chem. Phys. 152 154105 (2020);
          URL http://www.quantum-espresso.org", 
     in publications or presentations arising from this work. More details at
     http://www.quantum-espresso.org/quote

     Parallel version (MPI), running on    24 processors

     MPI processes distributed on     1 nodes
     123496 MiB available memory on the printing compute node when the environment starts
 
     Reading input from scf.in

     Current dimensions of program PWSCF are:
     Max number of different atomic species (ntypx) = 10
     Max number of k-points (npk) =  40000
     Max angular momentum in pseudopotentials (lmaxx) =  4
     file C.pbe-n-kjpaw_psl.1.0.0.UPF: wavefunction(s)  2S 2P renormalized
     file N.pbe-n-kjpaw_psl.1.0.0.UPF: wavefunction(s)  2S renormalized
 
     R & G space division:  proc/nbgrp/npool/nimage =      24
     Subspace diagonalization in iterative solution of the eigenvalue problem:
     one sub-group per band group will be used
     scalapack distributed-memory algorithm (size of sub-group:  4*  4 procs)

 
     Parallelization info
     --------------------
     sticks:   dense  smooth     PW     G-vecs:    dense   smooth      PW
     Min         244     244     61                14112    14112    1765
     Max         245     245     62                14117    14117    1768
     Sum        5877    5877   1473               338755   338755   42379
 
     Using Slab Decomposition
 


     bravais-lattice index     =            0
     lattice parameter (alat)  =      20.2515  a.u.
     unit-cell volume          =    8305.5769 (a.u.)^3
     number of atoms/cell      =          215
     number of atomic types    =            2
     number of electrons       =       862.00 (up: 432.00, down: 430.00)
     number of Kohn-Sham states=          862
     kinetic-energy cutoff     =      45.0000  Ry
     charge density cutoff     =     180.0000  Ry
     scf convergence threshold =      1.0E-08
     mixing beta               =       0.7000
     number of iterations used =            8  plain     mixing
     Exchange-correlation= SLA  PW   PBX  PBC
                           (   1   4   3   4   0   0   0)

     celldm(1)=  20.251472  celldm(2)=   0.000000  celldm(3)=   0.000000
     celldm(4)=   0.000000  celldm(5)=   0.000000  celldm(6)=   0.000000

     crystal axes: (cart. coord. in units of alat)
               a(1) = (  -0.707107   0.000000   0.707107 )  
               a(2) = (   0.408248   0.816497   0.408248 )  
               a(3) = (  -0.577350   0.577350  -0.577350 )  

     reciprocal axes: (cart. coord. in units 2 pi/alat)
               b(1) = ( -0.707107  0.000000  0.707107 )  
               b(2) = (  0.408248  0.816497  0.408248 )  
               b(3) = ( -0.577350  0.577350 -0.577350 )  


     PseudoPot. # 1 for C  read from file:
     ../../pseudos/C.pbe-n-kjpaw_psl.1.0.0.UPF
     MD5 check sum: 5f16ad9a65e90284d1d834d4ab3b0f7d
     Pseudo is Projector augmented-wave + core cor, Zval =  4.0
     Generated using &quot;atomic&quot; code by A. Dal Corso  v.6.3
     Shape of augmentation charge: PSQ
     Using radial grid of 1073 points,  4 beta functions with: 
                l(1) =   0
                l(2) =   0
                l(3) =   1
                l(4) =   1
     Q(r) pseudized with 0 coefficients 


     PseudoPot. # 2 for N  read from file:
     ../../pseudos/N.pbe-n-kjpaw_psl.1.0.0.UPF
     MD5 check sum: a6186d50559fdcbe4b2d0187dd61a119
     Pseudo is Projector augmented-wave + core cor, Zval =  5.0
     Generated using &quot;atomic&quot; code by A. Dal Corso  v.6.3
     Shape of augmentation charge: PSQ
     Using radial grid of 1085 points,  4 beta functions with: 
                l(1) =   0
                l(2) =   0
                l(3) =   1
                l(4) =   1
     Q(r) pseudized with 0 coefficients 


     atomic species   valence    mass     pseudopotential
     C                 4.00    12.01070     C ( 1.00)
     N                 5.00    14.00670     N ( 1.00)

     Starting magnetic structure 
     atomic species   magnetization
     C               0.000
     N               0.000

     No symmetry found



   Cartesian axes

     site n.     atom                  positions (alat units)
         1        C      tau(   1) = (  -0.0001084   0.0001513   0.0000716  )
         2        C      tau(   2) = (  -0.1925730   0.1927703  -0.1921765  )
         3        C      tau(   3) = (  -0.3849160   0.3850699  -0.3848692  )
         4        C      tau(   4) = (   0.1357380   0.2724319   0.1361346  )
         5        C      tau(   5) = (  -0.0569096   0.4653583  -0.0560052  )
         6        C      tau(   6) = (  -0.2488149   0.6573264  -0.2488700  )
         7        C      tau(   7) = (   0.2720949   0.5444875   0.2721418  )
         8        C      tau(   8) = (   0.0797051   0.7370387   0.0796501  )
         9        C      tau(   9) = (  -0.1128283   0.9291416  -0.1126193  )
        10        C      tau(  10) = (  -0.2357756   0.0001121   0.2357484  )
        11        C      tau(  11) = (  -0.4283078   0.1925369   0.0432320  )
        12        C      tau(  12) = (  -0.6204825   0.3850805  -0.1490298  )
        13        C      tau(  13) = (  -0.0996248   0.2722888   0.3719150  )
        14        C      tau(  14) = (  -0.2950107   0.4647859   0.1822347  )
        15        C      tau(  15) = (  -0.4822829   0.6579144  -0.0122862  )
        16        C      tau(  16) = (   0.0362608   0.5444331   0.5077135  )
        17        C      tau(  17) = (  -0.1569282   0.7368587   0.3130686  )
        18        C      tau(  18) = (  -0.3488245   0.9290965   0.1233878  )
        19        C      tau(  19) = (  -0.4714238  -0.0000265   0.4714302  )
        20        C      tau(  20) = (  -0.6640801   0.1922170   0.2789293  )
        21        C      tau(  21) = (  -0.8561791   0.3850821   0.0865461  )
        22        C      tau(  22) = (  -0.3352488   0.2720048   0.6077605  )
        23        C      tau(  23) = (  -0.5283127   0.4639751   0.4157334  )
        24        C      tau(  24) = (  -0.7188649   0.6568275   0.2225759  )
        25        C      tau(  25) = (  -0.1993188   0.5444631   0.7434064  )
        26        C      tau(  26) = (  -0.3915833   0.7362394   0.5498575  )
        27        C      tau(  27) = (  -0.5840911   0.9293409   0.3585952  )
        28        C      tau(  28) = (  -0.0499439   0.1363627   0.1859318  )
        29        C      tau(  29) = (  -0.2427543   0.3296308  -0.0055779  )
        30        C      tau(  30) = (  -0.4347036   0.5212052  -0.1989281  )
        31        C      tau(  31) = (   0.0860232   0.4084807   0.3219990  )
        32        C      tau(  32) = (  -0.1078353   0.6027354   0.1298556  )
        33        C      tau(  33) = (  -0.2989116   0.7927305  -0.0628899  )
        34        C      tau(  34) = (   0.2222823   0.6805772   0.4580444  )
        35        C      tau(  35) = (   0.0298978   0.8731135   0.2655313  )
        36        C      tau(  36) = (  -0.1626525   1.0652628   0.0733261  )
        37        C      tau(  37) = (  -0.2854332   0.1359048   0.4218449  )
        38        C      tau(  38) = (  -0.4784176   0.3276581   0.2295227  )
        39        C      tau(  39) = (  -0.6692778   0.5213504   0.0375107  )
        40        C      tau(  40) = (  -0.1494000   0.4082771   0.5576781  )
        41        C      tau(  41) = (  -0.3435864   0.5974989   0.3635208  )
        42        C      tau(  42) = (  -0.5318464   0.7933263   0.1726900  )
        43        C      tau(  43) = (  -0.0136178   0.6804780   0.6935358  )
        44        C      tau(  44) = (  -0.2060282   0.8727552   0.5005085  )
        45        C      tau(  45) = (  -0.3982377   1.0655554   0.3087816  )
        46        C      tau(  46) = (  -0.5212686   0.1361527   0.6574544  )
        47        C      tau(  47) = (  -0.7139734   0.3285297   0.4651355  )
        48        C      tau(  48) = (  -0.9059805   0.5211430   0.2724085  )
        49        C      tau(  49) = (  -0.3851938   0.4083330   0.7933871  )
        50        C      tau(  50) = (  -0.5777470   0.6008150   0.6009491  )
        51        C      tau(  51) = (  -0.7698605   0.7931919   0.4084601  )
        52        C      tau(  52) = (  -0.2491257   0.6804796   0.9294171  )
        53        C      tau(  53) = (  -0.4414801   0.8727978   0.7367578  )
        54        C      tau(  54) = (  -0.6339504   1.0654454   0.5445408  )
        55        C      tau(  55) = (  -0.2141842   0.0965113   0.0216916  )
        56        C      tau(  56) = (  -0.4066113   0.2889475  -0.1706354  )
        57        C      tau(  57) = (  -0.5990037   0.4812998  -0.3632416  )
        58        C      tau(  58) = (  -0.0792180   0.3693113   0.1579584  )
        59        C      tau(  59) = (  -0.2712920   0.5630741  -0.0336011  )
        60        C      tau(  60) = (  -0.4628781   0.7535460  -0.2272447  )
        61        C      tau(  61) = (   0.0579599   0.6407454   0.2937353  )
        62        C      tau(  62) = (  -0.1343044   0.8326709   0.1017174  )
        63        C      tau(  63) = (  -0.3269653   1.0253938  -0.0909867  )
        64        C      tau(  64) = (  -0.4499772   0.0959797   0.2573009  )
        65        C      tau(  65) = (  -0.6422350   0.2886953   0.0648431  )
        66        C      tau(  66) = (  -0.8344834   0.4813026  -0.1273298  )
        67        C      tau(  67) = (  -0.3138697   0.3675841   0.3940706  )
        68        C      tau(  68) = (  -0.5037826   0.5586287   0.2033246  )
        69        C      tau(  69) = (  -0.6977981   0.7534318   0.0087386  )
        70        C      tau(  70) = (  -0.1784598   0.6404429   0.5283287  )
        71        C      tau(  71) = (  -0.3699491   0.8326092   0.3345874  )
        72        C      tau(  72) = (  -0.5624935   1.0257002   0.1445259  )
        73        C      tau(  73) = (  -0.6856516   0.0962667   0.4930714  )
        74        C      tau(  74) = (  -0.8779596   0.2887680   0.3006213  )
        75        C      tau(  75) = (  -1.0703544   0.4812161   0.1081884  )
        76        C      tau(  76) = (  -0.5496863   0.3683924   0.6294226  )
        77        C      tau(  77) = (  -0.7418991   0.5609850   0.4367970  )
        78        C      tau(  78) = (  -0.9340346   0.7532840   0.2442033  )
        79        C      tau(  79) = (  -0.4133604   0.6406727   0.7650286  )
        80        C      tau(  80) = (  -0.6057516   0.8330114   0.5725690  )
        81        C      tau(  81) = (  -0.7982254   1.0255856   0.3802658  )
        82        C      tau(  82) = (  -0.0285463   0.2327019  -0.0279167  )
        83        C      tau(  83) = (  -0.2207295   0.4249030  -0.2207834  )
        84        C      tau(  84) = (  -0.4130968   0.6173898  -0.4130122  )
        85        C      tau(  85) = (   0.1080075   0.5046680   0.1079537  )
        86        C      tau(  86) = (  -0.0848896   0.6972730  -0.0842972  )
        87        C      tau(  87) = (  -0.2770116   0.8897324  -0.2776943  )
        88        C      tau(  88) = (   0.2438690   0.7767965   0.2439537  )
        89        C      tau(  89) = (   0.0521203   0.9695932   0.0514375  )
        90        C      tau(  90) = (  -0.1410008   1.1615659  -0.1408424  )
        91        C      tau(  91) = (  -0.2640842   0.2316198   0.2078838  )
        92        C      tau(  92) = (  -0.4562007   0.4251910   0.0154678  )
        93        C      tau(  93) = (  -0.6488086   0.6173205  -0.1775380  )
        94        C      tau(  94) = (  -0.1282892   0.5047556   0.3433793  )
        95        C      tau(  95) = (  -0.5123487   0.8894120  -0.0411145  )
        96        C      tau(  96) = (   0.0084044   0.7767871   0.4796750  )
        97        C      tau(  97) = (  -0.1843484   0.9689982   0.2868858  )
        98        C      tau(  98) = (  -0.3768131   1.1623933   0.0947692  )
        99        C      tau(  99) = (  -0.4997708   0.2320742   0.4434602  )
       100        C      tau( 100) = (  -0.6925246   0.4242010   0.2511648  )
       101        C      tau( 101) = (  -0.8840830   0.6172573   0.0585104  )
       102        C      tau( 102) = (  -0.3637709   0.5039700   0.5799186  )
       103        C      tau( 103) = (  -0.5556315   0.6968424   0.3865491  )
       104        C      tau( 104) = (  -0.7484888   0.8896548   0.1944776  )
       105        C      tau( 105) = (  -0.2276070   0.7765451   0.7149864  )
       106        C      tau( 106) = (  -0.4200135   0.9693563   0.5229529  )
       107        C      tau( 107) = (  -0.6123057   1.1616385   0.3304450  )
       108        C      tau( 108) = (  -0.0732005   0.1164469   0.0449458  )
       109        C      tau( 109) = (  -0.2657257   0.3091850  -0.1471795  )
       110        C      tau( 110) = (  -0.4579461   0.5012115  -0.3400326  )
       111        C      tau( 111) = (   0.0624966   0.3888251   0.1810429  )
       112        C      tau( 112) = (  -0.1300831   0.5816260  -0.0110430  )
       113        C      tau( 113) = (  -0.3215774   0.7742584  -0.2050463  )
       114        C      tau( 114) = (   0.1990774   0.6606321   0.3169908  )
       115        C      tau( 115) = (   0.0074928   0.8541042   0.1240239  )
       116        C      tau( 116) = (  -0.1858351   1.0454118  -0.0678244  )
       117        C      tau( 117) = (  -0.3087828   0.1157862   0.2806884  )
       118        C      tau( 118) = (  -0.5012737   0.3085631   0.0882479  )
       119        C      tau( 119) = (  -0.6931161   0.5012939  -0.1040034  )
       120        C      tau( 120) = (  -0.1727876   0.3882672   0.4167341  )
       121        C      tau( 121) = (  -0.5565315   0.7733105   0.0320376  )
       122        C      tau( 122) = (  -0.0369467   0.6605073   0.5521660  )
       123        C      tau( 123) = (  -0.2293068   0.8527086   0.3592623  )
       124        C      tau( 124) = (  -0.4213594   1.0468677   0.1673467  )
       125        C      tau( 125) = (  -0.5445385   0.1160941   0.5163694  )
       126        C      tau( 126) = (  -0.7372467   0.3083770   0.3239722  )
       127        C      tau( 127) = (  -0.9291365   0.5011816   0.1314133  )
       128        C      tau( 128) = (  -0.4084751   0.3881504   0.6527437  )
       129        C      tau( 129) = (  -0.6008788   0.5806903   0.4599797  )
       130        C      tau( 130) = (  -0.7926403   0.7732007   0.2674293  )
       131        C      tau( 131) = (  -0.2723542   0.6605437   0.7881956  )
       132        C      tau( 132) = (  -0.4646931   0.8527740   0.5953765  )
       133        C      tau( 133) = (  -0.6571724   1.0455076   0.4034898  )
       134        C      tau( 134) = (  -0.1231356   0.2524727   0.2308859  )
       135        C      tau( 135) = (  -0.3162656   0.4466105   0.0397056  )
       136        C      tau( 136) = (  -0.5082642   0.6372095  -0.1543792  )
       137        C      tau( 137) = (   0.0129853   0.5246044   0.3667062  )
       138        C      tau( 138) = (  -0.1703121   0.7198102   0.1746867  )
       139        C      tau( 139) = (  -0.3715182   0.9092736  -0.0179196  )
       140        C      tau( 140) = (   0.1493262   0.7967729   0.5030433  )
       141        C      tau( 141) = (  -0.0432421   0.9891665   0.3104149  )
       142        C      tau( 142) = (  -0.2355705   1.1817506   0.1180432  )
       143        C      tau( 143) = (  -0.3585841   0.2517883   0.4668599  )
       144        C      tau( 144) = (  -0.5522611   0.4433628   0.2747203  )
       145        C      tau( 145) = (  -0.7426577   0.6372641   0.0817596  )
       146        C      tau( 146) = (  -0.2226567   0.5243681   0.6022999  )
       147        C      tau( 147) = (  -0.4148885   0.7160537   0.4077698  )
       148        C      tau( 148) = (  -0.6079246   0.9094880   0.2175623  )
       149        C      tau( 149) = (  -0.0865482   0.7964687   0.7384165  )
       150        C      tau( 150) = (  -0.2789249   0.9889573   0.5459734  )
       151        C      tau( 151) = (  -0.4711716   1.1816602   0.3537682  )
       152        C      tau( 152) = (  -0.5945221   0.2524276   0.7023501  )
       153        C      tau( 153) = (  -0.7868931   0.4449017   0.5098864  )
       154        C      tau( 154) = (  -0.9790152   0.6372635   0.3172155  )
       155        C      tau( 155) = (  -0.4580986   0.5244370   0.8381327  )
       156        C      tau( 156) = (  -0.6507294   0.7170019   0.6457379  )
       157        C      tau( 157) = (  -0.8430104   0.9094553   0.4531873  )
       158        C      tau( 158) = (  -0.3221768   0.7966606   0.9743173  )
       159        C      tau( 159) = (  -0.5143417   0.9893900   0.7817385  )
       160        C      tau( 160) = (  -0.7070083   1.1815388   0.5894519  )
       161        C      tau( 161) = (  -0.2873131   0.2126365   0.0667084  )
       162        C      tau( 162) = (  -0.4794992   0.4051076  -0.1257782  )
       163        C      tau( 163) = (  -0.6721896   0.5974397  -0.3184725  )
       164        C      tau( 164) = (  -0.1528811   0.4862542   0.2030901  )
       165        C      tau( 165) = (  -0.3442225   0.6776125   0.0007763  )
       166        C      tau( 166) = (  -0.5359237   0.8696219  -0.1822668  )
       167        C      tau( 167) = (  -0.0147611   0.7569534   0.3391239  )
       168        C      tau( 168) = (  -0.2075344   0.9490627   0.1460642  )
       169        C      tau( 169) = (  -0.3999452   1.1418666  -0.0463315  )
       170        C      tau( 170) = (  -0.5231108   0.2118675   0.3023332  )
       171        C      tau( 171) = (  -0.7150386   0.4048962   0.1099180  )
       172        C      tau( 172) = (  -0.9075055   0.5972710  -0.0825407  )
       173        C      tau( 173) = (  -0.3871583   0.4834234   0.4398231  )
       174        C      tau( 174) = (  -0.5767488   0.6767798   0.2459095  )
       175        C      tau( 175) = (  -0.7714365   0.8694539   0.0534618  )
       176        C      tau( 176) = (  -0.2508629   0.7565935   0.5735544  )
       177        C      tau( 177) = (  -0.4430933   0.9494828   0.3823936  )
       178        C      tau( 178) = (  -0.6356453   1.1417522   0.1892944  )
       179        C      tau( 179) = (  -0.7587645   0.2125757   0.5381078  )
       180        C      tau( 180) = (  -0.9508764   0.4048690   0.3453549  )
       181        C      tau( 181) = (  -1.1434437   0.5973879   0.1530504  )
       182        C      tau( 182) = (  -0.6226719   0.4847484   0.6741077  )
       183        C      tau( 183) = (  -0.8148796   0.6771724   0.4815877  )
       184        C      tau( 184) = (  -1.0072936   0.8697798   0.2887865  )
       185        C      tau( 185) = (  -0.4863444   0.7568055   0.8098862  )
       186        C      tau( 186) = (  -0.6786952   0.9493248   0.6175026  )
       187        C      tau( 187) = (  -0.8713048   1.1416738   0.4251553  )
       188        C      tau( 188) = (  -0.1017368   0.3491754   0.0170127  )
       189        C      tau( 189) = (  -0.2934507   0.5406522  -0.1760803  )
       190        C      tau( 190) = (  -0.4862549   0.7336102  -0.3682379  )
       191        C      tau( 191) = (   0.0352209   0.6204013   0.1525913  )
       192        C      tau( 192) = (  -0.1578110   0.8132150  -0.0395081  )
       193        C      tau( 193) = (  -0.3501207   1.0057437  -0.2322792  )
       194        C      tau( 194) = (   0.1708896   0.8930602   0.2889066  )
       195        C      tau( 195) = (  -0.0214309   1.0854972   0.0964107  )
       196        C      tau( 196) = (  -0.2140165   1.2777814  -0.0960253  )
       197        C      tau( 197) = (  -0.3370943   0.3466456   0.2529840  )
       198        C      tau( 198) = (  -0.5272084   0.5414293   0.0610164  )
       199        C      tau( 199) = (  -0.7216407   0.7334091  -0.1323792  )
       200        C      tau( 200) = (  -0.2019635   0.6203470   0.3862613  )
       201        C      tau( 201) = (  -0.3969540   0.8216820   0.1975805  )
       202        C      tau( 202) = (  -0.5856983   1.0056082   0.0034941  )
       203        C      tau( 203) = (  -0.0649081   0.8927592   0.5243534  )
       204        C      tau( 204) = (  -0.2571667   1.0853233   0.3320257  )
       205        C      tau( 205) = (  -0.4496625   1.2781547   0.1395302  )
       206        C      tau( 206) = (  -0.5729994   0.3481663   0.4885200  )
       207        C      tau( 207) = (  -0.7648208   0.5409048   0.2957094  )
       208        C      tau( 208) = (  -0.9573081   0.7333335   0.1033247  )
       209        C      tau( 209) = (  -0.4366163   0.6205405   0.6239138  )
       210        C      tau( 210) = (  -0.6288323   0.8130945   0.4315425  )
       211        C      tau( 211) = (  -0.8216123   1.0056699   0.2391807  )
       212        C      tau( 212) = (  -0.3005931   0.8926792   0.7600396  )
       213        C      tau( 213) = (  -0.4928743   1.0854351   0.5679187  )
       214        C      tau( 214) = (  -0.6853662   1.2777481   0.3753325  )
       215        N      tau( 215) = (  -0.3694159   0.5697782   0.2311646  )

     number of k points=     1
                       cart. coord. in units 2pi/alat
        k(    1) = (   0.0000000   0.0000000   0.0000000), wk =   1.0000000

     Dense  grid:   338755 G-vectors     FFT dimensions: (  90,  90,  90)

     Occupations read from input 

      Spin-up

        1.0000   1.0000   1.0000   1.0000   1.0000   1.0000   1.0000   1.0000
        1.0000   1.0000   1.0000   1.0000   1.0000   1.0000   1.0000   1.0000
        1.0000   1.0000   1.0000   1.0000   1.0000   1.0000   1.0000   1.0000
        1.0000   1.0000   1.0000   1.0000   1.0000   1.0000   1.0000   1.0000
        1.0000   1.0000   1.0000   1.0000   1.0000   1.0000   1.0000   1.0000
        1.0000   1.0000   1.0000   1.0000   1.0000   1.0000   1.0000   1.0000
        1.0000   1.0000   1.0000   1.0000   1.0000   1.0000   1.0000   1.0000
        1.0000   1.0000   1.0000   1.0000   1.0000   1.0000   1.0000   1.0000
        1.0000   1.0000   1.0000   1.0000   1.0000   1.0000   1.0000   1.0000
        1.0000   1.0000   1.0000   1.0000   1.0000   1.0000   1.0000   1.0000
        1.0000   1.0000   1.0000   1.0000   1.0000   1.0000   1.0000   1.0000
        1.0000   1.0000   1.0000   1.0000   1.0000   1.0000   1.0000   1.0000
        1.0000   1.0000   1.0000   1.0000   1.0000   1.0000   1.0000   1.0000
        1.0000   1.0000   1.0000   1.0000   1.0000   1.0000   1.0000   1.0000
        1.0000   1.0000   1.0000   1.0000   1.0000   1.0000   1.0000   1.0000
        1.0000   1.0000   1.0000   1.0000   1.0000   1.0000   1.0000   1.0000
        1.0000   1.0000   1.0000   1.0000   1.0000   1.0000   1.0000   1.0000
        1.0000   1.0000   1.0000   1.0000   1.0000   1.0000   1.0000   1.0000
        1.0000   1.0000   1.0000   1.0000   1.0000   1.0000   1.0000   1.0000
        1.0000   1.0000   1.0000   1.0000   1.0000   1.0000   1.0000   1.0000
        1.0000   1.0000   1.0000   1.0000   1.0000   1.0000   1.0000   1.0000
        1.0000   1.0000   1.0000   1.0000   1.0000   1.0000   1.0000   1.0000
        1.0000   1.0000   1.0000   1.0000   1.0000   1.0000   1.0000   1.0000
        1.0000   1.0000   1.0000   1.0000   1.0000   1.0000   1.0000   1.0000
        1.0000   1.0000   1.0000   1.0000   1.0000   1.0000   1.0000   1.0000
        1.0000   1.0000   1.0000   1.0000   1.0000   1.0000   1.0000   1.0000
        1.0000   1.0000   1.0000   1.0000   1.0000   1.0000   1.0000   1.0000
        1.0000   1.0000   1.0000   1.0000   1.0000   1.0000   1.0000   1.0000
        1.0000   1.0000   1.0000   1.0000   1.0000   1.0000   1.0000   1.0000
        1.0000   1.0000   1.0000   1.0000   1.0000   1.0000   1.0000   1.0000
        1.0000   1.0000   1.0000   1.0000   1.0000   1.0000   1.0000   1.0000
        1.0000   1.0000   1.0000   1.0000   1.0000   1.0000   1.0000   1.0000
        1.0000   1.0000   1.0000   1.0000   1.0000   1.0000   1.0000   1.0000
        1.0000   1.0000   1.0000   1.0000   1.0000   1.0000   1.0000   1.0000
        1.0000   1.0000   1.0000   1.0000   1.0000   1.0000   1.0000   1.0000
        1.0000   1.0000   1.0000   1.0000   1.0000   1.0000   1.0000   1.0000
        1.0000   1.0000   1.0000   1.0000   1.0000   1.0000   1.0000   1.0000
        1.0000   1.0000   1.0000   1.0000   1.0000   1.0000   1.0000   1.0000
        1.0000   1.0000   1.0000   1.0000   1.0000   1.0000   1.0000   1.0000
        1.0000   1.0000   1.0000   1.0000   1.0000   1.0000   1.0000   1.0000
        1.0000   1.0000   1.0000   1.0000   1.0000   1.0000   1.0000   1.0000
        1.0000   1.0000   1.0000   1.0000   1.0000   1.0000   1.0000   1.0000
        1.0000   1.0000   1.0000   1.0000   1.0000   1.0000   1.0000   1.0000
        1.0000   1.0000   1.0000   1.0000   1.0000   1.0000   1.0000   1.0000
        1.0000   1.0000   1.0000   1.0000   1.0000   1.0000   1.0000   1.0000
        1.0000   1.0000   1.0000   1.0000   1.0000   1.0000   1.0000   1.0000
        1.0000   1.0000   1.0000   1.0000   1.0000   1.0000   1.0000   1.0000
        1.0000   1.0000   1.0000   1.0000   1.0000   1.0000   1.0000   1.0000
        1.0000   1.0000   1.0000   1.0000   1.0000   1.0000   1.0000   1.0000
        1.0000   1.0000   1.0000   1.0000   1.0000   1.0000   1.0000   1.0000
        1.0000   1.0000   1.0000   1.0000   1.0000   1.0000   1.0000   1.0000
        1.0000   1.0000   1.0000   1.0000   1.0000   1.0000   1.0000   1.0000
        1.0000   1.0000   1.0000   1.0000   1.0000   1.0000   1.0000   1.0000
        1.0000   1.0000   1.0000   1.0000   1.0000   1.0000   1.0000   1.0000
        0.0000   0.0000   0.0000   0.0000   0.0000   0.0000   0.0000   0.0000
        0.0000   0.0000   0.0000   0.0000   0.0000   0.0000   0.0000   0.0000
        0.0000   0.0000   0.0000   0.0000   0.0000   0.0000   0.0000   0.0000
        0.0000   0.0000   0.0000   0.0000   0.0000   0.0000   0.0000   0.0000
        0.0000   0.0000   0.0000   0.0000   0.0000   0.0000   0.0000   0.0000
        0.0000   0.0000   0.0000   0.0000   0.0000   0.0000   0.0000   0.0000
        0.0000   0.0000   0.0000   0.0000   0.0000   0.0000   0.0000   0.0000
        0.0000   0.0000   0.0000   0.0000   0.0000   0.0000   0.0000   0.0000
        0.0000   0.0000   0.0000   0.0000   0.0000   0.0000   0.0000   0.0000
        0.0000   0.0000   0.0000   0.0000   0.0000   0.0000   0.0000   0.0000
        0.0000   0.0000   0.0000   0.0000   0.0000   0.0000   0.0000   0.0000
        0.0000   0.0000   0.0000   0.0000   0.0000   0.0000   0.0000   0.0000
        0.0000   0.0000   0.0000   0.0000   0.0000   0.0000   0.0000   0.0000
        0.0000   0.0000   0.0000   0.0000   0.0000   0.0000   0.0000   0.0000
        0.0000   0.0000   0.0000   0.0000   0.0000   0.0000   0.0000   0.0000
        0.0000   0.0000   0.0000   0.0000   0.0000   0.0000   0.0000   0.0000
        0.0000   0.0000   0.0000   0.0000   0.0000   0.0000   0.0000   0.0000
        0.0000   0.0000   0.0000   0.0000   0.0000   0.0000   0.0000   0.0000
        0.0000   0.0000   0.0000   0.0000   0.0000   0.0000   0.0000   0.0000
        0.0000   0.0000   0.0000   0.0000   0.0000   0.0000   0.0000   0.0000
        0.0000   0.0000   0.0000   0.0000   0.0000   0.0000   0.0000   0.0000
        0.0000   0.0000   0.0000   0.0000   0.0000   0.0000   0.0000   0.0000
        0.0000   0.0000   0.0000   0.0000   0.0000   0.0000   0.0000   0.0000
        0.0000   0.0000   0.0000   0.0000   0.0000   0.0000   0.0000   0.0000
        0.0000   0.0000   0.0000   0.0000   0.0000   0.0000   0.0000   0.0000
        0.0000   0.0000   0.0000   0.0000   0.0000   0.0000   0.0000   0.0000
        0.0000   0.0000   0.0000   0.0000   0.0000   0.0000   0.0000   0.0000
        0.0000   0.0000   0.0000   0.0000   0.0000   0.0000   0.0000   0.0000
        0.0000   0.0000   0.0000   0.0000   0.0000   0.0000   0.0000   0.0000
        0.0000   0.0000   0.0000   0.0000   0.0000   0.0000   0.0000   0.0000
        0.0000   0.0000   0.0000   0.0000   0.0000   0.0000   0.0000   0.0000
        0.0000   0.0000   0.0000   0.0000   0.0000   0.0000   0.0000   0.0000
        0.0000   0.0000   0.0000   0.0000   0.0000   0.0000   0.0000   0.0000
        0.0000   0.0000   0.0000   0.0000   0.0000   0.0000   0.0000   0.0000
        0.0000   0.0000   0.0000   0.0000   0.0000   0.0000   0.0000   0.0000
        0.0000   0.0000   0.0000   0.0000   0.0000   0.0000   0.0000   0.0000
        0.0000   0.0000   0.0000   0.0000   0.0000   0.0000   0.0000   0.0000
        0.0000   0.0000   0.0000   0.0000   0.0000   0.0000   0.0000   0.0000
        0.0000   0.0000   0.0000   0.0000   0.0000   0.0000   0.0000   0.0000
        0.0000   0.0000   0.0000   0.0000   0.0000   0.0000   0.0000   0.0000
        0.0000   0.0000   0.0000   0.0000   0.0000   0.0000   0.0000   0.0000
        0.0000   0.0000   0.0000   0.0000   0.0000   0.0000   0.0000   0.0000
        0.0000   0.0000   0.0000   0.0000   0.0000   0.0000   0.0000   0.0000
        0.0000   0.0000   0.0000   0.0000   0.0000   0.0000   0.0000   0.0000
        0.0000   0.0000   0.0000   0.0000   0.0000   0.0000   0.0000   0.0000
        0.0000   0.0000   0.0000   0.0000   0.0000   0.0000   0.0000   0.0000
        0.0000   0.0000   0.0000   0.0000   0.0000   0.0000   0.0000   0.0000
        0.0000   0.0000   0.0000   0.0000   0.0000   0.0000   0.0000   0.0000
        0.0000   0.0000   0.0000   0.0000   0.0000   0.0000   0.0000   0.0000
        0.0000   0.0000   0.0000   0.0000   0.0000   0.0000   0.0000   0.0000
        0.0000   0.0000   0.0000   0.0000   0.0000   0.0000   0.0000   0.0000
        0.0000   0.0000   0.0000   0.0000   0.0000   0.0000   0.0000   0.0000
        0.0000   0.0000   0.0000   0.0000   0.0000   0.0000   0.0000   0.0000
        0.0000   0.0000   0.0000   0.0000   0.0000   0.0000

      Spin-down

        1.0000   1.0000   1.0000   1.0000   1.0000   1.0000   1.0000   1.0000
        1.0000   1.0000   1.0000   1.0000   1.0000   1.0000   1.0000   1.0000
        1.0000   1.0000   1.0000   1.0000   1.0000   1.0000   1.0000   1.0000
        1.0000   1.0000   1.0000   1.0000   1.0000   1.0000   1.0000   1.0000
        1.0000   1.0000   1.0000   1.0000   1.0000   1.0000   1.0000   1.0000
        1.0000   1.0000   1.0000   1.0000   1.0000   1.0000   1.0000   1.0000
        1.0000   1.0000   1.0000   1.0000   1.0000   1.0000   1.0000   1.0000
        1.0000   1.0000   1.0000   1.0000   1.0000   1.0000   1.0000   1.0000
        1.0000   1.0000   1.0000   1.0000   1.0000   1.0000   1.0000   1.0000
        1.0000   1.0000   1.0000   1.0000   1.0000   1.0000   1.0000   1.0000
        1.0000   1.0000   1.0000   1.0000   1.0000   1.0000   1.0000   1.0000
        1.0000   1.0000   1.0000   1.0000   1.0000   1.0000   1.0000   1.0000
        1.0000   1.0000   1.0000   1.0000   1.0000   1.0000   1.0000   1.0000
        1.0000   1.0000   1.0000   1.0000   1.0000   1.0000   1.0000   1.0000
        1.0000   1.0000   1.0000   1.0000   1.0000   1.0000   1.0000   1.0000
        1.0000   1.0000   1.0000   1.0000   1.0000   1.0000   1.0000   1.0000
        1.0000   1.0000   1.0000   1.0000   1.0000   1.0000   1.0000   1.0000
        1.0000   1.0000   1.0000   1.0000   1.0000   1.0000   1.0000   1.0000
        1.0000   1.0000   1.0000   1.0000   1.0000   1.0000   1.0000   1.0000
        1.0000   1.0000   1.0000   1.0000   1.0000   1.0000   1.0000   1.0000
        1.0000   1.0000   1.0000   1.0000   1.0000   1.0000   1.0000   1.0000
        1.0000   1.0000   1.0000   1.0000   1.0000   1.0000   1.0000   1.0000
        1.0000   1.0000   1.0000   1.0000   1.0000   1.0000   1.0000   1.0000
        1.0000   1.0000   1.0000   1.0000   1.0000   1.0000   1.0000   1.0000
        1.0000   1.0000   1.0000   1.0000   1.0000   1.0000   1.0000   1.0000
        1.0000   1.0000   1.0000   1.0000   1.0000   1.0000   1.0000   1.0000
        1.0000   1.0000   1.0000   1.0000   1.0000   1.0000   1.0000   1.0000
        1.0000   1.0000   1.0000   1.0000   1.0000   1.0000   1.0000   1.0000
        1.0000   1.0000   1.0000   1.0000   1.0000   1.0000   1.0000   1.0000
        1.0000   1.0000   1.0000   1.0000   1.0000   1.0000   1.0000   1.0000
        1.0000   1.0000   1.0000   1.0000   1.0000   1.0000   1.0000   1.0000
        1.0000   1.0000   1.0000   1.0000   1.0000   1.0000   1.0000   1.0000
        1.0000   1.0000   1.0000   1.0000   1.0000   1.0000   1.0000   1.0000
        1.0000   1.0000   1.0000   1.0000   1.0000   1.0000   1.0000   1.0000
        1.0000   1.0000   1.0000   1.0000   1.0000   1.0000   1.0000   1.0000
        1.0000   1.0000   1.0000   1.0000   1.0000   1.0000   1.0000   1.0000
        1.0000   1.0000   1.0000   1.0000   1.0000   1.0000   1.0000   1.0000
        1.0000   1.0000   1.0000   1.0000   1.0000   1.0000   1.0000   1.0000
        1.0000   1.0000   1.0000   1.0000   1.0000   1.0000   1.0000   1.0000
        1.0000   1.0000   1.0000   1.0000   1.0000   1.0000   1.0000   1.0000
        1.0000   1.0000   1.0000   1.0000   1.0000   1.0000   1.0000   1.0000
        1.0000   1.0000   1.0000   1.0000   1.0000   1.0000   1.0000   1.0000
        1.0000   1.0000   1.0000   1.0000   1.0000   1.0000   1.0000   1.0000
        1.0000   1.0000   1.0000   1.0000   1.0000   1.0000   1.0000   1.0000
        1.0000   1.0000   1.0000   1.0000   1.0000   1.0000   1.0000   1.0000
        1.0000   1.0000   1.0000   1.0000   1.0000   1.0000   1.0000   1.0000
        1.0000   1.0000   1.0000   1.0000   1.0000   1.0000   1.0000   1.0000
        1.0000   1.0000   1.0000   1.0000   1.0000   1.0000   1.0000   1.0000
        1.0000   1.0000   1.0000   1.0000   1.0000   1.0000   1.0000   1.0000
        1.0000   1.0000   1.0000   1.0000   1.0000   1.0000   1.0000   1.0000
        1.0000   1.0000   1.0000   1.0000   1.0000   1.0000   1.0000   1.0000
        1.0000   1.0000   1.0000   1.0000   1.0000   1.0000   1.0000   1.0000
        1.0000   1.0000   1.0000   1.0000   1.0000   1.0000   1.0000   1.0000
        1.0000   1.0000   1.0000   1.0000   1.0000   0.0000   0.5000   0.5000
        0.0000   0.0000   0.0000   0.0000   0.0000   0.0000   0.0000   0.0000
        0.0000   0.0000   0.0000   0.0000   0.0000   0.0000   0.0000   0.0000
        0.0000   0.0000   0.0000   0.0000   0.0000   0.0000   0.0000   0.0000
        0.0000   0.0000   0.0000   0.0000   0.0000   0.0000   0.0000   0.0000
        0.0000   0.0000   0.0000   0.0000   0.0000   0.0000   0.0000   0.0000
        0.0000   0.0000   0.0000   0.0000   0.0000   0.0000   0.0000   0.0000
        0.0000   0.0000   0.0000   0.0000   0.0000   0.0000   0.0000   0.0000
        0.0000   0.0000   0.0000   0.0000   0.0000   0.0000   0.0000   0.0000
        0.0000   0.0000   0.0000   0.0000   0.0000   0.0000   0.0000   0.0000
        0.0000   0.0000   0.0000   0.0000   0.0000   0.0000   0.0000   0.0000
        0.0000   0.0000   0.0000   0.0000   0.0000   0.0000   0.0000   0.0000
        0.0000   0.0000   0.0000   0.0000   0.0000   0.0000   0.0000   0.0000
        0.0000   0.0000   0.0000   0.0000   0.0000   0.0000   0.0000   0.0000
        0.0000   0.0000   0.0000   0.0000   0.0000   0.0000   0.0000   0.0000
        0.0000   0.0000   0.0000   0.0000   0.0000   0.0000   0.0000   0.0000
        0.0000   0.0000   0.0000   0.0000   0.0000   0.0000   0.0000   0.0000
        0.0000   0.0000   0.0000   0.0000   0.0000   0.0000   0.0000   0.0000
        0.0000   0.0000   0.0000   0.0000   0.0000   0.0000   0.0000   0.0000
        0.0000   0.0000   0.0000   0.0000   0.0000   0.0000   0.0000   0.0000
        0.0000   0.0000   0.0000   0.0000   0.0000   0.0000   0.0000   0.0000
        0.0000   0.0000   0.0000   0.0000   0.0000   0.0000   0.0000   0.0000
        0.0000   0.0000   0.0000   0.0000   0.0000   0.0000   0.0000   0.0000
        0.0000   0.0000   0.0000   0.0000   0.0000   0.0000   0.0000   0.0000
        0.0000   0.0000   0.0000   0.0000   0.0000   0.0000   0.0000   0.0000
        0.0000   0.0000   0.0000   0.0000   0.0000   0.0000   0.0000   0.0000
        0.0000   0.0000   0.0000   0.0000   0.0000   0.0000   0.0000   0.0000
        0.0000   0.0000   0.0000   0.0000   0.0000   0.0000   0.0000   0.0000
        0.0000   0.0000   0.0000   0.0000   0.0000   0.0000   0.0000   0.0000
        0.0000   0.0000   0.0000   0.0000   0.0000   0.0000   0.0000   0.0000
        0.0000   0.0000   0.0000   0.0000   0.0000   0.0000   0.0000   0.0000
        0.0000   0.0000   0.0000   0.0000   0.0000   0.0000   0.0000   0.0000
        0.0000   0.0000   0.0000   0.0000   0.0000   0.0000   0.0000   0.0000
        0.0000   0.0000   0.0000   0.0000   0.0000   0.0000   0.0000   0.0000
        0.0000   0.0000   0.0000   0.0000   0.0000   0.0000   0.0000   0.0000
        0.0000   0.0000   0.0000   0.0000   0.0000   0.0000   0.0000   0.0000
        0.0000   0.0000   0.0000   0.0000   0.0000   0.0000   0.0000   0.0000
        0.0000   0.0000   0.0000   0.0000   0.0000   0.0000   0.0000   0.0000
        0.0000   0.0000   0.0000   0.0000   0.0000   0.0000   0.0000   0.0000
        0.0000   0.0000   0.0000   0.0000   0.0000   0.0000   0.0000   0.0000
        0.0000   0.0000   0.0000   0.0000   0.0000   0.0000   0.0000   0.0000
        0.0000   0.0000   0.0000   0.0000   0.0000   0.0000   0.0000   0.0000
        0.0000   0.0000   0.0000   0.0000   0.0000   0.0000   0.0000   0.0000
        0.0000   0.0000   0.0000   0.0000   0.0000   0.0000   0.0000   0.0000
        0.0000   0.0000   0.0000   0.0000   0.0000   0.0000   0.0000   0.0000
        0.0000   0.0000   0.0000   0.0000   0.0000   0.0000   0.0000   0.0000
        0.0000   0.0000   0.0000   0.0000   0.0000   0.0000   0.0000   0.0000
        0.0000   0.0000   0.0000   0.0000   0.0000   0.0000   0.0000   0.0000
        0.0000   0.0000   0.0000   0.0000   0.0000   0.0000   0.0000   0.0000
        0.0000   0.0000   0.0000   0.0000   0.0000   0.0000   0.0000   0.0000
        0.0000   0.0000   0.0000   0.0000   0.0000   0.0000   0.0000   0.0000
        0.0000   0.0000   0.0000   0.0000   0.0000   0.0000   0.0000   0.0000
        0.0000   0.0000   0.0000   0.0000   0.0000   0.0000   0.0000   0.0000
        0.0000   0.0000   0.0000   0.0000   0.0000   0.0000   0.0000   0.0000
        0.0000   0.0000   0.0000   0.0000   0.0000   0.0000

     Estimated max dynamical RAM per process >     300.93 MB

     Estimated total dynamical RAM >       7.05 GB

     Check: negative core charge=   -0.000075
     Generating pointlists ...
     new r_m :   0.0568 (alat units)  1.1501 (a.u.) for type    1
     new r_m :   0.0568 (alat units)  1.1501 (a.u.) for type    2

     Initial potential from superposition of free atoms

     starting charge     860.9911, renormalised to     862.0000
     Starting wfcs are random
     Checking if some PAW data can be deallocated... 

     total cpu time spent up to now is        6.2 secs

     per-process dynamical memory:   204.2 Mb

     Self-consistent Calculation

     iteration #  1     ecut=    45.00 Ry     beta= 0.70
     Davidson diagonalization with overlap
     ethr =  1.00E-02,  avg # of iterations =  9.0

     total cpu time spent up to now is       69.5 secs

     total energy              =   -3970.05787728 Ry
     estimated scf accuracy    <      12.72011399 Ry

     total magnetization       =     2.00 Bohr mag/cell
     absolute magnetization    =     2.12 Bohr mag/cell

     iteration #  2     ecut=    45.00 Ry     beta= 0.70
     Davidson diagonalization with overlap
     ethr =  1.48E-03,  avg # of iterations =  3.0

     total cpu time spent up to now is       86.5 secs

     total energy              =   -3967.90026813 Ry
     estimated scf accuracy    <       5.64984663 Ry

     total magnetization       =     2.00 Bohr mag/cell
     absolute magnetization    =     2.31 Bohr mag/cell

     iteration #  3     ecut=    45.00 Ry     beta= 0.70
     Davidson diagonalization with overlap
     ethr =  6.55E-04,  avg # of iterations =  5.0

     total cpu time spent up to now is      112.0 secs

     total energy              =   -3969.11448326 Ry
     estimated scf accuracy    <      20.55043211 Ry

     total magnetization       =     2.00 Bohr mag/cell
     absolute magnetization    =     2.12 Bohr mag/cell

     iteration #  4     ecut=    45.00 Ry     beta= 0.70
     Davidson diagonalization with overlap
     ethr =  6.55E-04,  avg # of iterations =  6.0

     total cpu time spent up to now is      132.7 secs

     total energy              =   -3971.10300298 Ry
     estimated scf accuracy    <       1.36250384 Ry

     total magnetization       =     2.00 Bohr mag/cell
     absolute magnetization    =     2.07 Bohr mag/cell

     iteration #  5     ecut=    45.00 Ry     beta= 0.70
     Davidson diagonalization with overlap
     ethr =  1.58E-04,  avg # of iterations =  6.0

     total cpu time spent up to now is      151.3 secs

     total energy              =   -3971.21335924 Ry
     estimated scf accuracy    <       0.36359999 Ry

     total magnetization       =     2.00 Bohr mag/cell
     absolute magnetization    =     2.06 Bohr mag/cell

     iteration #  6     ecut=    45.00 Ry     beta= 0.70
     Davidson diagonalization with overlap
     ethr =  4.22E-05,  avg # of iterations = 11.0

     total cpu time spent up to now is      173.0 secs

     total energy              =   -3971.20132423 Ry
     estimated scf accuracy    <       0.13805072 Ry

     total magnetization       =     2.00 Bohr mag/cell
     absolute magnetization    =     2.08 Bohr mag/cell

     iteration #  7     ecut=    45.00 Ry     beta= 0.70
     Davidson diagonalization with overlap
     ethr =  1.60E-05,  avg # of iterations =  3.0

     total cpu time spent up to now is      190.2 secs

     total energy              =   -3971.20739921 Ry
     estimated scf accuracy    <       0.02528306 Ry

     total magnetization       =     2.00 Bohr mag/cell
     absolute magnetization    =     2.12 Bohr mag/cell

     iteration #  8     ecut=    45.00 Ry     beta= 0.70
     Davidson diagonalization with overlap
     ethr =  2.93E-06,  avg # of iterations = 14.5

     total cpu time spent up to now is      216.3 secs

     total energy              =   -3971.21172508 Ry
     estimated scf accuracy    <       0.00273814 Ry

     total magnetization       =     2.00 Bohr mag/cell
     absolute magnetization    =     2.15 Bohr mag/cell

     iteration #  9     ecut=    45.00 Ry     beta= 0.70
     Davidson diagonalization with overlap
     ethr =  3.18E-07,  avg # of iterations =  2.5

     total cpu time spent up to now is      233.1 secs

     total energy              =   -3971.21237406 Ry
     estimated scf accuracy    <       0.00050405 Ry

     total magnetization       =     2.00 Bohr mag/cell
     absolute magnetization    =     2.17 Bohr mag/cell

     iteration # 10     ecut=    45.00 Ry     beta= 0.70
     Davidson diagonalization with overlap
     ethr =  5.85E-08,  avg # of iterations =  2.0

     total cpu time spent up to now is      249.6 secs

     total energy              =   -3971.21252311 Ry
     estimated scf accuracy    <       0.00013028 Ry

     total magnetization       =     2.00 Bohr mag/cell
     absolute magnetization    =     2.18 Bohr mag/cell

     iteration # 11     ecut=    45.00 Ry     beta= 0.70
     Davidson diagonalization with overlap
     ethr =  1.51E-08,  avg # of iterations =  2.5

     total cpu time spent up to now is      266.4 secs

     total energy              =   -3971.21256095 Ry
     estimated scf accuracy    <       0.00003522 Ry

     total magnetization       =     2.00 Bohr mag/cell
     absolute magnetization    =     2.19 Bohr mag/cell

     iteration # 12     ecut=    45.00 Ry     beta= 0.70
     Davidson diagonalization with overlap
     ethr =  4.09E-09,  avg # of iterations =  2.0

     total cpu time spent up to now is      282.8 secs

     total energy              =   -3971.21257116 Ry
     estimated scf accuracy    <       0.00000540 Ry

     total magnetization       =     2.00 Bohr mag/cell
     absolute magnetization    =     2.19 Bohr mag/cell

     iteration # 13     ecut=    45.00 Ry     beta= 0.70
     Davidson diagonalization with overlap
     ethr =  6.27E-10,  avg # of iterations =  3.0

     total cpu time spent up to now is      300.1 secs

     total energy              =   -3971.21257283 Ry
     estimated scf accuracy    <       0.00000167 Ry

     total magnetization       =     2.00 Bohr mag/cell
     absolute magnetization    =     2.19 Bohr mag/cell

     iteration # 14     ecut=    45.00 Ry     beta= 0.70
     Davidson diagonalization with overlap
     ethr =  1.94E-10,  avg # of iterations =  2.5

     total cpu time spent up to now is      316.8 secs

     total energy              =   -3971.21257326 Ry
     estimated scf accuracy    <       0.00000026 Ry

     total magnetization       =     2.00 Bohr mag/cell
     absolute magnetization    =     2.20 Bohr mag/cell

     iteration # 15     ecut=    45.00 Ry     beta= 0.70
     Davidson diagonalization with overlap
     ethr =  3.03E-11,  avg # of iterations =  3.0

     total cpu time spent up to now is      334.2 secs

     total energy              =   -3971.21257334 Ry
     estimated scf accuracy    <       0.00000012 Ry

     total magnetization       =     2.00 Bohr mag/cell
     absolute magnetization    =     2.20 Bohr mag/cell

     iteration # 16     ecut=    45.00 Ry     beta= 0.70
     Davidson diagonalization with overlap
     ethr =  1.38E-11,  avg # of iterations =  2.0

     total cpu time spent up to now is      350.6 secs

     total energy              =   -3971.21257337 Ry
     estimated scf accuracy    <       0.00000002 Ry

     total magnetization       =     2.00 Bohr mag/cell
     absolute magnetization    =     2.20 Bohr mag/cell

     iteration # 17     ecut=    45.00 Ry     beta= 0.70
     Davidson diagonalization with overlap
     ethr =  1.93E-12,  avg # of iterations =  2.0
 
     Magnetic moment per site  (integrated on atomic sphere of radius R)
     atom   1 (R=0.057)  charge=  1.8164  magn=  0.0001
     atom   2 (R=0.057)  charge=  1.8154  magn=  0.0000
     atom   3 (R=0.057)  charge=  1.8178  magn=  0.0000
     atom   4 (R=0.057)  charge=  1.8154  magn=  0.0000
     atom   5 (R=0.057)  charge=  1.8140  magn= -0.0002
     atom   6 (R=0.057)  charge=  1.8157  magn= -0.0008
     atom   7 (R=0.057)  charge=  1.8178  magn=  0.0000
     atom   8 (R=0.057)  charge=  1.8157  magn= -0.0008
     atom   9 (R=0.057)  charge=  1.8163  magn= -0.0002
     atom  10 (R=0.057)  charge=  1.8214  magn=  0.0015
     atom  11 (R=0.057)  charge=  1.8176  magn= -0.0001
     atom  12 (R=0.057)  charge=  1.8172  magn= -0.0001
     atom  13 (R=0.057)  charge=  1.8176  magn= -0.0001
     atom  14 (R=0.057)  charge=  1.7892  magn=  0.0003
     atom  15 (R=0.057)  charge=  1.8112  magn= -0.0024
     atom  16 (R=0.057)  charge=  1.8172  magn= -0.0001
     atom  17 (R=0.057)  charge=  1.8112  magn= -0.0024
     atom  18 (R=0.057)  charge=  1.8205  magn=  0.0021
     atom  19 (R=0.057)  charge=  1.8160  magn=  0.0001
     atom  20 (R=0.057)  charge=  1.8177  magn=  0.0000
     atom  21 (R=0.057)  charge=  1.8172  magn= -0.0001
     atom  22 (R=0.057)  charge=  1.8177  magn=  0.0000
     atom  23 (R=0.057)  charge=  1.8172  magn= -0.0002
     atom  24 (R=0.057)  charge=  1.8091  magn= -0.0002
     atom  25 (R=0.057)  charge=  1.8172  magn= -0.0001
     atom  26 (R=0.057)  charge=  1.8091  magn= -0.0002
     atom  27 (R=0.057)  charge=  1.8166  magn= -0.0009
     atom  28 (R=0.057)  charge=  1.8170  magn= -0.0001
     atom  29 (R=0.057)  charge=  1.8088  magn= -0.0002
     atom  30 (R=0.057)  charge=  1.8165  magn= -0.0009
     atom  31 (R=0.057)  charge=  1.8171  magn= -0.0001
     atom  32 (R=0.057)  charge=  1.8110  magn= -0.0024
     atom  33 (R=0.057)  charge=  1.8206  magn=  0.0021
     atom  34 (R=0.057)  charge=  1.8178  magn=  0.0000
     atom  35 (R=0.057)  charge=  1.8157  magn= -0.0008
     atom  36 (R=0.057)  charge=  1.8162  magn= -0.0002
     atom  37 (R=0.057)  charge=  1.8177  magn=  0.0000
     atom  38 (R=0.057)  charge=  1.8173  magn= -0.0002
     atom  39 (R=0.057)  charge=  1.8090  magn= -0.0002
     atom  40 (R=0.057)  charge=  1.8176  magn= -0.0001
     atom  41 (R=0.057)  charge=  1.7893  magn=  0.0003
     atom  42 (R=0.057)  charge=  1.8113  magn= -0.0024
     atom  43 (R=0.057)  charge=  1.8156  magn=  0.0000
     atom  44 (R=0.057)  charge=  1.8141  magn= -0.0002
     atom  45 (R=0.057)  charge=  1.8158  magn= -0.0008
     atom  46 (R=0.057)  charge=  1.8160  magn=  0.0001
     atom  47 (R=0.057)  charge=  1.8174  magn=  0.0000
     atom  48 (R=0.057)  charge=  1.8172  magn= -0.0001
     atom  49 (R=0.057)  charge=  1.8214  magn=  0.0015
     atom  50 (R=0.057)  charge=  1.8176  magn= -0.0001
     atom  51 (R=0.057)  charge=  1.8175  magn= -0.0001
     atom  52 (R=0.057)  charge=  1.8165  magn=  0.0001
     atom  53 (R=0.057)  charge=  1.8158  magn=  0.0000
     atom  54 (R=0.057)  charge=  1.8179  magn=  0.0000
     atom  55 (R=0.057)  charge=  1.8170  magn= -0.0001
     atom  56 (R=0.057)  charge=  1.8171  magn= -0.0001
     atom  57 (R=0.057)  charge=  1.8178  magn=  0.0000
     atom  58 (R=0.057)  charge=  1.8088  magn= -0.0002
     atom  59 (R=0.057)  charge=  1.8110  magn= -0.0024
     atom  60 (R=0.057)  charge=  1.8157  magn= -0.0008
     atom  61 (R=0.057)  charge=  1.8165  magn= -0.0009
     atom  62 (R=0.057)  charge=  1.8206  magn=  0.0021
     atom  63 (R=0.057)  charge=  1.8162  magn= -0.0002
     atom  64 (R=0.057)  charge=  1.8177  magn=  0.0000
     atom  65 (R=0.057)  charge=  1.8176  magn= -0.0001
     atom  66 (R=0.057)  charge=  1.8156  magn=  0.0000
     atom  67 (R=0.057)  charge=  1.8173  magn= -0.0002
     atom  68 (R=0.057)  charge=  1.7893  magn=  0.0003
     atom  69 (R=0.057)  charge=  1.8141  magn= -0.0002
     atom  70 (R=0.057)  charge=  1.8090  magn= -0.0002
     atom  71 (R=0.057)  charge=  1.8113  magn= -0.0024
     atom  72 (R=0.057)  charge=  1.8158  magn= -0.0008
     atom  73 (R=0.057)  charge=  1.8160  magn=  0.0001
     atom  74 (R=0.057)  charge=  1.8214  magn=  0.0015
     atom  75 (R=0.057)  charge=  1.8165  magn=  0.0001
     atom  76 (R=0.057)  charge=  1.8174  magn=  0.0000
     atom  77 (R=0.057)  charge=  1.8176  magn= -0.0001
     atom  78 (R=0.057)  charge=  1.8158  magn=  0.0000
     atom  79 (R=0.057)  charge=  1.8172  magn= -0.0001
     atom  80 (R=0.057)  charge=  1.8175  magn= -0.0001
     atom  81 (R=0.057)  charge=  1.8179  magn=  0.0000
     atom  82 (R=0.057)  charge=  1.8153  magn=  0.0001
     atom  83 (R=0.057)  charge=  1.8203  magn=  0.0018
     atom  84 (R=0.057)  charge=  1.8167  magn=  0.0000
     atom  85 (R=0.057)  charge=  1.8203  magn=  0.0018
     atom  86 (R=0.057)  charge=  1.8163  magn= -0.0007
     atom  87 (R=0.057)  charge=  1.8200  magn=  0.0035
     atom  88 (R=0.057)  charge=  1.8167  magn=  0.0000
     atom  89 (R=0.057)  charge=  1.8200  magn=  0.0035
     atom  90 (R=0.057)  charge=  1.8172  magn=  0.0005
     atom  91 (R=0.057)  charge=  1.8207  magn=  0.0012
     atom  92 (R=0.057)  charge=  1.8195  magn= -0.0005
     atom  93 (R=0.057)  charge=  1.8204  magn=  0.0018
     atom  94 (R=0.057)  charge=  1.8195  magn= -0.0005
     atom  95 (R=0.057)  charge=  1.8166  magn= -0.0007
     atom  96 (R=0.057)  charge=  1.8204  magn=  0.0018
     atom  97 (R=0.057)  charge=  1.8166  magn= -0.0007
     atom  98 (R=0.057)  charge=  1.8199  magn=  0.0035
     atom  99 (R=0.057)  charge=  1.8168  magn=  0.0001
     atom 100 (R=0.057)  charge=  1.8207  magn=  0.0012
     atom 101 (R=0.057)  charge=  1.8156  magn=  0.0001
     atom 102 (R=0.057)  charge=  1.8207  magn=  0.0012
     atom 103 (R=0.057)  charge=  1.8197  magn= -0.0005
     atom 104 (R=0.057)  charge=  1.8201  magn=  0.0018
     atom 105 (R=0.057)  charge=  1.8156  magn=  0.0001
     atom 106 (R=0.057)  charge=  1.8201  magn=  0.0018
     atom 107 (R=0.057)  charge=  1.8168  magn=  0.0000
     atom 108 (R=0.057)  charge=  1.8145  magn=  0.0002
     atom 109 (R=0.057)  charge=  1.8110  magn=  0.0001
     atom 110 (R=0.057)  charge=  1.8142  magn=  0.0014
     atom 111 (R=0.057)  charge=  1.8110  magn=  0.0001
     atom 112 (R=0.057)  charge=  1.8135  magn=  0.0047
     atom 113 (R=0.057)  charge=  1.8142  magn=  0.0152
     atom 114 (R=0.057)  charge=  1.8142  magn=  0.0014
     atom 115 (R=0.057)  charge=  1.8142  magn=  0.0152
     atom 116 (R=0.057)  charge=  1.8133  magn=  0.0008
     atom 117 (R=0.057)  charge=  1.8163  magn=  0.0010
     atom 118 (R=0.057)  charge=  1.8141  magn=  0.0010
     atom 119 (R=0.057)  charge=  1.8111  magn=  0.0001
     atom 120 (R=0.057)  charge=  1.8141  magn=  0.0010
     atom 121 (R=0.057)  charge=  1.8136  magn=  0.0047
     atom 122 (R=0.057)  charge=  1.8111  magn=  0.0001
     atom 123 (R=0.057)  charge=  1.8136  magn=  0.0047
     atom 124 (R=0.057)  charge=  1.8142  magn=  0.0152
     atom 125 (R=0.057)  charge=  1.8145  magn=  0.0008
     atom 126 (R=0.057)  charge=  1.8163  magn=  0.0010
     atom 127 (R=0.057)  charge=  1.8145  magn=  0.0002
     atom 128 (R=0.057)  charge=  1.8163  magn=  0.0010
     atom 129 (R=0.057)  charge=  1.8141  magn=  0.0010
     atom 130 (R=0.057)  charge=  1.8111  magn=  0.0001
     atom 131 (R=0.057)  charge=  1.8145  magn=  0.0002
     atom 132 (R=0.057)  charge=  1.8111  magn=  0.0001
     atom 133 (R=0.057)  charge=  1.8142  magn=  0.0014
     atom 134 (R=0.057)  charge=  1.8134  magn=  0.0001
     atom 135 (R=0.057)  charge=  1.8059  magn=  0.0039
     atom 136 (R=0.057)  charge=  1.8108  magn=  0.0149
     atom 137 (R=0.057)  charge=  1.8137  magn=  0.0012
     atom 138 (R=0.057)  charge=  1.8255  magn=  0.1891
     atom 139 (R=0.057)  charge=  1.8135  magn=  0.0045
     atom 140 (R=0.057)  charge=  1.8150  magn=  0.0013
     atom 141 (R=0.057)  charge=  1.8141  magn=  0.0009
     atom 142 (R=0.057)  charge=  1.8131  magn=  0.0003
     atom 143 (R=0.057)  charge=  1.8163  magn=  0.0012
     atom 144 (R=0.057)  charge=  1.8201  magn=  0.0081
     atom 145 (R=0.057)  charge=  1.8140  magn=  0.0001
     atom 146 (R=0.057)  charge=  1.8134  magn=  0.0001
     atom 147 (R=0.057)  charge=  1.8061  magn=  0.0039
     atom 148 (R=0.057)  charge=  1.8108  magn=  0.0149
     atom 149 (R=0.057)  charge=  1.8147  magn=  0.0003
     atom 150 (R=0.057)  charge=  1.8134  magn=  0.0001
     atom 151 (R=0.057)  charge=  1.8145  magn=  0.0012
     atom 152 (R=0.057)  charge=  1.8147  magn=  0.0003
     atom 153 (R=0.057)  charge=  1.8134  magn=  0.0001
     atom 154 (R=0.057)  charge=  1.8145  magn=  0.0012
     atom 155 (R=0.057)  charge=  1.8150  magn=  0.0013
     atom 156 (R=0.057)  charge=  1.8141  magn=  0.0009
     atom 157 (R=0.057)  charge=  1.8131  magn=  0.0003
     atom 158 (R=0.057)  charge=  1.8142  magn=  0.0006
     atom 159 (R=0.057)  charge=  1.8149  magn=  0.0017
     atom 160 (R=0.057)  charge=  1.8142  magn=  0.0004
     atom 161 (R=0.057)  charge=  1.8134  magn=  0.0001
     atom 162 (R=0.057)  charge=  1.8137  magn=  0.0012
     atom 163 (R=0.057)  charge=  1.8150  magn=  0.0013
     atom 164 (R=0.057)  charge=  1.8059  magn=  0.0039
     atom 165 (R=0.057)  charge=  1.8255  magn=  0.1891
     atom 166 (R=0.057)  charge=  1.8141  magn=  0.0009
     atom 167 (R=0.057)  charge=  1.8108  magn=  0.0149
     atom 168 (R=0.057)  charge=  1.8135  magn=  0.0045
     atom 169 (R=0.057)  charge=  1.8131  magn=  0.0003
     atom 170 (R=0.057)  charge=  1.8163  magn=  0.0012
     atom 171 (R=0.057)  charge=  1.8134  magn=  0.0001
     atom 172 (R=0.057)  charge=  1.8147  magn=  0.0003
     atom 173 (R=0.057)  charge=  1.8201  magn=  0.0081
     atom 174 (R=0.057)  charge=  1.8061  magn=  0.0039
     atom 175 (R=0.057)  charge=  1.8134  magn=  0.0001
     atom 176 (R=0.057)  charge=  1.8140  magn=  0.0001
     atom 177 (R=0.057)  charge=  1.8108  magn=  0.0149
     atom 178 (R=0.057)  charge=  1.8145  magn=  0.0012
     atom 179 (R=0.057)  charge=  1.8147  magn=  0.0003
     atom 180 (R=0.057)  charge=  1.8150  magn=  0.0013
     atom 181 (R=0.057)  charge=  1.8142  magn=  0.0006
     atom 182 (R=0.057)  charge=  1.8134  magn=  0.0001
     atom 183 (R=0.057)  charge=  1.8141  magn=  0.0009
     atom 184 (R=0.057)  charge=  1.8149  magn=  0.0017
     atom 185 (R=0.057)  charge=  1.8145  magn=  0.0012
     atom 186 (R=0.057)  charge=  1.8131  magn=  0.0003
     atom 187 (R=0.057)  charge=  1.8142  magn=  0.0004
     atom 188 (R=0.057)  charge=  1.8138  magn=  0.0001
     atom 189 (R=0.057)  charge=  1.8108  magn=  0.0149
     atom 190 (R=0.057)  charge=  1.8145  magn=  0.0012
     atom 191 (R=0.057)  charge=  1.8108  magn=  0.0149
     atom 192 (R=0.057)  charge=  1.8135  magn=  0.0045
     atom 193 (R=0.057)  charge=  1.8131  magn=  0.0003
     atom 194 (R=0.057)  charge=  1.8145  magn=  0.0012
     atom 195 (R=0.057)  charge=  1.8131  magn=  0.0003
     atom 196 (R=0.057)  charge=  1.8142  magn=  0.0004
     atom 197 (R=0.057)  charge=  1.8200  magn=  0.0081
     atom 198 (R=0.057)  charge=  1.8061  magn=  0.0039
     atom 199 (R=0.057)  charge=  1.8134  magn=  0.0001
     atom 200 (R=0.057)  charge=  1.8061  magn=  0.0039
     atom 201 (R=0.057)  charge=  1.8256  magn=  0.1891
     atom 202 (R=0.057)  charge=  1.8141  magn=  0.0009
     atom 203 (R=0.057)  charge=  1.8134  magn=  0.0001
     atom 204 (R=0.057)  charge=  1.8141  magn=  0.0009
     atom 205 (R=0.057)  charge=  1.8149  magn=  0.0017
     atom 206 (R=0.057)  charge=  1.8162  magn=  0.0012
     atom 207 (R=0.057)  charge=  1.8134  magn=  0.0001
     atom 208 (R=0.057)  charge=  1.8147  magn=  0.0003
     atom 209 (R=0.057)  charge=  1.8134  magn=  0.0001
     atom 210 (R=0.057)  charge=  1.8137  magn=  0.0012
     atom 211 (R=0.057)  charge=  1.8150  magn=  0.0013
     atom 212 (R=0.057)  charge=  1.8147  magn=  0.0003
     atom 213 (R=0.057)  charge=  1.8150  magn=  0.0013
     atom 214 (R=0.057)  charge=  1.8142  magn=  0.0006
     atom 215 (R=0.057)  charge=  2.8788  magn=  0.1278

     total cpu time spent up to now is      367.0 secs

     End of self-consistent calculation

 ------ SPIN UP ------------


          k = 0.0000 0.0000 0.0000 ( 42379 PWs)   bands (ev):

    -8.3261  -7.6683  -7.2881  -7.2881  -7.2314  -7.2313  -7.1662  -6.7477
    -6.2998  -6.2998  -6.2769  -6.2769  -6.2527  -6.2385  -6.2292  -6.2292
    -6.1645  -6.1645  -6.0130  -5.5701  -5.2620  -5.2620  -5.2614  -5.2227
    -5.2189  -5.2189  -5.0602  -4.5078  -4.2741  -4.2741  -4.2457  -4.2457
    -4.1948  -3.9281  -3.4214  -3.4214  -3.3824  -3.3824  -3.3744  -3.3603
    -3.3603  -3.3594  -3.3520  -3.3520  -3.3501  -3.3263  -3.3254  -3.3254
    -3.2970  -3.2970  -3.2751  -3.2744  -3.2721  -3.2721  -3.1884  -3.1884
    -3.0336  -2.8595  -2.6478  -2.6478  -2.5906  -2.5797  -2.5797  -2.5698
    -2.5666  -2.5666  -2.5645  -2.5413  -2.5413  -2.5249  -2.5249  -2.5194
    -2.4995  -2.4994  -2.4568  -2.4502  -2.4502  -2.4137  -2.2800  -2.2799
    -1.6469  -1.0890  -0.9261  -0.9261  -0.8662  -0.8662  -0.8597  -0.8539
    -0.8538  -0.8398  -0.7885  -0.7885  -0.4446   0.3311   0.3834   0.3834
     0.4168   0.4168   0.4547   0.6473   0.7871   0.7871   0.8897   0.8914
     0.8914   0.8993   0.8993   0.9025   0.9093   0.9094   0.9187   0.9496
     0.9496   0.9675   0.9990   1.0179   1.0179   1.0297   1.0297   1.0513
     1.0755   1.0756   1.0782   1.1070   1.1071   1.1093   1.1269   1.1371
     1.1372   1.1392   1.1517   1.1529   1.1529   1.1743   1.1743   1.1986
     1.1986   1.2123   1.2123   1.2143   1.2189   1.2189   1.2404   1.4259
     1.5710   1.5710   1.9406   2.1821   2.1821   2.1857   2.2427   2.2427
     2.2443   2.2624   2.2770   2.2770   2.4278   2.4278   3.3508   3.6597
     3.6597   3.7188   3.7834   3.7931   3.7950   3.7950   3.8003   3.8003
     3.8096   3.8151   3.8292   3.8333   3.8333   3.8587   3.8587   3.9625
     3.9626   3.9644   4.0041   4.3163   4.3163   4.3637   4.4453   4.4503
     4.4503   4.4564   4.4577   4.4577   4.4667   4.4667   4.4754   4.4828
     4.4899   4.4899   4.4917   4.4918   4.5071   4.5358   4.5358   4.5394
     4.7464   4.7464   5.1856   5.1856   5.2462   5.3104   5.3104   5.3121
     5.3153   5.3153   5.3162   5.3313   5.3365   5.3365   5.3608   5.3608
     5.4134   5.4134   5.4243   5.4348   5.4463   5.4719   5.4719   5.5020
     5.5411   5.5411   5.6101   5.7173   5.7173   5.8204   5.8316   5.8316
     5.8547   5.8616   5.8616   5.8667   5.8727   5.8727   5.8729   5.8813
     5.8813   5.8957   5.8984   5.9170   5.9170   5.9271   5.9458   5.9458
     5.9516   5.9773   5.9773   6.0199   6.0199   6.2777   6.3501   6.3502
     6.8267   6.8267   6.9080   6.9096   6.9456   6.9456   7.0444   7.3400
     7.3400   7.4418   7.4516   7.4516   7.4758   7.4792   7.4792   7.4995
     7.5591   7.5591   7.6826   7.6826   7.8129   7.8609   7.8624   7.8624
     7.8642   7.8807   7.8808   7.9085   7.9299   7.9299   7.9427   8.0494
     8.0494   8.0829   8.1050   8.1128   8.1128   8.1293   8.1339   8.1339
     8.1347   8.1347   8.1448   8.1498   8.1498   8.1564   8.1834   8.1834
     8.1964   8.2030   8.2030   8.2059   8.2059   8.2211   8.2647   8.2647
     8.2926   8.3195   8.3195   8.3195   8.3232   8.3274   8.3336   8.3336
     8.3392   8.3392   8.3532   8.3535   8.3545   8.3545   8.3620   8.3620
     8.3654   8.3670   8.3671   8.3741   8.3834   8.3834   8.3920   8.3969
     8.3970   8.4009   8.4091   8.4091   8.4331   8.4331   8.4333   8.4542
     8.4543   8.4921   8.4974   8.4975   8.5304   8.5510   8.5518   8.5518
     8.5689   8.6748   8.6748   8.9015   8.9232   8.9232   9.0797   9.0798
     9.1550   9.1553   9.1553   9.1615   9.1929   9.1930   9.2004   9.2013
     9.2252   9.2252   9.2315   9.2407   9.2407   9.2506   9.2507   9.2697
     9.3133   9.3133   9.4041   9.9017  10.1551  10.1552  10.4508  10.5038
    10.5038  10.5696  10.5697  10.5805  10.6028  10.6084  10.6134  10.6135
    10.6692  10.6693  10.6906  10.7614  10.7615  10.8245  10.8323  10.8323
    10.8403  10.8403  10.8485  10.8485  10.8609  10.8806  10.8806  10.9061
    10.9175  10.9175  10.9214  10.9356  10.9356  11.4161  11.5257  11.5257
    11.6914  11.7368  11.7369  11.7530  11.7812  11.7812  11.7875  11.8322
    11.8614  11.8614  12.9125  13.0201  13.0203  13.6639  15.3244  15.3245
    17.2965  17.2965  17.3028  17.3522  17.3522  17.3733  17.8505  17.9368
    17.9368  17.9562  17.9562  18.0158  18.0810  18.0810  18.1319  18.1856
    18.1856  18.2040  18.8050  18.8052  18.8366  19.3458  19.4682  19.4682
    19.4872  19.5165  19.5165  19.5318  19.5319  19.5401  19.5486  19.5487
    19.5864  19.9590  20.1693  20.1693  20.2115  20.2185  20.2185  20.2212
    20.2260  20.2260  20.2368  20.2368  20.2505  20.2505  20.2533  20.2633
    20.2848  20.2862  20.2862  20.3293  20.3294  20.3513  20.3678  20.3678
    20.3714  20.6066  20.6312  20.6313  20.6988  20.7076  20.7165  20.7165
    20.7276  20.7277  20.7371  20.7486  20.7486  20.7633  20.7799  20.7800
    20.8103  20.8103  20.8106  20.8290  20.8293  20.8293  20.8359  20.8606
    20.8607  20.8628  20.8722  20.8722  20.8802  20.8803  20.8850  20.8850
    20.8961  20.9132  20.9132  20.9490  20.9514  21.0094  21.0153  21.0153
    21.0726  21.0726  21.0841  21.1863  21.2775  21.2775  21.3060  21.3286
    21.3286  21.3413  21.3438  21.3438  21.3519  21.3522  21.3522  21.3660
    21.3661  21.3932  21.3989  21.3990  21.4004  21.4067  21.4067  21.4154
    21.4231  21.4232  21.4311  21.4362  21.4363  21.4510  21.4511  21.4635
    21.4673  21.4673  21.4905  21.5072  21.5072  21.5217  21.5953  21.6107
    21.6107  21.6307  21.6534  21.6534  21.6584  21.6856  21.6856  21.6866
    21.7020  21.7021  21.7259  21.7517  21.7517  21.7740  21.8047  21.8258
    21.8258  21.9508  21.9508  21.9685  21.9778  21.9779  22.1124  22.1124
    22.1292  22.1741  22.1741  22.1920  22.2023  22.2025  22.2025  22.3249
    22.3438  22.3439  22.3929  22.4549  22.4550  22.4843  22.4878  22.4878
    22.6523  22.6854  22.6854  22.7990  22.9522  22.9522  22.9763  23.0997
    23.0998  23.1095  23.1207  23.1207  23.1259  23.1260  23.1430  23.1438
    23.1439  23.1498  23.1724  23.1770  23.2047  23.2048  23.2083  23.2607
    23.2986  23.2987  23.3532  23.3532  23.4195  23.4516  23.4517  23.7753
    23.7753  23.7757  23.7867  23.8024  23.8079  23.8079  23.8094  23.8299
    23.8299  23.8439  23.8440  23.8603  23.8603  23.8671  23.8934  23.8989
    23.9667  23.9760  23.9760  24.0980  24.0980  24.1776  24.1777  24.2200
    24.2276  24.2276  24.2431  24.2755  24.2763  24.2764  24.2823  24.2823
    24.2986  24.3321  24.3321  24.3467  24.3784  24.3784  24.3980  24.3980
    24.4016  24.4043  24.4043  24.4162  24.4598  24.4762  24.4762  24.4787
    24.4851  24.4860  24.4860  24.5070  24.5149  24.5149  24.5337  24.5337
    24.5361  24.5616  24.5616  24.5913  24.6414  24.6414  24.6525  24.7944
    24.7945  24.8758  24.8758  25.4647  25.4966  25.4966  25.5941  25.7471
    25.7900  25.7900  25.8039  25.8039  25.9937  25.9938  25.9961  26.0103
    26.0497  26.0497  26.0866  26.1165  26.1407  26.1407  26.1912  26.2782
    26.2783  26.4330  26.5599  26.5599  26.5716  26.6272  26.6418  26.6418
    26.6449  26.6765  26.6765  26.6843  26.6843  26.6977  26.7494  26.7497
    26.7497  26.7672  26.7853  26.7853  26.8304  26.8311  26.8311  26.9385
    26.9386  27.0331  27.0331  27.0745  27.0854  27.0998  27.0998  27.1063
    27.1209  27.1229  27.1230  27.1273  27.1273  27.1521  27.1521  27.1762
    27.1839  27.2109  27.2109  27.2433  27.2434  27.2553  27.2631  27.2631
    27.2752  27.2811  27.2946  27.2946  27.3012  27.3100  27.3101  27.3104
    27.3131  27.3131  27.3352  27.3465  27.3465  27.3540  27.3637  27.3638
    27.3641  27.3780  27.3829  27.3829  27.3982  27.3982  27.4114  27.4195
    27.4362  27.4362  27.4577  27.4775  27.4776  27.5042  27.5042  27.5145
    27.5145  27.5343  27.5459  27.5531  27.5531  27.5579  27.5761  27.5867
    27.5867  27.5965  27.5965  27.6090  27.6174  27.6209  27.6209  27.6535
    27.6536  27.7111  27.7136  27.7136  27.7402  27.8248  27.8248  27.8808
    27.9069  27.9226  27.9226  27.9725  28.0461  28.0462  28.0875  28.0875
    28.1239  28.1507  28.1507  28.2907  28.2908  28.3004  28.3248  28.3647
    28.3724  28.3724  28.5430  28.5984  28.5985  28.6276  29.7026  29.7941
    29.7942  29.8650  29.9350  29.9351  29.9882  30.0613

 ------ SPIN DOWN ----------


          k = 0.0000 0.0000 0.0000 ( 42379 PWs)   bands (ev):

    -8.3132  -7.6212  -7.2854  -7.2854  -7.2258  -7.2258  -7.1540  -6.7196
    -6.2965  -6.2965  -6.2748  -6.2747  -6.2493  -6.2340  -6.2240  -6.2240
    -6.1513  -6.1513  -5.9917  -5.5518  -5.2569  -5.2555  -5.2555  -5.2157
    -5.2067  -5.2067  -5.0382  -4.4820  -4.2683  -4.2683  -4.2380  -4.2380
    -4.1871  -3.9028  -3.4138  -3.4138  -3.3797  -3.3797  -3.3737  -3.3568
    -3.3563  -3.3563  -3.3494  -3.3494  -3.3477  -3.3246  -3.3216  -3.3216
    -3.2881  -3.2881  -3.2702  -3.2655  -3.2634  -3.2634  -3.1684  -3.1684
    -3.0215  -2.8502  -2.6429  -2.6429  -2.5867  -2.5755  -2.5755  -2.5628
    -2.5624  -2.5623  -2.5623  -2.5370  -2.5370  -2.5185  -2.5185  -2.5108
    -2.4949  -2.4948  -2.4467  -2.4392  -2.4392  -2.4025  -2.2272  -2.2272
    -1.5933  -1.0748  -0.9207  -0.9207  -0.8574  -0.8574  -0.8544  -0.8468
    -0.8468  -0.8348  -0.7624  -0.7624  -0.3926   0.3475   0.3886   0.3886
     0.4230   0.4230   0.4607   0.6729   0.7962   0.7962   0.8901   0.8937
     0.8937   0.9016   0.9017   0.9059   0.9151   0.9151   0.9205   0.9525
     0.9525   0.9745   1.0078   1.0266   1.0266   1.0395   1.0395   1.0568
     1.0827   1.0871   1.0871   1.1122   1.1122   1.1175   1.1308   1.1413
     1.1421   1.1422   1.1594   1.1595   1.1610   1.1781   1.1782   1.2046
     1.2046   1.2179   1.2179   1.2203   1.2377   1.2377   1.2717   1.4462
     1.6114   1.6114   1.9608   2.1901   2.1902   2.2056   2.2468   2.2468
     2.2483   2.2704   2.2831   2.2831   2.4784   2.4784   3.4188   3.6728
     3.6728   3.7313   3.7906   3.8000   3.8000   3.8003   3.8022   3.8023
     3.8124   3.8208   3.8371   3.8376   3.8376   3.8667   3.8668   3.9763
     3.9763   3.9781   4.0223   4.3273   4.3273   4.3879   4.4470   4.4529
     4.4529   4.4587   4.4626   4.4626   4.4728   4.4728   4.4853   4.4942
     4.4950   4.4950   4.4998   4.4999   4.5180   4.5457   4.5458   4.5473
     4.7950   4.7950   5.1988   5.1988   5.2629   5.3121   5.3122   5.3169
     5.3180   5.3186   5.3187   5.3331   5.3404   5.3404   5.3646   5.3646
     5.4195   5.4196   5.4300   5.4445   5.4539   5.4836   5.4836   5.5142
     5.5498   5.5498   5.6427   5.7260   5.7261   5.8335   5.8348   5.8348
     5.8589   5.8652   5.8652   5.8713   5.8780   5.8780   5.8825   5.8879
     5.8879   5.9023   5.9115   5.9290   5.9290   5.9305   5.9553   5.9553
     5.9699   5.9886   5.9886   6.0349   6.0349   6.3136   6.3860   6.3860
     6.8366   6.8367   6.9169   6.9261   6.9602   6.9602   7.1143   7.3563
     7.3563   7.4540   7.4549   7.4549   7.4795   7.4854   7.4854   7.5177
     7.5721   7.5721   7.6925   7.6925   7.8369   7.8652   7.8678   7.8678
     7.8850   7.8899   7.8899   7.9156   7.9389   7.9390   7.9574   8.0602
     8.0602   8.0872   8.1082   8.1163   8.1164   8.1325   8.1368   8.1368
     8.1383   8.1383   8.1471   8.1523   8.1523   8.1619   8.1889   8.1890
     8.2006   8.2081   8.2081   8.2175   8.2175   8.2286   8.2706   8.2706
     8.3005   8.3223   8.3223   8.3249   8.3295   8.3344   8.3360   8.3361
     8.3422   8.3422   8.3562   8.3580   8.3581   8.3586   8.3678   8.3678
     8.3698   8.3712   8.3712   8.3788   8.3890   8.3890   8.4040   8.4048
     8.4048   8.4136   8.4223   8.4223   8.4398   8.4398   8.4415   8.4594
     8.4595   8.5098   8.5098   8.5202   8.5411   8.5552   8.5717   8.5717
     8.5852   8.7076   8.7076   8.9218   8.9384   8.9385   9.0865   9.0866
     9.1576   9.1586   9.1586   9.1635   9.1981   9.1981   9.2044   9.2144
     9.2316   9.2316   9.2386   9.2545   9.2545   9.2679   9.2680   9.2753
     9.3451   9.3451   9.4348   9.9876  10.2079  10.2080  10.5177  10.5178
    10.5729  10.5730  10.5824  10.5847  10.6052  10.6247  10.6247  10.6385
    10.6742  10.6743  10.7000  10.7659  10.7660  10.8339  10.8385  10.8385
    10.8461  10.8462  10.8604  10.8604  10.8655  10.8916  10.8916  10.9208
    10.9328  10.9328  10.9384  10.9438  10.9438  11.4931  11.5495  11.5495
    11.7452  11.7453  11.7552  11.7884  11.7884  11.7909  11.8435  11.8790
    11.8790  11.9999  13.0468  13.0486  13.0488  14.3702  16.2748  16.2748
    17.3005  17.3006  17.3179  17.3627  17.3627  17.3827  17.8622  17.9439
    17.9440  17.9618  17.9619  18.0246  18.0864  18.0864  18.1586  18.2015
    18.2015  18.2151  18.8226  18.8228  18.8488  19.3652  19.4714  19.4714
    19.4896  19.5247  19.5247  19.5371  19.5371  19.5460  19.5530  19.5531
    19.5936  19.9763  20.1732  20.1732  20.2142  20.2220  20.2220  20.2245
    20.2300  20.2300  20.2426  20.2426  20.2568  20.2568  20.2581  20.2680
    20.2904  20.2942  20.2942  20.3352  20.3352  20.3608  20.3758  20.3758
    20.3792  20.6200  20.6413  20.6413  20.7007  20.7091  20.7194  20.7195
    20.7310  20.7310  20.7394  20.7509  20.7510  20.7668  20.7842  20.7842
    20.8140  20.8144  20.8145  20.8331  20.8331  20.8395  20.8406  20.8666
    20.8699  20.8699  20.8819  20.8819  20.8906  20.8907  20.8941  20.8941
    20.9015  20.9188  20.9188  20.9556  20.9601  21.0206  21.0216  21.0217
    21.0801  21.0801  21.0915  21.1954  21.2848  21.2848  21.3091  21.3326
    21.3326  21.3448  21.3470  21.3471  21.3558  21.3578  21.3578  21.3712
    21.3712  21.3964  21.4038  21.4039  21.4112  21.4113  21.4115  21.4205
    21.4320  21.4320  21.4385  21.4413  21.4414  21.4682  21.4683  21.4771
    21.4771  21.4801  21.5022  21.5273  21.5273  21.5443  21.6010  21.6210
    21.6210  21.6343  21.6579  21.6579  21.6614  21.6930  21.6930  21.7002
    21.7101  21.7101  21.7382  21.7572  21.7573  21.7793  21.8258  21.8427
    21.8427  21.9730  21.9730  21.9760  21.9950  21.9951  22.1162  22.1162
    22.1312  22.1886  22.1886  22.1996  22.2102  22.2103  22.2105  22.3386
    22.3541  22.3542  22.4129  22.4638  22.4639  22.4915  22.4920  22.4920
    22.6759  22.7201  22.7201  22.8633  22.9702  22.9702  22.9951  23.1060
    23.1061  23.1114  23.1238  23.1238  23.1298  23.1299  23.1470  23.1471
    23.1484  23.1537  23.1817  23.1926  23.2167  23.2167  23.2323  23.2937
    23.3355  23.3355  23.3739  23.3739  23.4436  23.4793  23.4794  23.7796
    23.7841  23.7841  23.7899  23.8124  23.8127  23.8127  23.8355  23.8355
    23.8443  23.8533  23.8533  23.8674  23.8675  23.8736  23.9048  23.9105
    23.9753  23.9949  23.9950  24.1109  24.1109  24.1918  24.1919  24.2278
    24.2328  24.2328  24.2461  24.2803  24.2803  24.2817  24.2872  24.2872
    24.3057  24.3388  24.3389  24.3518  24.3885  24.3885  24.4062  24.4062
    24.4083  24.4185  24.4185  24.4262  24.4634  24.4809  24.4922  24.4923
    24.5056  24.5056  24.5073  24.5152  24.5213  24.5213  24.5403  24.5445
    24.5445  24.5681  24.5681  24.6150  24.6746  24.6750  24.6751  24.8939
    24.8939  24.9336  24.9336  25.5231  25.5408  25.5408  25.6213  25.7596
    25.8017  25.8017  25.8148  25.8148  25.9987  26.0045  26.0045  26.0150
    26.0593  26.0593  26.1142  26.1260  26.1564  26.1564  26.2147  26.3052
    26.3053  26.4485  26.5699  26.5699  26.5913  26.6334  26.6476  26.6476
    26.6508  26.6827  26.6827  26.6917  26.6917  26.7110  26.7578  26.7579
    26.7630  26.7720  26.7911  26.7911  26.8385  26.8435  26.8435  26.9595
    26.9595  27.0450  27.0451  27.0842  27.0881  27.1039  27.1040  27.1106
    27.1255  27.1267  27.1268  27.1307  27.1307  27.1580  27.1580  27.1878
    27.1880  27.2158  27.2159  27.2491  27.2492  27.2594  27.2677  27.2677
    27.2832  27.2850  27.3032  27.3032  27.3087  27.3152  27.3152  27.3209
    27.3209  27.3229  27.3376  27.3575  27.3575  27.3604  27.3692  27.3710
    27.3710  27.3881  27.3882  27.3883  27.4052  27.4052  27.4274  27.4361
    27.4471  27.4471  27.4640  27.4873  27.4874  27.5139  27.5139  27.5262
    27.5263  27.5411  27.5502  27.5574  27.5574  27.5654  27.5814  27.5953
    27.5953  27.6047  27.6047  27.6123  27.6276  27.6276  27.6296  27.6835
    27.6836  27.7383  27.7383  27.7655  27.7754  27.8683  27.8683  27.8949
    27.9173  27.9408  27.9408  27.9993  28.0624  28.0625  28.1174  28.1174
    28.1362  28.1780  28.1780  28.3149  28.3318  28.3319  28.3369  28.4177
    28.4251  28.4251  28.6031  28.6819  28.6820  28.7246  29.7371  29.8094
    29.8095  29.9244  29.9573  29.9574  30.0057  30.0688

     highest occupied, lowest unoccupied level (ev):    15.32447706   14.37019527

!    total energy              =   -3971.21257337 Ry
     total all-electron energy =    -16414.028176 Ry
     estimated scf accuracy    <          2.1E-09 Ry

     The total energy is the sum of the following terms:
     one-electron contribution =     886.32067966 Ry
     hartree contribution      =     217.88504247 Ry
     xc contribution           =   -1009.01744122 Ry
     ewald contribution        =   -2739.62613687 Ry
     one-center paw contrib.   =   -1326.77471742 Ry

     total magnetization       =     2.00 Bohr mag/cell
     absolute magnetization    =     2.20 Bohr mag/cell

     convergence has been achieved in  17 iterations

     Forces acting on atoms (cartesian axes, Ry/au):

     atom    1 type  1   force =     0.00022539    0.00036131   -0.00031294
     atom    2 type  1   force =    -0.00019817    0.00003502    0.00020231
     atom    3 type  1   force =     0.00040605    0.00074732   -0.00028254
     atom    4 type  1   force =    -0.00021038    0.00003178    0.00019008
     atom    5 type  1   force =    -0.00035714    0.00009445    0.00033417
     atom    6 type  1   force =     0.00036927    0.00032544    0.00125332
     atom    7 type  1   force =     0.00011000    0.00067518   -0.00057859
     atom    8 type  1   force =    -0.00128375   -0.00007569   -0.00039960
     atom    9 type  1   force =     0.00099860   -0.00006522   -0.00098278
     atom   10 type  1   force =     0.00136728    0.00056634   -0.00150443
     atom   11 type  1   force =     0.00006704   -0.00018212    0.00022017
     atom   12 type  1   force =     0.00009599   -0.00014076    0.00049190
     atom   13 type  1   force =    -0.00016902   -0.00023958   -0.00001589
     atom   14 type  1   force =     0.01185313    0.00160383   -0.01224233
     atom   15 type  1   force =     0.01133565    0.00164098   -0.00589969
     atom   16 type  1   force =    -0.00044184   -0.00027142   -0.00004598
     atom   17 type  1   force =     0.00566834    0.00026578   -0.01156731
     atom   18 type  1   force =     0.00961722   -0.01116893   -0.00690708
     atom   19 type  1   force =     0.00013788    0.00017860   -0.00018111
     atom   20 type  1   force =     0.00007272    0.00042219   -0.00040415
     atom   21 type  1   force =    -0.00007178   -0.00004645    0.00004285
     atom   22 type  1   force =     0.00029516    0.00047597   -0.00018164
     atom   23 type  1   force =    -0.00025038    0.00103979   -0.00000196
     atom   24 type  1   force =     0.00048227   -0.00128648   -0.00022228
     atom   25 type  1   force =    -0.00003263   -0.00003717    0.00008204
     atom   26 type  1   force =     0.00053284   -0.00127415   -0.00017170
     atom   27 type  1   force =     0.00127161   -0.00039150   -0.00117670
     atom   28 type  1   force =    -0.00000363   -0.00009647   -0.00000090
     atom   29 type  1   force =     0.00012506   -0.00014565    0.00136980
     atom   30 type  1   force =     0.00067480    0.00125459    0.00105277
     atom   31 type  1   force =    -0.00047799   -0.00017207    0.00009505
     atom   32 type  1   force =     0.00137478    0.01201075    0.00447398
     atom   33 type  1   force =     0.00373027    0.00492002    0.01504181
     atom   34 type  1   force =     0.00007855    0.00077789   -0.00044771
     atom   35 type  1   force =    -0.00131655    0.00002269   -0.00026677
     atom   36 type  1   force =     0.00057665    0.00111346    0.00062614
     atom   37 type  1   force =     0.00033138    0.00039477   -0.00030031
     atom   38 type  1   force =     0.00002921    0.00028445   -0.00103411
     atom   39 type  1   force =     0.00005418   -0.00010414    0.00137939
     atom   40 type  1   force =    -0.00021445   -0.00011966    0.00014621
     atom   41 type  1   force =     0.00709685    0.01457028    0.00547146
     atom   42 type  1   force =     0.00876237    0.00866902    0.00372449
     atom   43 type  1   force =    -0.00011915   -0.00021122   -0.00015349
     atom   44 type  1   force =    -0.00018663   -0.00036948   -0.00029866
     atom   45 type  1   force =     0.00084151   -0.00094856   -0.00048371
     atom   46 type  1   force =     0.00010559    0.00025768   -0.00006388
     atom   47 type  1   force =     0.00002933    0.00052419   -0.00026062
     atom   48 type  1   force =    -0.00006614   -0.00007252    0.00001616
     atom   49 type  1   force =     0.00087012    0.00188182    0.00031387
     atom   50 type  1   force =     0.00008506   -0.00025760    0.00012431
     atom   51 type  1   force =     0.00020958   -0.00048638    0.00003603
     atom   52 type  1   force =     0.00018182    0.00046295   -0.00017184
     atom   53 type  1   force =    -0.00010943   -0.00022548   -0.00014586
     atom   54 type  1   force =     0.00044943    0.00060420   -0.00047226
     atom   55 type  1   force =     0.00002362   -0.00008972    0.00002636
     atom   56 type  1   force =    -0.00006549   -0.00007178    0.00050759
     atom   57 type  1   force =     0.00025403    0.00082050   -0.00027233
     atom   58 type  1   force =    -0.00129275   -0.00048971   -0.00004799
     atom   59 type  1   force =    -0.00713755    0.00994520   -0.00403855
     atom   60 type  1   force =     0.00021616    0.00039455    0.00126593
     atom   61 type  1   force =    -0.00129914    0.00077560   -0.00092118
     atom   62 type  1   force =    -0.01566466    0.00021401   -0.00435306
     atom   63 type  1   force =    -0.00085419    0.00076627   -0.00080470
     atom   64 type  1   force =     0.00020822    0.00036497   -0.00042346
     atom   65 type  1   force =    -0.00011998   -0.00009653    0.00024069
     atom   66 type  1   force =     0.00019566   -0.00013479    0.00016134
     atom   67 type  1   force =     0.00093829    0.00050501   -0.00012500
     atom   68 type  1   force =    -0.00854665    0.01077476   -0.01017196
     atom   69 type  1   force =     0.00037172   -0.00023411    0.00025985
     atom   70 type  1   force =    -0.00131380   -0.00043618    0.00001129
     atom   71 type  1   force =    -0.00541075    0.00523008   -0.01044882
     atom   72 type  1   force =     0.00071753   -0.00097878   -0.00060769
     atom   73 type  1   force =     0.00000434    0.00023314   -0.00016506
     atom   74 type  1   force =    -0.00072361    0.00149549   -0.00127986
     atom   75 type  1   force =     0.00006308    0.00043424   -0.00029056
     atom   76 type  1   force =     0.00013043    0.00054858   -0.00015947
     atom   77 type  1   force =    -0.00005775   -0.00029224   -0.00001852
     atom   78 type  1   force =     0.00019170   -0.00015256    0.00015527
     atom   79 type  1   force =    -0.00000052   -0.00005668    0.00008183
     atom   80 type  1   force =     0.00008553   -0.00051645   -0.00008801
     atom   81 type  1   force =     0.00032920    0.00057485   -0.00059246
     atom   82 type  1   force =     0.00013476   -0.00033950   -0.00005242
     atom   83 type  1   force =    -0.00037672   -0.00005767   -0.00202362
     atom   84 type  1   force =     0.00013985    0.00027363    0.00015042
     atom   85 type  1   force =     0.00196846    0.00051130    0.00032167
     atom   86 type  1   force =    -0.00089444   -0.00041792    0.00099578
     atom   87 type  1   force =     0.00087669    0.00187204    0.00033683
     atom   88 type  1   force =    -0.00020662    0.00018968   -0.00019602
     atom   89 type  1   force =    -0.00074343    0.00147899   -0.00128321
     atom   90 type  1   force =     0.00033602    0.00086750   -0.00054637
     atom   91 type  1   force =     0.00233297    0.00262883   -0.00297080
     atom   92 type  1   force =     0.00019775    0.00037387    0.00028025
     atom   93 type  1   force =    -0.00012098   -0.00016352   -0.00204697
     atom   94 type  1   force =    -0.00035473    0.00023977   -0.00027234
     atom   95 type  1   force =     0.00044304   -0.00102852    0.00085631
     atom   96 type  1   force =     0.00202368    0.00035683    0.00009746
     atom   97 type  1   force =    -0.00057679   -0.00127591   -0.00016358
     atom   98 type  1   force =     0.00137707    0.00053315   -0.00150635
     atom   99 type  1   force =     0.00029661    0.00076492   -0.00048219
     atom  100 type  1   force =    -0.00004800    0.00370081   -0.00272042
     atom  101 type  1   force =    -0.00034041   -0.00012202   -0.00000187
     atom  102 type  1   force =     0.00176892    0.00414150   -0.00090351
     atom  103 type  1   force =     0.00036930   -0.00009629   -0.00034613
     atom  104 type  1   force =    -0.00083768    0.00176465    0.00060468
     atom  105 type  1   force =     0.00002093   -0.00003420    0.00035950
     atom  106 type  1   force =    -0.00102741    0.00171894    0.00041499
     atom  107 type  1   force =     0.00024287   -0.00001310   -0.00023958
     atom  108 type  1   force =     0.00009498   -0.00058750    0.00004772
     atom  109 type  1   force =    -0.00028375    0.00058289   -0.00042788
     atom  110 type  1   force =    -0.00014385   -0.00037897    0.00033243
     atom  111 type  1   force =     0.00027010    0.00071710    0.00012606
     atom  112 type  1   force =    -0.00079811    0.00109575    0.00053220
     atom  113 type  1   force =    -0.00171319   -0.00355274   -0.00113883
     atom  114 type  1   force =    -0.00023767   -0.00040180    0.00023871
     atom  115 type  1   force =     0.00189458   -0.00267728    0.00246899
     atom  116 type  1   force =    -0.00029830   -0.00075755    0.00048211
     atom  117 type  1   force =    -0.00156211    0.00059215    0.00141849
     atom  118 type  1   force =    -0.00037465   -0.00059180   -0.00098329
     atom  119 type  1   force =     0.00052647    0.00020556   -0.00050992
     atom  120 type  1   force =     0.00108391   -0.00023805    0.00047529
     atom  121 type  1   force =     0.00141751    0.00010985    0.00030956
     atom  122 type  1   force =     0.00046206    0.00018987   -0.00057443
     atom  123 type  1   force =    -0.00028613   -0.00030353   -0.00139401
     atom  124 type  1   force =    -0.00282133   -0.00055393    0.00295578
     atom  125 type  1   force =    -0.00035438   -0.00092131    0.00057800
     atom  126 type  1   force =     0.00168529   -0.00086261    0.00107543
     atom  127 type  1   force =    -0.00049264   -0.00032148    0.00009603
     atom  128 type  1   force =    -0.00079321   -0.00146419   -0.00140300
     atom  129 type  1   force =    -0.00080813    0.00061329    0.00065920
     atom  130 type  1   force =     0.00036593    0.00067649    0.00011058
     atom  131 type  1   force =    -0.00003149   -0.00020969    0.00055719
     atom  132 type  1   force =    -0.00025651    0.00052564   -0.00051184
     atom  133 type  1   force =    -0.00010467   -0.00045822    0.00021591
     atom  134 type  1   force =     0.00054955   -0.00010946    0.00025637
     atom  135 type  1   force =    -0.00062651   -0.00161604   -0.00176239
     atom  136 type  1   force =    -0.00451038   -0.00249565    0.00024843
     atom  137 type  1   force =     0.00018345    0.00048458   -0.00029400
     atom  138 type  1   force =     0.04279700   -0.02524021    0.02992975
     atom  139 type  1   force =    -0.00172495    0.00078104   -0.00101976
     atom  140 type  1   force =    -0.00058985   -0.00027238    0.00108190
     atom  141 type  1   force =     0.00016717    0.00030433   -0.00054225
     atom  142 type  1   force =    -0.00011566   -0.00020588   -0.00023608
     atom  143 type  1   force =    -0.00092268   -0.00112964    0.00058561
     atom  144 type  1   force =     0.00603949   -0.00457818    0.00496670
     atom  145 type  1   force =    -0.00030531    0.00029207   -0.00029211
     atom  146 type  1   force =     0.00056413   -0.00013098    0.00023602
     atom  147 type  1   force =    -0.00155435    0.00092493    0.00169861
     atom  148 type  1   force =    -0.00463519   -0.00213412    0.00071654
     atom  149 type  1   force =    -0.00008541   -0.00022895    0.00063440
     atom  150 type  1   force =    -0.00017166   -0.00060445   -0.00022800
     atom  151 type  1   force =    -0.00010108   -0.00060102   -0.00003013
     atom  152 type  1   force =     0.00008391   -0.00066247    0.00002258
     atom  153 type  1   force =    -0.00037730   -0.00002639    0.00055853
     atom  154 type  1   force =    -0.00024345   -0.00019114    0.00051822
     atom  155 type  1   force =    -0.00023632   -0.00120564   -0.00021362
     atom  156 type  1   force =     0.00004968    0.00064488   -0.00008464
     atom  157 type  1   force =    -0.00022224    0.00013022    0.00021055
     atom  158 type  1   force =    -0.00008651   -0.00041044    0.00027665
     atom  159 type  1   force =     0.00038543   -0.00045284    0.00042898
     atom  160 type  1   force =    -0.00018657   -0.00012155    0.00003339
     atom  161 type  1   force =    -0.00020750   -0.00029305   -0.00050069
     atom  162 type  1   force =     0.00017661    0.00048308   -0.00030087
     atom  163 type  1   force =    -0.00100346   -0.00037274    0.00066830
     atom  164 type  1   force =     0.00207493   -0.00096050    0.00093909
     atom  165 type  1   force =    -0.02190082   -0.04093849   -0.03476826
     atom  166 type  1   force =     0.00045980    0.00037512   -0.00024961
     atom  167 type  1   force =     0.00021785   -0.00134829    0.00497678
     atom  168 type  1   force =     0.00075714    0.00138334    0.00146234
     atom  169 type  1   force =     0.00027456   -0.00011124    0.00015416
     atom  170 type  1   force =    -0.00032895   -0.00098550    0.00117925
     atom  171 type  1   force =    -0.00018233   -0.00031190   -0.00051046
     atom  172 type  1   force =    -0.00056462   -0.00034529    0.00015518
     atom  173 type  1   force =    -0.00357291   -0.00691052   -0.00464568
     atom  174 type  1   force =    -0.00191262    0.00083798    0.00134048
     atom  175 type  1   force =     0.00035903   -0.00047592    0.00030271
     atom  176 type  1   force =     0.00020624    0.00041627    0.00021938
     atom  177 type  1   force =    -0.00032556   -0.00108842    0.00502614
     atom  178 type  1   force =     0.00016813   -0.00053581    0.00023906
     atom  179 type  1   force =     0.00013665   -0.00064964    0.00007534
     atom  180 type  1   force =     0.00048489   -0.00103038    0.00050754
     atom  181 type  1   force =    -0.00017440   -0.00043179    0.00018876
     atom  182 type  1   force =    -0.00054727   -0.00006771    0.00038864
     atom  183 type  1   force =    -0.00006854    0.00061619   -0.00020284
     atom  184 type  1   force =    -0.00029893   -0.00061915   -0.00025538
     atom  185 type  1   force =    -0.00046532   -0.00024489    0.00029635
     atom  186 type  1   force =    -0.00024162    0.00012555    0.00019119
     atom  187 type  1   force =    -0.00000897   -0.00007855    0.00021096
     atom  188 type  1   force =     0.00035445    0.00000366   -0.00035533
     atom  189 type  1   force =     0.00111648   -0.00501990   -0.00032040
     atom  190 type  1   force =     0.00009966   -0.00035036    0.00048886
     atom  191 type  1   force =     0.00152633   -0.00492050    0.00008940
     atom  192 type  1   force =     0.00151905   -0.00068633   -0.00135254
     atom  193 type  1   force =     0.00027536   -0.00009682    0.00016935
     atom  194 type  1   force =    -0.00038940   -0.00046887   -0.00000025
     atom  195 type  1   force =    -0.00013384   -0.00019601   -0.00023988
     atom  196 type  1   force =     0.00003124   -0.00022420    0.00002339
     atom  197 type  1   force =    -0.00650039    0.00106088    0.00624296
     atom  198 type  1   force =    -0.00108691   -0.00141456   -0.00172212
     atom  199 type  1   force =     0.00030593   -0.00034287    0.00049435
     atom  200 type  1   force =     0.00197518   -0.00067151    0.00133983
     atom  201 type  1   force =    -0.04153618    0.01269258    0.03845658
     atom  202 type  1   force =     0.00042275    0.00047630   -0.00011169
     atom  203 type  1   force =    -0.00039067   -0.00051178   -0.00020223
     atom  204 type  1   force =     0.00000830    0.00037595   -0.00052618
     atom  205 type  1   force =    -0.00052110   -0.00005644    0.00053498
     atom  206 type  1   force =    -0.00014119   -0.00147984    0.00050027
     atom  207 type  1   force =    -0.00040592    0.00031883    0.00034252
     atom  208 type  1   force =    -0.00053886   -0.00038342    0.00008532
     atom  209 type  1   force =    -0.00041958    0.00031539    0.00032888
     atom  210 type  1   force =     0.00018232    0.00049391   -0.00030229
     atom  211 type  1   force =    -0.00077109   -0.00096451   -0.00016006
     atom  212 type  1   force =    -0.00000782   -0.00025454    0.00061626
     atom  213 type  1   force =     0.00036074   -0.00068957    0.00097177
     atom  214 type  1   force =    -0.00019799   -0.00036432    0.00028646
     atom  215 type  2   force =     0.00753774    0.01952896   -0.01227626

     Total force =     0.118755     Total SCF correction =     0.000147


     Computing stress (Cartesian axis) and pressure

          total   stress  (Ry/bohr**3)                   (kbar)     P=       27.18
   0.00018046   0.00000456  -0.00000284           26.55        0.67       -0.42
   0.00000456   0.00019043  -0.00000740            0.67       28.01       -1.09
  -0.00000284  -0.00000740   0.00018337           -0.42       -1.09       26.97


     Writing all to output data dir ./tmp/diamond_pd.save/ :
     XML data file, charge density
     init_run     :      5.50s CPU      5.99s WALL (       1 calls)
     electrons    :    353.43s CPU    361.06s WALL (       1 calls)
     forces       :      3.46s CPU      3.55s WALL (       1 calls)
     stress       :     11.71s CPU     11.84s WALL (       1 calls)

     Called by init_run:
     wfcinit      :      4.44s CPU      4.66s WALL (       1 calls)
     potinit      :      0.77s CPU      0.94s WALL (       1 calls)
     hinit0       :      0.14s CPU      0.18s WALL (       1 calls)

     Called by electrons:
     c_bands      :    316.03s CPU    322.44s WALL (      17 calls)
     sum_band     :     22.97s CPU     23.62s WALL (      17 calls)
     v_of_rho     :      0.57s CPU      0.58s WALL (      18 calls)
     newd         :      1.61s CPU      1.90s WALL (      18 calls)
     PAW_pot      :     12.71s CPU     12.94s WALL (      18 calls)
     mix_rho      :      0.32s CPU      0.33s WALL (      17 calls)

     Called by c_bands:
     init_us_2    :      3.45s CPU      3.50s WALL (      74 calls)
     cegterg      :    311.67s CPU    317.80s WALL (      34 calls)

     Called by *egterg:
     cdiaghg      :     67.78s CPU     70.41s WALL (     192 calls)
     h_psi        :     92.90s CPU     94.58s WALL (     194 calls)
     s_psi        :     29.25s CPU     29.42s WALL (     194 calls)
     g_psi        :      0.55s CPU      0.56s WALL (     158 calls)

     Called by h_psi:
     h_psi:calbec :     28.75s CPU     28.92s WALL (     194 calls)
     vloc_psi     :     33.68s CPU     34.27s WALL (     194 calls)
     add_vuspsi   :     29.39s CPU     29.79s WALL (     194 calls)

     General routines
     calbec       :     51.33s CPU     51.64s WALL (     262 calls)
     fft          :      0.26s CPU      0.29s WALL (     420 calls)
     ffts         :      0.02s CPU      0.02s WALL (      34 calls)
     fftw         :     34.86s CPU     35.47s WALL (  173426 calls)
 
     Parallel routines
 
     PWSCF        :   6m14.21s CPU   6m22.95s WALL

 
   This run was terminated on:   0:35:23  23Aug2026            

=------------------------------------------------------------------------------=
   JOB DONE.
=------------------------------------------------------------------------------=
