
     Program PWSCF v.7.4.1 starts on  6Aug2026 at  6:29:38 

     This program is part of the open-source Quantum ESPRESSO suite
     for quantum simulation of materials; please cite
         "P. Giannozzi et al., J. Phys.:Condens. Matter 21 395502 (2009);
         "P. Giannozzi et al., J. Phys.:Condens. Matter 29 465901 (2017);
         "P. Giannozzi et al., J. Chem. Phys. 152 154105 (2020);
          URL http://www.quantum-espresso.org", 
     in publications or presentations arising from this work. More details at
     http://www.quantum-espresso.org/quote

     Parallel version (MPI), running on     4 processors

     MPI processes distributed on     1 nodes
     23382 MiB available memory on the printing compute node when the environment starts

     Reading input from nitrogen_scf.in

     Current dimensions of program PWSCF are:
     Max number of different atomic species (ntypx) = 10
     Max number of k-points (npk) =  40000
     Max angular momentum in pseudopotentials (lmaxx) =  4
     file N.pbe-n-kjpaw_psl.1.0.0.UPF: wavefunction(s)  2S renormalized
     Message from routine setup:
     using ibrav=0 with symmetry is DISCOURAGED, use correct ibrav instead

     R & G space division:  proc/nbgrp/npool/nimage =       4
     Subspace diagonalization in iterative solution of the eigenvalue problem:
     a serial algorithm will be used


     Parallelization info
     --------------------
     sticks:   dense  smooth     PW     G-vecs:    dense   smooth      PW
     Min        1421    1421    357                80505    80505   10084
     Max        1423    1423    359                80506    80506   10085
     Sum        5689    5689   1433               322021   322021   40339

     Using Slab Decomposition



     bravais-lattice index     =            0
     lattice parameter (alat)  =      18.8971  a.u.
     unit-cell volume          =    6747.4478 (a.u.)^3
     number of atoms/cell      =            2
     number of atomic types    =            1
     number of electrons       =        10.00
     number of Kohn-Sham states=            5
     kinetic-energy cutoff     =      50.0000  Ry
     charge density cutoff     =     200.0000  Ry
     scf convergence threshold =      1.0E-10
     mixing beta               =       0.7000
     number of iterations used =            8  plain     mixing
     Exchange-correlation= SLA  PW   PBX  PBC
                           (   1   4   3   4   0   0   0)

     celldm(1)=  18.897061  celldm(2)=   0.000000  celldm(3)=   0.000000
     celldm(4)=   0.000000  celldm(5)=   0.000000  celldm(6)=   0.000000

     crystal axes: (cart. coord. in units of alat)
               a(1) = (   1.000000   0.000000   0.000000 )  
               a(2) = (   0.000000   0.999950   0.000000 )  
               a(3) = (   0.000000   0.000000   0.999950 )  

     reciprocal axes: (cart. coord. in units 2 pi/alat)
               b(1) = (  1.000000  0.000000  0.000000 )  
               b(2) = (  0.000000  1.000050  0.000000 )  
               b(3) = (  0.000000  0.000000  1.000050 )  


     PseudoPot. # 1 for N  read from file:
     /home/joseph/Documents/Simulations/QE/graphene/PP_C/PP-carbono/N.pbe-n-kjpaw_psl.1.0.0.UPF
     MD5 check sum: a6186d50559fdcbe4b2d0187dd61a119
     Pseudo is Projector augmented-wave + core cor, Zval =  5.0
     Generated using &quot;atomic&quot; code by A. Dal Corso  v.6.3
     Shape of augmentation charge: PSQ
     Using radial grid of 1085 points,  4 beta functions with: 
                l(1) =   0
                l(2) =   0
                l(3) =   1
                l(4) =   1
     Q(r) pseudized with 0 coefficients 


     atomic species   valence    mass     pseudopotential
     N                 5.00    14.00670     N ( 1.00)

      8 Sym. Ops. (no inversion) found


                                    s                        frac. trans.

      isym =  1     identity                                     

 cryst.   s( 1) = (     1          0          0      )
                  (     0          1          0      )
                  (     0          0          1      )

 cart.    s( 1) = (  1.0000000  0.0000000  0.0000000 )
                  (  0.0000000  1.0000000  0.0000000 )
                  (  0.0000000  0.0000000  1.0000000 )


      isym =  2     180 deg rotation - cart. axis [1,0,0]        

 cryst.   s( 2) = (     1          0          0      )
                  (     0         -1          0      )
                  (     0          0         -1      )

 cart.    s( 2) = (  1.0000000  0.0000000  0.0000000 )
                  (  0.0000000 -1.0000000  0.0000000 )
                  (  0.0000000  0.0000000 -1.0000000 )


      isym =  3      90 deg rotation - cart. axis [-1,0,0]       

 cryst.   s( 3) = (     1          0          0      )
                  (     0          0         -1      )
                  (     0          1          0      )

 cart.    s( 3) = (  1.0000000  0.0000000  0.0000000 )
                  (  0.0000000  0.0000000  1.0000000 )
                  (  0.0000000 -1.0000000  0.0000000 )


      isym =  4      90 deg rotation - cart. axis [1,0,0]        

 cryst.   s( 4) = (     1          0          0      )
                  (     0          0          1      )
                  (     0         -1          0      )

 cart.    s( 4) = (  1.0000000  0.0000000  0.0000000 )
                  (  0.0000000  0.0000000 -1.0000000 )
                  (  0.0000000  1.0000000  0.0000000 )


      isym =  5     inv. 180 deg rotation - cart. axis [0,0,1]   

 cryst.   s( 5) = (     1          0          0      )
                  (     0          1          0      )
                  (     0          0         -1      )

 cart.    s( 5) = (  1.0000000  0.0000000  0.0000000 )
                  (  0.0000000  1.0000000  0.0000000 )
                  (  0.0000000  0.0000000 -1.0000000 )


      isym =  6     inv. 180 deg rotation - cart. axis [0,1,0]   

 cryst.   s( 6) = (     1          0          0      )
                  (     0         -1          0      )
                  (     0          0          1      )

 cart.    s( 6) = (  1.0000000  0.0000000  0.0000000 )
                  (  0.0000000 -1.0000000  0.0000000 )
                  (  0.0000000  0.0000000  1.0000000 )


      isym =  7     inv. 180 deg rotation - cart. axis [0,1,1]   

 cryst.   s( 7) = (     1          0          0      )
                  (     0          0         -1      )
                  (     0         -1          0      )

 cart.    s( 7) = (  1.0000000  0.0000000  0.0000000 )
                  (  0.0000000  0.0000000 -1.0000000 )
                  (  0.0000000 -1.0000000  0.0000000 )


      isym =  8     inv. 180 deg rotation - cart. axis [0,1,-1]  

 cryst.   s( 8) = (     1          0          0      )
                  (     0          0          1      )
                  (     0          1          0      )

 cart.    s( 8) = (  1.0000000  0.0000000  0.0000000 )
                  (  0.0000000  0.0000000  1.0000000 )
                  (  0.0000000  1.0000000  0.0000000 )


   Cartesian axes

     site n.     atom                  positions (alat units)
         1        N      tau(   1) = (   0.4445299   0.0000000   0.0000000  )
         2        N      tau(   2) = (   0.5555145   0.0000000   0.0000000  )

   Crystallographic axes

     site n.     atom                  positions (cryst. coord.)
         1        N      tau(   1) = (  0.4445299  0.0000000  0.0000000  )
         2        N      tau(   2) = (  0.5555145  0.0000000  0.0000000  )

     number of k points=     1
                       cart. coord. in units 2pi/alat
        k(    1) = (   0.0000000   0.0000000   0.0000000), wk =   2.0000000

                       cryst. coord.
        k(    1) = (   0.0000000   0.0000000   0.0000000), wk =   2.0000000

     Dense  grid:   322021 G-vectors     FFT dimensions: (  90,  90,  90)

     Dynamical RAM for                 wfc:       0.77 MB

     Dynamical RAM for     wfc (w. buffer):       0.77 MB

     Dynamical RAM for           str. fact:       1.23 MB

     Dynamical RAM for           local pot:       0.00 MB

     Dynamical RAM for          nlocal pot:       2.46 MB

     Dynamical RAM for                qrad:       0.32 MB

     Dynamical RAM for          rho,v,vnew:       7.95 MB

     Dynamical RAM for               rhoin:       2.65 MB

     Dynamical RAM for            rho*nmix:      19.65 MB

     Dynamical RAM for           G-vectors:       5.22 MB

     Dynamical RAM for          h,s,v(r/c):       0.00 MB

     Dynamical RAM for          <psi|beta>:       0.00 MB

     Dynamical RAM for                 psi:       1.54 MB

     Dynamical RAM for                hpsi:       1.54 MB

     Dynamical RAM for                spsi:       1.54 MB

     Dynamical RAM for      wfcinit/wfcrot:       1.54 MB

     Dynamical RAM for           addusdens:      55.28 MB

     Dynamical RAM for          addusforce:      58.35 MB

     Dynamical RAM for         addusstress:      61.42 MB

     Estimated static dynamical RAM per process >      30.16 MB

     Estimated max dynamical RAM per process >     111.24 MB

     Estimated total dynamical RAM >     444.95 MB

     Check: negative core charge=   -0.000004

     Initial potential from superposition of free atoms

     starting charge      10.0000, renormalised to      10.0000

     negative rho (up, down):  3.256E-03 0.000E+00
     Starting wfcs are random
     Checking if some PAW data can be deallocated... 

     total cpu time spent up to now is        0.7 secs

     Self-consistent Calculation

     iteration #  1     ecut=    50.00 Ry     beta= 0.70
     Davidson diagonalization with overlap

---- Real-time Memory Report at c_bands before calling an iterative solver
           112 MiB given to the printing process from OS
             0 MiB allocation reported by mallinfo(arena+hblkhd)
         23033 MiB available memory on the node where the printing process lives
------------------
     ethr =  1.00E-02,  avg # of iterations = 11.0

     negative rho (up, down):  6.155E-03 0.000E+00

     total cpu time spent up to now is        1.6 secs

     total energy              =     -56.40667249 Ry
     estimated scf accuracy    <       0.13825318 Ry

     iteration #  2     ecut=    50.00 Ry     beta= 0.70
     Davidson diagonalization with overlap

---- Real-time Memory Report at c_bands before calling an iterative solver
           143 MiB given to the printing process from OS
             0 MiB allocation reported by mallinfo(arena+hblkhd)
         22824 MiB available memory on the node where the printing process lives
------------------
     ethr =  1.38E-03,  avg # of iterations =  2.0

     negative rho (up, down):  7.372E-03 0.000E+00

     total cpu time spent up to now is        2.1 secs

     total energy              =     -56.43159343 Ry
     estimated scf accuracy    <       0.00889084 Ry

     iteration #  3     ecut=    50.00 Ry     beta= 0.70
     Davidson diagonalization with overlap

---- Real-time Memory Report at c_bands before calling an iterative solver
           146 MiB given to the printing process from OS
             0 MiB allocation reported by mallinfo(arena+hblkhd)
         22797 MiB available memory on the node where the printing process lives
------------------
     ethr =  8.89E-05,  avg # of iterations =  2.0

     negative rho (up, down):  8.232E-03 0.000E+00

     total cpu time spent up to now is        2.6 secs

     total energy              =     -56.43328649 Ry
     estimated scf accuracy    <       0.00041727 Ry

     iteration #  4     ecut=    50.00 Ry     beta= 0.70
     Davidson diagonalization with overlap

---- Real-time Memory Report at c_bands before calling an iterative solver
           148 MiB given to the printing process from OS
             0 MiB allocation reported by mallinfo(arena+hblkhd)
         22725 MiB available memory on the node where the printing process lives
------------------
     ethr =  4.17E-06,  avg # of iterations =  3.0

     negative rho (up, down):  8.318E-03 0.000E+00

     total cpu time spent up to now is        3.0 secs

     total energy              =     -56.43339814 Ry
     estimated scf accuracy    <       0.00003203 Ry

     iteration #  5     ecut=    50.00 Ry     beta= 0.70
     Davidson diagonalization with overlap

---- Real-time Memory Report at c_bands before calling an iterative solver
           151 MiB given to the printing process from OS
             0 MiB allocation reported by mallinfo(arena+hblkhd)
         22745 MiB available memory on the node where the printing process lives
------------------
     ethr =  3.20E-07,  avg # of iterations =  5.0

     negative rho (up, down):  8.354E-03 0.000E+00

     total cpu time spent up to now is        3.6 secs

     total energy              =     -56.43341411 Ry
     estimated scf accuracy    <       0.00001233 Ry

     iteration #  6     ecut=    50.00 Ry     beta= 0.70
     Davidson diagonalization with overlap

---- Real-time Memory Report at c_bands before calling an iterative solver
           153 MiB given to the printing process from OS
             0 MiB allocation reported by mallinfo(arena+hblkhd)
         22716 MiB available memory on the node where the printing process lives
------------------
     ethr =  1.23E-07,  avg # of iterations =  2.0

     negative rho (up, down):  8.369E-03 0.000E+00

     total cpu time spent up to now is        4.2 secs

     total energy              =     -56.43341736 Ry
     estimated scf accuracy    <       0.00000228 Ry

     iteration #  7     ecut=    50.00 Ry     beta= 0.70
     Davidson diagonalization with overlap

---- Real-time Memory Report at c_bands before calling an iterative solver
           156 MiB given to the printing process from OS
             0 MiB allocation reported by mallinfo(arena+hblkhd)
         22665 MiB available memory on the node where the printing process lives
------------------
     ethr =  2.28E-08,  avg # of iterations =  2.0

     negative rho (up, down):  8.371E-03 0.000E+00

     total cpu time spent up to now is        4.8 secs

     total energy              =     -56.43341761 Ry
     estimated scf accuracy    <       0.00000010 Ry

     iteration #  8     ecut=    50.00 Ry     beta= 0.70
     Davidson diagonalization with overlap

---- Real-time Memory Report at c_bands before calling an iterative solver
           158 MiB given to the printing process from OS
             0 MiB allocation reported by mallinfo(arena+hblkhd)
         22709 MiB available memory on the node where the printing process lives
------------------
     ethr =  9.52E-10,  avg # of iterations =  5.0

     negative rho (up, down):  8.371E-03 0.000E+00

     total cpu time spent up to now is        5.4 secs

     total energy              =     -56.43341767 Ry
     estimated scf accuracy    <       0.00000014 Ry

     iteration #  9     ecut=    50.00 Ry     beta= 0.70
     Davidson diagonalization with overlap

---- Real-time Memory Report at c_bands before calling an iterative solver
           160 MiB given to the printing process from OS
             0 MiB allocation reported by mallinfo(arena+hblkhd)
         22669 MiB available memory on the node where the printing process lives
------------------
     ethr =  9.52E-10,  avg # of iterations =  2.0

     negative rho (up, down):  8.371E-03 0.000E+00

     total cpu time spent up to now is        6.0 secs

     total energy              =     -56.43341768 Ry
     estimated scf accuracy    <          8.6E-09 Ry

     iteration # 10     ecut=    50.00 Ry     beta= 0.70
     Davidson diagonalization with overlap

---- Real-time Memory Report at c_bands before calling an iterative solver
           163 MiB given to the printing process from OS
             0 MiB allocation reported by mallinfo(arena+hblkhd)
         22690 MiB available memory on the node where the printing process lives
------------------
     ethr =  8.65E-11,  avg # of iterations =  2.0

     negative rho (up, down):  8.371E-03 0.000E+00

     total cpu time spent up to now is        6.5 secs

     total energy              =     -56.43341769 Ry
     estimated scf accuracy    <          2.7E-10 Ry

     iteration # 11     ecut=    50.00 Ry     beta= 0.70
     Davidson diagonalization with overlap

---- Real-time Memory Report at c_bands before calling an iterative solver
           163 MiB given to the printing process from OS
             0 MiB allocation reported by mallinfo(arena+hblkhd)
         22637 MiB available memory on the node where the printing process lives
------------------
     ethr =  2.69E-12,  avg # of iterations =  5.0

     negative rho (up, down):  8.371E-03 0.000E+00

     total cpu time spent up to now is        7.1 secs

     total energy              =     -56.43341769 Ry
     estimated scf accuracy    <          1.4E-09 Ry

     iteration # 12     ecut=    50.00 Ry     beta= 0.70
     Davidson diagonalization with overlap

---- Real-time Memory Report at c_bands before calling an iterative solver
           163 MiB given to the printing process from OS
             0 MiB allocation reported by mallinfo(arena+hblkhd)
         22640 MiB available memory on the node where the printing process lives
------------------
     ethr =  2.69E-12,  avg # of iterations =  2.0

     negative rho (up, down):  8.371E-03 0.000E+00

     total cpu time spent up to now is        7.6 secs

     total energy              =     -56.43341769 Ry
     estimated scf accuracy    <          2.8E-10 Ry

     iteration # 13     ecut=    50.00 Ry     beta= 0.70
     Davidson diagonalization with overlap

---- Real-time Memory Report at c_bands before calling an iterative solver
           163 MiB given to the printing process from OS
             0 MiB allocation reported by mallinfo(arena+hblkhd)
         22635 MiB available memory on the node where the printing process lives
------------------
     ethr =  2.69E-12,  avg # of iterations =  2.0

     negative rho (up, down):  8.371E-03 0.000E+00

     total cpu time spent up to now is        8.1 secs

     End of self-consistent calculation

          k = 0.0000 0.0000 0.0000 ( 40339 PWs)   bands (ev):

   -28.0450 -13.3584 -11.3765 -11.3765 -10.0218

     occupation numbers 
     1.0000   1.0000   1.0000   1.0000   1.0000

     highest occupied level (ev):   -10.0218

!    total energy              =     -56.43341769 Ry
     total all-electron energy =      -219.031014 Ry
     estimated scf accuracy    <          5.7E-11 Ry

     The total energy is the sum of the following terms:
     one-electron contribution =     -78.94388258 Ry
     hartree contribution      =      40.71869605 Ry
     xc contribution           =     -11.10963632 Ry
     ewald contribution        =       8.89488857 Ry
     one-center paw contrib.   =     -15.99348340 Ry
      -> PAW hartree energy AE =      16.72176935 Ry
      -> PAW hartree energy PS =     -16.69831813 Ry
      -> PAW xc energy AE      =     -13.58375241 Ry
      -> PAW xc energy PS      =       5.56355924 Ry
      -> total E_H with PAW    =      40.74214727 Ry
      -> total E_XC with PAW   =     -19.12982949 Ry

     convergence has been achieved in  13 iterations

     negative rho (up, down):  8.371E-03 0.000E+00

     Forces acting on atoms (cartesian axes, Ry/au):

     atom    1 type  1   force =    -0.00145693    0.00000000    0.00000000
     atom    2 type  1   force =     0.00145693    0.00000000    0.00000000
     The non-local contrib.  to forces
     atom    1 type  1   force =     2.06868105    0.00000000    0.00000000
     atom    2 type  1   force =    -2.06868334    0.00000000    0.00000000
     The ionic contribution  to forces
     atom    1 type  1   force =   -11.29978785    0.00000000   -0.00000000
     atom    2 type  1   force =    11.29978785   -0.00000000   -0.00000000
     The local contribution  to forces
     atom    1 type  1   force =     9.24881839   -0.00000000   -0.00000000
     atom    2 type  1   force =    -9.24884239    0.00000000    0.00000000
     The core correction contribution to forces
     atom    1 type  1   force =    -0.01918154    0.00000000   -0.00000000
     atom    2 type  1   force =     0.01918351    0.00000000    0.00000000
     The Hubbard contrib.    to forces
     atom    1 type  1   force =     0.00000000    0.00000000    0.00000000
     atom    2 type  1   force =     0.00000000    0.00000000    0.00000000
     The SCF correction term to forces
     atom    1 type  1   force =     0.00001299    0.00000000    0.00000000
     atom    2 type  1   force =     0.00001127   -0.00000000    0.00000000

     Total force =     0.002060     Total SCF correction =     0.000017


     Computing stress (Cartesian axis) and pressure


     negative rho (up, down):  8.371E-03 0.000E+00
          total   stress  (Ry/bohr**3)                   (kbar)     P=        0.00
   0.00000027   0.00000000   0.00000000            0.04        0.00        0.00
   0.00000000  -0.00000009   0.00000000            0.00       -0.01        0.00
   0.00000000   0.00000000  -0.00000009            0.00        0.00       -0.01

     kinetic stress (kbar)    313.17      0.00      0.00
                                0.00    342.16      0.00
                                0.00      0.00    342.16

     local   stress (kbar)  -1082.28     -0.00      0.00
                               -0.00   -411.57     -0.00
                                0.00     -0.00   -411.57

     nonloc. stress (kbar)      5.82      0.00      0.00
                                0.00     20.33      0.00
                                0.00      0.00     20.33

     hartree stress (kbar)    422.29     -0.00     -0.00
                               -0.00    232.72      0.00
                               -0.00      0.00    232.72

     exc-cor stress (kbar)    -42.03     -0.00      0.00
                               -0.00    -44.44      0.00
                                0.00      0.00    -44.44

     corecor stress (kbar)    -30.54     -0.00      0.00
                               -0.00    -29.37     -0.00
                                0.00     -0.00    -29.37

     ewald   stress (kbar)    413.62     -0.00     -0.00
                               -0.00   -109.85     -0.00
                               -0.00     -0.00   -109.85

     hubbard stress (kbar)      0.00      0.00      0.00
                                0.00      0.00      0.00
                                0.00      0.00      0.00

     DFT-D   stress (kbar)      0.00      0.00      0.00
                                0.00      0.00      0.00
                                0.00      0.00      0.00

     XDM     stress (kbar)      0.00      0.00      0.00
                                0.00      0.00      0.00
                                0.00      0.00      0.00

     dft-nl  stress (kbar)      0.00      0.00      0.00
                                0.00      0.00      0.00
                                0.00      0.00      0.00

     TS-vdW  stress (kbar)      0.00      0.00      0.00
                                0.00      0.00      0.00
                                0.00      0.00      0.00

     MDB     stress (kbar)      0.00      0.00      0.00
                                0.00      0.00      0.00
                                0.00      0.00      0.00

     3D-RISM stress (kbar)      0.00      0.00      0.00
                                0.00      0.00      0.00
                                0.00      0.00      0.00


     Writing all to output data dir ./tmp/nitrogen.save/ :
     XML data file, charge density
     init_run     :      0.57s CPU      0.63s WALL (       1 calls)
     electrons    :      7.26s CPU      7.45s WALL (       1 calls)
     forces       :      0.26s CPU      0.27s WALL (       1 calls)
     stress       :      0.72s CPU      0.76s WALL (       1 calls)

     Called by init_run:
     wfcinit      :      0.05s CPU      0.05s WALL (       1 calls)
     wfcinit:wfcr :      0.04s CPU      0.04s WALL (       1 calls)
     potinit      :      0.12s CPU      0.15s WALL (       1 calls)
     hinit0       :      0.26s CPU      0.27s WALL (       1 calls)

     Called by electrons:
     c_bands      :      2.65s CPU      2.44s WALL (      13 calls)
     sum_band     :      1.64s CPU      1.83s WALL (      13 calls)
     v_of_rho     :      1.54s CPU      1.60s WALL (      14 calls)
     v_h          :      0.10s CPU      0.11s WALL (      14 calls)
     v_xc         :      1.65s CPU      1.72s WALL (      16 calls)
     newd         :      0.73s CPU      0.92s WALL (      14 calls)
     PAW_pot      :      0.32s CPU      0.32s WALL (      14 calls)
     mix_rho      :      0.45s CPU      0.44s WALL (      13 calls)

     Called by c_bands:
     init_us_2    :      0.10s CPU      0.09s WALL (      28 calls)
     cegterg      :      2.54s CPU      2.34s WALL (      13 calls)

     Called by sum_band:
     sum_band:wei :      0.00s CPU      0.00s WALL (      13 calls)
     sum_band:loo :      0.32s CPU      0.31s WALL (      13 calls)
     sum_band:buf :      0.00s CPU      0.00s WALL (      13 calls)
     sum_band:ini :      0.05s CPU      0.04s WALL (      13 calls)
     sum_band:cal :      0.01s CPU      0.01s WALL (      13 calls)
     sum_band:bec :      0.00s CPU      0.00s WALL (      13 calls)
     addusdens    :      1.01s CPU      1.21s WALL (      13 calls)
                                        0.00s GPU  (      13 calls)
     addusd:skk   :      0.02s CPU      0.03s WALL (      13 calls)
                                        0.00s GPU  (      13 calls)

     Called by *egterg:
     cdiaghg      :      0.01s CPU      0.01s WALL (      58 calls)
     cegterg:over :      0.09s CPU      0.08s WALL (      45 calls)
     cegterg:upda :      0.04s CPU      0.03s WALL (      45 calls)
     cegterg:last :      0.09s CPU      0.08s WALL (      39 calls)
     h_psi        :      1.95s CPU      1.80s WALL (      59 calls)
     s_psi        :      0.05s CPU      0.06s WALL (      59 calls)
     g_psi        :      0.01s CPU      0.01s WALL (      45 calls)

     Called by h_psi:
     h_psi:calbec :      0.05s CPU      0.04s WALL (      59 calls)
     vloc_psi     :      1.82s CPU      1.68s WALL (      59 calls)
     add_vuspsi   :      0.08s CPU      0.07s WALL (      59 calls)

     General routines
     calbec       :      0.07s CPU      0.06s WALL (      89 calls)
     fft          :      1.07s CPU      1.15s WALL (     179 calls)
     ffts         :      0.08s CPU      0.08s WALL (      13 calls)
     fftw         :      1.66s CPU      1.55s WALL (     531 calls)

     Parallel routines

     PAW routines
     PAW_pot      :      0.32s CPU      0.32s WALL (      14 calls)
     PAW_symme    :      0.00s CPU      0.00s WALL (      27 calls)

     PWSCF        :      8.93s CPU      9.24s WALL


   This run was terminated on:   6:29:47   6Aug2026            

=------------------------------------------------------------------------------=
   JOB DONE.
=------------------------------------------------------------------------------=
