C  N 
 1.0000000000000000
    10.7211360931000002    0.0000000000000000    0.0000000000000000
     0.0000000000000000   10.7211360931000002    0.0000000000000000
     0.0000000000000000    0.0000000000000000   10.7211360931000002
 C   N  
 214   1
Direct
  0.0832801404810042  0.0833532825287853  0.0833865255189934
  0.0836584570837285  0.0831736415106122  0.4167717388371316
  0.0829854152343494  0.0834248397225783  0.7499780205364732
  0.0836833350364688  0.4167329280584595  0.0829833309635288
  0.0832489016945101  0.4167686711448105  0.4167067166227733
  0.0830261044660033  0.4167019842978505  0.7498982895866010
  0.0832913959492625  0.7499610890203835  0.0833752700507351
  0.0833905328020384  0.7500133023020825  0.4166837649050857
  0.0835499625811524  0.7499317626068550  0.7499414378208724
  0.4166886464635283  0.0834248397225783  0.0836812507656481
  0.4168337060533465  0.0835578366653357  0.4170012453532151
  0.4163403245020303  0.0827975874350940  0.7503263424979710
  0.4167683774134003  0.4167019842978505  0.0836405615339943
  0.4182319836506048  0.4176703091847545  0.4180975963633582
  0.4157328469498828  0.4160418985991858  0.7509338200501137
  0.4167252291791290  0.7499317626068550  0.0831167034188452
  0.4157212529328538  0.7509092298959168  0.4168750548187067
  0.4171945652689981  0.7492646575861316  0.7494721017310033
  0.7498949281628696  0.0831736415106122  0.0830082089162691
  0.7499754309070746  0.0834988256807666  0.4166912360929267
  0.7496654216467861  0.0835578366653357  0.7498329609466546
  0.7499599503772280  0.4167686711448105  0.0834177643054875
  0.7573954880357777  0.4097191718455099  0.4092711789642235
  0.7485690706366430  0.4176703091847545  0.7484346833493967
  0.7499829020949157  0.7500133023020825  0.0832761331979592
  0.7496724314444860  0.7493094673758853  0.4169942355555154
  0.7497916121812949  0.7509092298959168  0.7509454140671477
  0.2500915067225795  0.2500219794635271  0.0836812507656481
  0.2502245036653368  0.2501670390533453  0.4170012453532151
  0.2494642544350952  0.2496736575020291  0.7503263424979710
  0.2498403085106134  0.5832282611628682  0.0830082089162691
  0.2501654926807678  0.5833087639070733  0.4166912360929267
  0.2502245036653368  0.5829987546467847  0.7498329609466546
  0.2500199495287865  0.9166134744810066  0.0833865255189934
  0.2498403085106134  0.9169917910837309  0.4167717388371316
  0.2500915067225795  0.9163187492343519  0.7499780205364732
  0.5833686502978481  0.2501017104133991  0.0836405615339943
  0.5843369751847520  0.2515653166506035  0.4180975963633582
  0.5827085645991833  0.2490661799498817  0.7509338200501137
  0.5834353371448080  0.5832932833772267  0.0834177643054875
  0.5763858378455076  0.5907288210357765  0.4092711789642235
  0.5843369751847520  0.5819024036366417  0.7484346833493967
  0.5833995940584571  0.9170166690364712  0.0829833309635288
  0.5834353371448080  0.9165822356945126  0.4167067166227733
  0.5833686502978481  0.9163594384660059  0.7498982895866010
  0.9165984296068563  0.2500585621791278  0.0831167034188452
  0.9175758968959180  0.2490545859328525  0.4168750548187067
  0.9159313245861328  0.2505278982689968  0.7494721017310033
  0.9166799693020837  0.5833162350949144  0.0832761331979592
  0.9159761343758865  0.5830057644444847  0.4169942355555154
  0.9175758968959180  0.5831249451812938  0.7509454140671477
  0.9166277560203847  0.9166247299492649  0.0833752700507351
  0.9166799693020837  0.9167238668020408  0.4166837649050857
  0.9165984296068563  0.9168832965811549  0.7499414378208724
  0.2501752589053053  0.0835085919053041  0.2501895518217543
  0.2498227470014300  0.0831560800014287  0.5835180251850662
  0.2498151104913830  0.0831484434913817  0.9168515565086184
  0.2504374800703265  0.4168604406758469  0.2504406774092161
  0.2498831470015747  0.4165550243920434  0.5834449756079565
  0.2498227470014300  0.4164819748149338  0.9168439199985716
  0.2499270213984149  0.7500667562340125  0.2499332437659875
  0.2504374800703265  0.7495593225907842  0.5831395593241484
  0.2501752589053053  0.7498104481782456  0.9164914080946958
  0.5835271066758492  0.0837708130703253  0.2504406774092161
  0.5832216903920411  0.0832164800015735  0.5834449756079565
  0.5831486408149315  0.0831560800014287  0.9168439199985716
  0.5840243706570187  0.4173577046570212  0.2510392345561134
  0.5832216903920411  0.4165550243920434  0.9167835199984266
  0.5836259414498428  0.7510420510107170  0.2489579489892832
  0.5840243706570187  0.7489607654438865  0.5826422953429788
  0.5835271066758492  0.7495593225907842  0.9162291869296746
  0.9167334232340137  0.0832603543984137  0.2499332437659875
  0.9162259895907854  0.0837708130703253  0.5831395593241484
  0.9164771151782468  0.0835085919053041  0.9164914080946958
  0.9177087180107182  0.4169592754498451  0.2489579489892832
  0.9156274324438877  0.4173577046570212  0.5826422953429788
  0.9162259895907854  0.4168604406758469  0.9162291869296746
  0.9164418718640048  0.7497752048640036  0.2502247951359966
  0.9177087180107182  0.7510420510107170  0.5830407245501549
  0.9167334232340137  0.7500667562340125  0.9167396456015865
  0.0835499625811524  0.2500585621791278  0.2500682373931449
  0.0830261044660033  0.2501017104133991  0.5832980157021495
  0.0829854152343494  0.2500219794635271  0.9165751602774215
  0.0833905328020383  0.5833162350949144  0.2499866976979176
  0.0832489016945101  0.5832932833772267  0.5832313288551896
  0.0836584570837285  0.5832282611628682  0.9168263584893880
  0.0832913959492625  0.9166247299492649  0.2500389109796166
  0.0836833350364688  0.9170166690364712  0.5832670719415405
  0.0832801404810042  0.9166134744810066  0.9166467174712147
  0.4171945652689981  0.2505278982689968  0.2507353424138683
  0.4157328469498828  0.2490661799498817  0.5839581014008143
  0.4163403245020303  0.2496736575020291  0.9172024125649060
  0.4157212529328538  0.5831249451812938  0.2490907701040833
  0.4182319836506048  0.5819024036366417  0.5823296908152455
  0.4168337060533465  0.5829987546467847  0.9164421633346642
  0.4167252291791290  0.9168832965811549  0.2500682373931449
  0.4167683774134003  0.9163594384660059  0.5832980157021495
  0.4166886464635283  0.9163187492343519  0.9165751602774215
  0.7497916121812949  0.2490545859328525  0.2490907701040833
  0.7485690706366430  0.2515653166506035  0.5823296908152455
  0.7496654216467861  0.2501670390533453  0.9164421633346642
  0.7496724314444860  0.5830057644444847  0.2506905326241148
  0.7573954880357777  0.5907288210357765  0.5902808281544900
  0.7499754309070746  0.5833087639070733  0.9165011743192335
  0.7499829020949157  0.9167238668020408  0.2499866976979176
  0.7499599503772280  0.9165822356945126  0.5832313288551896
  0.7498949281628696  0.9169917910837309  0.9168263584893880
  0.9999181061741043  0.0000448055628621  0.9999551944371380
  0.0000632364811932  0.9999888428847704  0.3332922978822205
  0.9997509328799503  0.0002897451142006  0.6666619499819448
  0.9997509328799503  0.3333380500180553  0.9997102548857995
  0.0002018727460794  0.3333330793024061  0.3332403956326939
  0.9991535178194381  0.3339015643499627  0.6660984356500372
  0.0000632364811932  0.6667077021177796  0.0000111571152298
  0.9996422525321708  0.6663421580410914  0.3336578419589085
  0.0002018727460794  0.6667596043673063  0.6666669206975940
  0.3333314715695938  0.9998721967728109  0.0001278032271891
  0.3334667185994257  0.0002454873266431  0.3334355762227114
  0.3333053289808347  0.9996311251442281  0.6667794883219114
  0.3333053289808347  0.3332205116780885  0.0003688748557720
  0.3344177750876258  0.3337174947349913  0.3344236504744980
  0.3326662757225636  0.3328796643103505  0.6671203356896493
  0.3334667185994257  0.6665644237772884  0.9997545126733569
  0.3332049877559948  0.6667952052928217  0.3332047947071782
  0.3344177750876258  0.6655763495255023  0.6662825052650088
  0.6666556184296880  0.0001348825105247  0.9998651174894755
  0.6666867111659691  0.0001173599562194  0.3335098927556723
  0.6665816799232099  0.9998846439275380  0.6665669787722897
  0.6665816799232099  0.3334330212277103  0.0001153560724620
  0.6682002748913241  0.3344544318664237  0.3342478403630406
  0.6633854694078042  0.3340458686003345  0.6659541313996655
  0.6666867111659691  0.6664901072443279  0.9998826400437807
  0.6658049224009105  0.6660843215209472  0.3339156784790528
  0.6682002748913241  0.6657521596369594  0.6655455681335767
  0.1665388637728120  0.1666648055695961  0.0001278032271891
  0.1669121543266442  0.1668000525994282  0.3334355762227114
  0.1662977921442293  0.1666386629808372  0.6667794883219114
  0.1668015495105259  0.4999889514296868  0.9998651174894755
  0.1667840269562205  0.5000200441659634  0.3335098927556723
  0.1665513109275392  0.4999150129232087  0.6665669787722897
  0.1667114725628633  0.8332514391741030  0.9999551944371380
  0.1666555098847716  0.8333965694811919  0.3332922978822205
  0.1669564121142018  0.8330842658799491  0.6666619499819448
  0.4998871786780898  0.1666386629808372  0.0003688748557720
  0.5003841617349926  0.1677511090876281  0.3344236504744980
  0.4995463313103518  0.1659996097225661  0.6671203356896493
  0.5000996882277116  0.4999150129232087  0.0001153560724620
  0.5011210988664246  0.5015336078913228  0.3342478403630406
  0.5007125356003357  0.4967188024078030  0.6659541313996655
  0.5000047170180564  0.8330842658799491  0.9997102548857995
  0.4999997463024073  0.8335352057460784  0.3332403956326939
  0.5005682313499640  0.8324868508194369  0.6660984356500372
  0.8332310897772861  0.1668000525994282  0.9997545126733569
  0.8334618712928191  0.1665383217559973  0.3332047947071782
  0.8322430155254997  0.1677511090876281  0.6662825052650088
  0.8331567732443255  0.5000200441659634  0.9998826400437807
  0.8327509875209449  0.4991382554009094  0.3339156784790528
  0.8324188256369570  0.5015336078913228  0.6655455681335767
  0.8333743681177772  0.8333965694811919  0.0000111571152298
  0.8330088240410889  0.8329755855321695  0.3336578419589085
  0.8334262703673039  0.8335352057460784  0.6666669206975940
  0.1667114725628633  0.0000448055628621  0.1667485608258971
  0.1668015495105259  0.0001348825105247  0.5000110485703134
  0.1665388637728120  0.9998721967728109  0.8333351944304039
  0.1669564121142018  0.3333380500180553  0.1669157341200510
  0.1665513109275392  0.3334330212277103  0.5000849870767913
  0.1662977921442293  0.3332205116780885  0.8333613370191627
  0.1666555098847716  0.6667077021177796  0.1666034305188080
  0.1667840269562205  0.6664901072443279  0.4999799558340367
  0.1669121543266442  0.6665644237772884  0.8331999474005719
  0.5000047170180564  0.0002897451142006  0.1669157341200510
  0.5000996882277116  0.9998846439275380  0.5000849870767913
  0.4998871786780898  0.9996311251442281  0.8333613370191627
  0.5005682313499640  0.3339015643499627  0.1675131491805633
  0.5007125356003357  0.3340458686003345  0.5032811975921970
  0.4995463313103518  0.3328796643103505  0.8340003902774339
  0.4999997463024073  0.6667596043673063  0.1664647942539218
  0.5011210988664246  0.6657521596369594  0.4984663921086771
  0.5003841617349926  0.6655763495255023  0.8322488909123718
  0.8333743681177772  0.9999888428847704  0.1666034305188080
  0.8331567732443255  0.0001173599562194  0.4999799558340367
  0.8332310897772861  0.0002454873266431  0.8331999474005719
  0.8334262703673039  0.3333330793024061  0.1664647942539218
  0.8324188256369570  0.3344544318664237  0.4984663921086771
  0.8322430155254997  0.3337174947349913  0.8322488909123718
  0.8330088240410889  0.6663421580410914  0.1670244144678306
  0.8327509875209449  0.6660843215209472  0.5008617445990907
  0.8334618712928191  0.6667952052928217  0.8334616782440027
  0.0000092415694202  0.1667673681301002  0.1666574254305811
  0.0003805833719089  0.1662744727726469  0.4998109265364994
  0.9995183434292546  0.1669266451519922  0.8330733548480079
  0.0006155542303018  0.4999124701804575  0.1660511127696995
  0.9994208967367795  0.5001175864773868  0.4998824135226133
  0.0003805833719089  0.5001890734635007  0.8337255272273532
  0.9998935412497781  0.8332268742497769  0.1667731257502232
  0.0006155542303018  0.8339488872303005  0.5000875298195425
  0.0000092415694202  0.8333425745694192  0.8332326318698998
  0.3335933111519899  0.1669266451519922  0.1671483235707466
  0.3330550400012945  0.1663883740012969  0.5003336561887574
  0.3330505891092561  0.1663839231092585  0.8336160768907415
  0.3329411387726446  0.5001890734635007  0.1662860836280925
  0.3337915717460130  0.4998956854899079  0.5001043145100921
  0.3330550400012945  0.4996663438112426  0.8336116259987032
  0.3334340341300978  0.8333425745694192  0.1666574254305811
  0.3329411387726446  0.8337139163719076  0.4998109265364994
  0.3335933111519899  0.8328516764292533  0.8330733548480079
  0.6668557404635019  0.1662744727726469  0.1662860836280925
  0.6665623524899091  0.1671249057460154  0.5001043145100921
  0.6663330108112440  0.1663883740012969  0.8336116259987032
  0.6667842534773880  0.5001175864773868  0.1672457702632217
  0.6665623524899091  0.4998956854899079  0.8328750942539845
  0.6665791371804587  0.8339488872303005  0.1660511127696995
  0.6667842534773880  0.8327542297367783  0.4998824135226133
  0.6668557404635019  0.8337139163719076  0.8337255272273532
  0.5771977416348176  0.4105310756348201  0.5894689243651799
Cartesian
  0.0000000000000000  0.0000000000000000  0.0000000000000000
  0.0000000000000000  0.0000000000000000  0.0000000000000000
  0.0000000000000000  0.0000000000000000  0.0000000000000000
  0.0000000000000000  0.0000000000000000  0.0000000000000000
  0.0000000000000000  0.0000000000000000  0.0000000000000000
  0.0000000000000000  0.0000000000000000  0.0000000000000000
  0.0000000000000000  0.0000000000000000  0.0000000000000000
  0.0000000000000000  0.0000000000000000  0.0000000000000000
  0.0000000000000000  0.0000000000000000  0.0000000000000000
  0.0000000000000000  0.0000000000000000  0.0000000000000000
  0.0000000000000000  0.0000000000000000  0.0000000000000000
  0.0000000000000000  0.0000000000000000  0.0000000000000000
  0.0000000000000000  0.0000000000000000  0.0000000000000000
  0.0000000000000000  0.0000000000000000  0.0000000000000000
  0.0000000000000000  0.0000000000000000  0.0000000000000000
  0.0000000000000000  0.0000000000000000  0.0000000000000000
  0.0000000000000000  0.0000000000000000  0.0000000000000000
  0.0000000000000000  0.0000000000000000  0.0000000000000000
  0.0000000000000000  0.0000000000000000  0.0000000000000000
  0.0000000000000000  0.0000000000000000  0.0000000000000000
  0.0000000000000000  0.0000000000000000  0.0000000000000000
  0.0000000000000000  0.0000000000000000  0.0000000000000000
  0.0000000000000000  0.0000000000000000  0.0000000000000000
  0.0000000000000000  0.0000000000000000  0.0000000000000000
  0.0000000000000000  0.0000000000000000  0.0000000000000000
  0.0000000000000000  0.0000000000000000  0.0000000000000000
  0.0000000000000000  0.0000000000000000  0.0000000000000000
  0.0000000000000000  0.0000000000000000  0.0000000000000000
  0.0000000000000000  0.0000000000000000  0.0000000000000000
  0.0000000000000000  0.0000000000000000  0.0000000000000000
  0.0000000000000000  0.0000000000000000  0.0000000000000000
  0.0000000000000000  0.0000000000000000  0.0000000000000000
  0.0000000000000000  0.0000000000000000  0.0000000000000000
  0.0000000000000000  0.0000000000000000  0.0000000000000000
  0.0000000000000000  0.0000000000000000  0.0000000000000000
  0.0000000000000000  0.0000000000000000  0.0000000000000000
  0.0000000000000000  0.0000000000000000  0.0000000000000000
  0.0000000000000000  0.0000000000000000  0.0000000000000000
  0.0000000000000000  0.0000000000000000  0.0000000000000000
  0.0000000000000000  0.0000000000000000  0.0000000000000000
  0.0000000000000000  0.0000000000000000  0.0000000000000000
  0.0000000000000000  0.0000000000000000  0.0000000000000000
  0.0000000000000000  0.0000000000000000  0.0000000000000000
  0.0000000000000000  0.0000000000000000  0.0000000000000000
  0.0000000000000000  0.0000000000000000  0.0000000000000000
  0.0000000000000000  0.0000000000000000  0.0000000000000000
  0.0000000000000000  0.0000000000000000  0.0000000000000000
  0.0000000000000000  0.0000000000000000  0.0000000000000000
  0.0000000000000000  0.0000000000000000  0.0000000000000000
  0.0000000000000000  0.0000000000000000  0.0000000000000000
  0.0000000000000000  0.0000000000000000  0.0000000000000000
  0.0000000000000000  0.0000000000000000  0.0000000000000000
  0.0000000000000000  0.0000000000000000  0.0000000000000000
  0.0000000000000000  0.0000000000000000  0.0000000000000000
  0.0000000000000000  0.0000000000000000  0.0000000000000000
  0.0000000000000000  0.0000000000000000  0.0000000000000000
  0.0000000000000000  0.0000000000000000  0.0000000000000000
  0.0000000000000000  0.0000000000000000  0.0000000000000000
  0.0000000000000000  0.0000000000000000  0.0000000000000000
  0.0000000000000000  0.0000000000000000  0.0000000000000000
  0.0000000000000000  0.0000000000000000  0.0000000000000000
  0.0000000000000000  0.0000000000000000  0.0000000000000000
  0.0000000000000000  0.0000000000000000  0.0000000000000000
  0.0000000000000000  0.0000000000000000  0.0000000000000000
  0.0000000000000000  0.0000000000000000  0.0000000000000000
  0.0000000000000000  0.0000000000000000  0.0000000000000000
  0.0000000000000000  0.0000000000000000  0.0000000000000000
  0.0000000000000000  0.0000000000000000  0.0000000000000000
  0.0000000000000000  0.0000000000000000  0.0000000000000000
  0.0000000000000000  0.0000000000000000  0.0000000000000000
  0.0000000000000000  0.0000000000000000  0.0000000000000000
  0.0000000000000000  0.0000000000000000  0.0000000000000000
  0.0000000000000000  0.0000000000000000  0.0000000000000000
  0.0000000000000000  0.0000000000000000  0.0000000000000000
  0.0000000000000000  0.0000000000000000  0.0000000000000000
  0.0000000000000000  0.0000000000000000  0.0000000000000000
  0.0000000000000000  0.0000000000000000  0.0000000000000000
  0.0000000000000000  0.0000000000000000  0.0000000000000000
  0.0000000000000000  0.0000000000000000  0.0000000000000000
  0.0000000000000000  0.0000000000000000  0.0000000000000000
  0.0000000000000000  0.0000000000000000  0.0000000000000000
  0.0000000000000000  0.0000000000000000  0.0000000000000000
  0.0000000000000000  0.0000000000000000  0.0000000000000000
  0.0000000000000000  0.0000000000000000  0.0000000000000000
  0.0000000000000000  0.0000000000000000  0.0000000000000000
  0.0000000000000000  0.0000000000000000  0.0000000000000000
  0.0000000000000000  0.0000000000000000  0.0000000000000000
  0.0000000000000000  0.0000000000000000  0.0000000000000000
  0.0000000000000000  0.0000000000000000  0.0000000000000000
  0.0000000000000000  0.0000000000000000  0.0000000000000000
  0.0000000000000000  0.0000000000000000  0.0000000000000000
  0.0000000000000000  0.0000000000000000  0.0000000000000000
  0.0000000000000000  0.0000000000000000  0.0000000000000000
  0.0000000000000000  0.0000000000000000  0.0000000000000000
  0.0000000000000000  0.0000000000000000  0.0000000000000000
  0.0000000000000000  0.0000000000000000  0.0000000000000000
  0.0000000000000000  0.0000000000000000  0.0000000000000000
  0.0000000000000000  0.0000000000000000  0.0000000000000000
  0.0000000000000000  0.0000000000000000  0.0000000000000000
  0.0000000000000000  0.0000000000000000  0.0000000000000000
  0.0000000000000000  0.0000000000000000  0.0000000000000000
  0.0000000000000000  0.0000000000000000  0.0000000000000000
  0.0000000000000000  0.0000000000000000  0.0000000000000000
  0.0000000000000000  0.0000000000000000  0.0000000000000000
  0.0000000000000000  0.0000000000000000  0.0000000000000000
  0.0000000000000000  0.0000000000000000  0.0000000000000000
  0.0000000000000000  0.0000000000000000  0.0000000000000000
  0.0000000000000000  0.0000000000000000  0.0000000000000000
  0.0000000000000000  0.0000000000000000  0.0000000000000000
  0.0000000000000000  0.0000000000000000  0.0000000000000000
  0.0000000000000000  0.0000000000000000  0.0000000000000000
  0.0000000000000000  0.0000000000000000  0.0000000000000000
  0.0000000000000000  0.0000000000000000  0.0000000000000000
  0.0000000000000000  0.0000000000000000  0.0000000000000000
  0.0000000000000000  0.0000000000000000  0.0000000000000000
  0.0000000000000000  0.0000000000000000  0.0000000000000000
  0.0000000000000000  0.0000000000000000  0.0000000000000000
  0.0000000000000000  0.0000000000000000  0.0000000000000000
  0.0000000000000000  0.0000000000000000  0.0000000000000000
  0.0000000000000000  0.0000000000000000  0.0000000000000000
  0.0000000000000000  0.0000000000000000  0.0000000000000000
  0.0000000000000000  0.0000000000000000  0.0000000000000000
  0.0000000000000000  0.0000000000000000  0.0000000000000000
  0.0000000000000000  0.0000000000000000  0.0000000000000000
  0.0000000000000000  0.0000000000000000  0.0000000000000000
  0.0000000000000000  0.0000000000000000  0.0000000000000000
  0.0000000000000000  0.0000000000000000  0.0000000000000000
  0.0000000000000000  0.0000000000000000  0.0000000000000000
  0.0000000000000000  0.0000000000000000  0.0000000000000000
  0.0000000000000000  0.0000000000000000  0.0000000000000000
  0.0000000000000000  0.0000000000000000  0.0000000000000000
  0.0000000000000000  0.0000000000000000  0.0000000000000000
  0.0000000000000000  0.0000000000000000  0.0000000000000000
  0.0000000000000000  0.0000000000000000  0.0000000000000000
  0.0000000000000000  0.0000000000000000  0.0000000000000000
  0.0000000000000000  0.0000000000000000  0.0000000000000000
  0.0000000000000000  0.0000000000000000  0.0000000000000000
  0.0000000000000000  0.0000000000000000  0.0000000000000000
  0.0000000000000000  0.0000000000000000  0.0000000000000000
  0.0000000000000000  0.0000000000000000  0.0000000000000000
  0.0000000000000000  0.0000000000000000  0.0000000000000000
  0.0000000000000000  0.0000000000000000  0.0000000000000000
  0.0000000000000000  0.0000000000000000  0.0000000000000000
  0.0000000000000000  0.0000000000000000  0.0000000000000000
  0.0000000000000000  0.0000000000000000  0.0000000000000000
  0.0000000000000000  0.0000000000000000  0.0000000000000000
  0.0000000000000000  0.0000000000000000  0.0000000000000000
  0.0000000000000000  0.0000000000000000  0.0000000000000000
  0.0000000000000000  0.0000000000000000  0.0000000000000000
  0.0000000000000000  0.0000000000000000  0.0000000000000000
  0.0000000000000000  0.0000000000000000  0.0000000000000000
  0.0000000000000000  0.0000000000000000  0.0000000000000000
  0.0000000000000000  0.0000000000000000  0.0000000000000000
  0.0000000000000000  0.0000000000000000  0.0000000000000000
  0.0000000000000000  0.0000000000000000  0.0000000000000000
  0.0000000000000000  0.0000000000000000  0.0000000000000000
  0.0000000000000000  0.0000000000000000  0.0000000000000000
  0.0000000000000000  0.0000000000000000  0.0000000000000000
  0.0000000000000000  0.0000000000000000  0.0000000000000000
  0.0000000000000000  0.0000000000000000  0.0000000000000000
  0.0000000000000000  0.0000000000000000  0.0000000000000000
  0.0000000000000000  0.0000000000000000  0.0000000000000000
  0.0000000000000000  0.0000000000000000  0.0000000000000000
  0.0000000000000000  0.0000000000000000  0.0000000000000000
  0.0000000000000000  0.0000000000000000  0.0000000000000000
  0.0000000000000000  0.0000000000000000  0.0000000000000000
  0.0000000000000000  0.0000000000000000  0.0000000000000000
  0.0000000000000000  0.0000000000000000  0.0000000000000000
  0.0000000000000000  0.0000000000000000  0.0000000000000000
  0.0000000000000000  0.0000000000000000  0.0000000000000000
  0.0000000000000000  0.0000000000000000  0.0000000000000000
  0.0000000000000000  0.0000000000000000  0.0000000000000000
  0.0000000000000000  0.0000000000000000  0.0000000000000000
  0.0000000000000000  0.0000000000000000  0.0000000000000000
  0.0000000000000000  0.0000000000000000  0.0000000000000000
  0.0000000000000000  0.0000000000000000  0.0000000000000000
  0.0000000000000000  0.0000000000000000  0.0000000000000000
  0.0000000000000000  0.0000000000000000  0.0000000000000000
  0.0000000000000000  0.0000000000000000  0.0000000000000000
  0.0000000000000000  0.0000000000000000  0.0000000000000000
  0.0000000000000000  0.0000000000000000  0.0000000000000000
  0.0000000000000000  0.0000000000000000  0.0000000000000000
  0.0000000000000000  0.0000000000000000  0.0000000000000000
  0.0000000000000000  0.0000000000000000  0.0000000000000000
  0.0000000000000000  0.0000000000000000  0.0000000000000000
  0.0000000000000000  0.0000000000000000  0.0000000000000000
  0.0000000000000000  0.0000000000000000  0.0000000000000000
  0.0000000000000000  0.0000000000000000  0.0000000000000000
  0.0000000000000000  0.0000000000000000  0.0000000000000000
  0.0000000000000000  0.0000000000000000  0.0000000000000000
  0.0000000000000000  0.0000000000000000  0.0000000000000000
  0.0000000000000000  0.0000000000000000  0.0000000000000000
  0.0000000000000000  0.0000000000000000  0.0000000000000000
  0.0000000000000000  0.0000000000000000  0.0000000000000000
  0.0000000000000000  0.0000000000000000  0.0000000000000000
  0.0000000000000000  0.0000000000000000  0.0000000000000000
  0.0000000000000000  0.0000000000000000  0.0000000000000000
  0.0000000000000000  0.0000000000000000  0.0000000000000000
  0.0000000000000000  0.0000000000000000  0.0000000000000000
  0.0000000000000000  0.0000000000000000  0.0000000000000000
  0.0000000000000000  0.0000000000000000  0.0000000000000000
  0.0000000000000000  0.0000000000000000  0.0000000000000000
  0.0000000000000000  0.0000000000000000  0.0000000000000000
  0.0000000000000000  0.0000000000000000  0.0000000000000000
  0.0000000000000000  0.0000000000000000  0.0000000000000000
  0.0000000000000000  0.0000000000000000  0.0000000000000000
  0.0000000000000000  0.0000000000000000  0.0000000000000000
  0.0000000000000000  0.0000000000000000  0.0000000000000000
  0.0000000000000000  0.0000000000000000  0.0000000000000000
  0.0000000000000000  0.0000000000000000  0.0000000000000000
  0.0000000000000000  0.0000000000000000  0.0000000000000000
  0.0000000000000000  0.0000000000000000  0.0000000000000000
  0.0000000000000000  0.0000000000000000  0.0000000000000000
  0.0000000000000000  0.0000000000000000  0.0000000000000000
  0.0000000000000000  0.0000000000000000  0.0000000000000000
