C  N 
 1.0000000000000000
    10.7211360931000002    0.0000000000000000    0.0000000000000000
     0.0000000000000000   10.7211360931000002    0.0000000000000000
     0.0000000000000000    0.0000000000000000   10.7211360931000002
 C   N  
 214   1
Direct
  0.0832679740487496  0.0833781217667417  0.0833986919512480
  0.0836242597499502  0.0832356287435022  0.4167741077151224
  0.0829276753730099  0.0834009774477409  0.7499847665793757
  0.0836707572773113  0.4167612445276396  0.0829959087226863
  0.0832730054943880  0.4168106085814656  0.4167021825486778
  0.0829832909252755  0.4166856928812368  0.7498875780977119
  0.0833439548316791  0.7499853861613918  0.0833227111683185
  0.0834729650291999  0.7500557826930916  0.4166313019695359
  0.0835383245997011  0.7499058931679613  0.7498898006812027
  0.4166819004206256  0.0834009774477409  0.0837389906269876
  0.4168200997586601  0.0835452273762026  0.4170504626589335
  0.4162800395069855  0.0827097449821570  0.7503866274930159
  0.4167790889022894  0.4166856928812368  0.0836833750747221
  0.4183077970666886  0.4176252028583498  0.4182112222155139
  0.4155872910154946  0.4159834857885980  0.7510793759845027
  0.4167768663187986  0.7499058931679613  0.0831283414002965
  0.4159172952042473  0.7507897742114147  0.4168724970070139
  0.4171999693947837  0.7492087687269097  0.7494666976052176
  0.7498925592848786  0.0832356287435022  0.0830424062500474
  0.7499624415712487  0.0835803472922211  0.4167042254287526
  0.7496162043410679  0.0835452273762026  0.7498465672413410
  0.7499644844513236  0.4168106085814656  0.0833936605056096
  0.7571600100667344  0.4104514738905927  0.4095066569332667
  0.7484554447844873  0.4176252028583498  0.7483588699333128
  0.7500353650304655  0.7500557826930916  0.0831937009707976
  0.7498056635815101  0.7494344190542911  0.4168610034184912
  0.7497941699929879  0.7507897742114147  0.7507493717957542
  0.2500676444477422  0.2500152334206244  0.0837389906269876
  0.2502118943762037  0.2501534327586589  0.4170504626589335
  0.2493764119821582  0.2496133725069842  0.7503866274930159
  0.2499022957435034  0.5832258922848774  0.0830424062500474
  0.2502470142922222  0.5832957745712475  0.4167042254287526
  0.2502118943762037  0.5829495373410666  0.7498465672413410
  0.2500447887667429  0.9166013080487522  0.0833986919512480
  0.2499022957435034  0.9169575937499526  0.4167741077151224
  0.2500676444477422  0.9162610093730124  0.7499847665793757
  0.5833523588812344  0.2501124219022882  0.0836833750747221
  0.5842918688583474  0.2516411300666873  0.4182112222155139
  0.5826501517885954  0.2489206240154935  0.7510793759845027
  0.5834772745814631  0.5832978174513224  0.0833936605056096
  0.5771181398905902  0.5904933430667332  0.4095066569332667
  0.5842918688583474  0.5817887777844860  0.7483588699333128
  0.5834279105276373  0.9170040912773136  0.0829959087226863
  0.5834772745814631  0.9166063394943905  0.4167021825486778
  0.5833523588812344  0.9163166249252779  0.7498875780977119
  0.9165725601679625  0.2501101993187974  0.0831283414002965
  0.9174564412114159  0.2492506282042460  0.4168724970070139
  0.9158754357269109  0.2505333023947825  0.7494666976052176
  0.9167224496930929  0.5833686980304642  0.0831937009707976
  0.9161010860542923  0.5831389965815089  0.4168610034184912
  0.9174564412114159  0.5831275029929865  0.7507493717957542
  0.9166520531613930  0.9166772888316814  0.0833227111683185
  0.9167224496930929  0.9168062990292023  0.4166313019695359
  0.9165725601679625  0.9168716585997037  0.7498898006812027
  0.2501833521392043  0.0835166851392031  0.2502268977503103
  0.2497500718512302  0.0830834048512289  0.5835483823881631
  0.2497716776845297  0.0831050106845284  0.9168949893154716
  0.2504918014551740  0.4168682232131135  0.2504920684871832
  0.2498727608407305  0.4165155139480737  0.5834844860519264
  0.2497500718512302  0.4164516176118369  0.9169165951487713
  0.2500275818540790  0.7500621768273139  0.2499378231726862
  0.2504918014551740  0.7495079315128171  0.5831317767868829
  0.2501833521392043  0.7497731022496896  0.9164833148607969
  0.5835348892131147  0.0838251344551729  0.2504920684871832
  0.5831821799480712  0.0832060938407293  0.5834844860519264
  0.5831182836118345  0.0830834048512289  0.9169165951487713
  0.5840436388913146  0.4173769728913170  0.2510354636844409
  0.5831821799480712  0.4165155139480737  0.9167939061592705
  0.5837353980876161  0.7510656950955740  0.2489343049044262
  0.5840436388913146  0.7489645363155591  0.5826230271086830
  0.5835348892131147  0.7495079315128171  0.9161748655448271
  0.9167288438273151  0.0833609148540778  0.2499378231726862
  0.9161745985128184  0.0838251344551729  0.5831317767868829
  0.9164397692496908  0.0835166851392031  0.9164833148607969
  0.9177323620955752  0.4170687320876184  0.2489343049044262
  0.9156312033155604  0.4173769728913170  0.5826230271086830
  0.9161745985128184  0.4168682232131135  0.9161748655448271
  0.9165420413415439  0.7498753743415427  0.2501246256584574
  0.9177323620955752  0.7510656950955740  0.5829312679123815
  0.9167288438273151  0.7500621768273139  0.9166390851459224
  0.0835383245997011  0.2501101993187974  0.2500941068320388
  0.0829832909252755  0.2501124219022882  0.5833143071187632
  0.0829276753730099  0.2500152334206244  0.9165990225522590
  0.0834729650291998  0.5833686980304642  0.2499442173069084
  0.0832730054943880  0.5832978174513224  0.5831893914185344
  0.0836242597499502  0.5832258922848774  0.9167643712564982
  0.0833439548316791  0.9166772888316814  0.2500146138386083
  0.0836707572773113  0.9170040912773136  0.5832387554723604
  0.0832679740487496  0.9166013080487522  0.9166218782332582
  0.4171999693947837  0.2505333023947825  0.2507912312730904
  0.4155872910154946  0.2489206240154935  0.5840165142114022
  0.4162800395069855  0.2496133725069842  0.9172902550178432
  0.4159172952042473  0.5831275029929865  0.2492102257885853
  0.4183077970666886  0.5817887777844860  0.5823747971416502
  0.4168200997586601  0.5829495373410666  0.9164547726237973
  0.4167768663187986  0.9168716585997037  0.2500941068320388
  0.4167790889022894  0.9163166249252779  0.5833143071187632
  0.4166819004206256  0.9162610093730124  0.9165990225522590
  0.7497941699929879  0.2492506282042460  0.2492102257885853
  0.7484554447844873  0.2516411300666873  0.5823747971416502
  0.7496162043410679  0.2501534327586589  0.9164547726237973
  0.7498056635815101  0.5831389965815089  0.2505655809457091
  0.7571600100667344  0.5904933430667332  0.5895485261094073
  0.7499624415712487  0.5832957745712475  0.9164196527077789
  0.7500353650304655  0.9168062990292023  0.2499442173069084
  0.7499644844513236  0.9166063394943905  0.5831893914185344
  0.7498925592848786  0.9169575937499526  0.9167643712564982
  0.9999137973346518  0.0000693134474791  0.9999306865525210
  0.0000815826451004  0.0000675005612033  0.3332709689701739
  0.9997127315146395  0.0002928101519278  0.6666332626578304
  0.9997127315146395  0.3333667373421698  0.9997071898480723
  0.0001856111100844  0.3334260372553546  0.3332367217089809
  0.9991242278655177  0.3339059390850994  0.6660940609149004
  0.0000815826451004  0.6667290310298262  0.9999324994387967
  0.9997521377570777  0.6664345964166640  0.3335654035833359
  0.0001856111100844  0.6667632782910191  0.6665739627446455
  0.3333274495289799  0.9998368033842057  0.0001631966157942
  0.3334983115241083  0.0002322410953528  0.3334626363752806
  0.3332620922919030  0.9995587298049725  0.6668080069932313
  0.3332620922919030  0.3331919930067687  0.0004412701950277
  0.3344468923485193  0.3337147304367211  0.3344883966148244
  0.3325659468346834  0.3327914742177940  0.6672085257822059
  0.3334983115241083  0.6665373636247194  0.9997677589046472
  0.3333368540311439  0.6667646345051655  0.3332353654948343
  0.3344468923485193  0.6655116033851758  0.6662852695632788
  0.6666444169359500  0.0001101666173411  0.9998898333826590
  0.6667170800552291  0.0001783222923026  0.3335088115010052
  0.6665606649194507  0.9998697748855802  0.6665646954240012
  0.6665606649194507  0.3334353045759988  0.0001302251144199
  0.6681224855015804  0.3346768638822957  0.3343770414990507
  0.6631411617977593  0.3338978834191174  0.6661021165808828
  0.6667170800552291  0.6664911884989949  0.9998216777076976
  0.6659412061636549  0.6662140719421374  0.3337859280578627
  0.6681224855015804  0.6656229585009493  0.6653231361177045
  0.1665034703842069  0.1666607835289823  0.0001631966157942
  0.1668989080953540  0.1668316455241108  0.3334626363752806
  0.1662253968049736  0.1665954262919054  0.6668080069932313
  0.1667768336173422  0.4999777499359486  0.9998898333826590
  0.1668449892923037  0.5000504130552244  0.3335088115010052
  0.1665364418855814  0.4998939979194493  0.6665646954240012
  0.1667359804474803  0.8332471303346506  0.9999306865525210
  0.1667341675612045  0.8334149156450992  0.3332709689701739
  0.1669594771519289  0.8330460645146383  0.6666332626578304
  0.4998586600067700  0.1665954262919054  0.0004412701950277
  0.5003813974367224  0.1677802263485217  0.3344883966148244
  0.4994581412177952  0.1658992808346858  0.6672085257822059
  0.5001019715760000  0.4998939979194493  0.0001302251144199
  0.5013435308822967  0.5014558185015792  0.3343770414990507
  0.5005645504191186  0.4964744947977580  0.6661021165808828
  0.5000334043421708  0.8330460645146383  0.9997071898480723
  0.5000927042553558  0.8335189441100834  0.3332367217089809
  0.5005726060851008  0.8324575608655165  0.6660940609149004
  0.8332040296247171  0.1668316455241108  0.9997677589046472
  0.8334313005051630  0.1666701880311465  0.3332353654948343
  0.8321782693851734  0.1677802263485217  0.6662852695632788
  0.8331578544989925  0.5000504130552244  0.9998216777076976
  0.8328807379421350  0.4992745391636538  0.3337859280578627
  0.8322896245009469  0.5014558185015792  0.6653231361177045
  0.8333956970298237  0.8334149156450992  0.9999324994387967
  0.8331012624166616  0.8330854707570763  0.3335654035833359
  0.8334299442910168  0.8335189441100834  0.6665739627446455
  0.1667359804474803  0.0000693134474791  0.1667528696653495
  0.1667768336173422  0.0001101666173411  0.5000222500640514
  0.1665034703842069  0.9998368033842057  0.8333392164710178
  0.1669594771519289  0.3333667373421698  0.1669539354853619
  0.1665364418855814  0.3334353045759988  0.5001060020805506
  0.1662253968049736  0.3331919930067687  0.8334045737080946
  0.1667341675612045  0.6667290310298262  0.1665850843549008
  0.1668449892923037  0.6664911884989949  0.4999495869447758
  0.1668989080953540  0.6665373636247194  0.8331683544758892
  0.5000334043421708  0.0002928101519278  0.1669539354853619
  0.5001019715760000  0.9998697748855802  0.5001060020805506
  0.4998586600067700  0.9995587298049725  0.8334045737080946
  0.5005726060851008  0.3339059390850994  0.1675424391344838
  0.5005645504191186  0.3338978834191174  0.5035255052022419
  0.4994581412177952  0.3327914742177940  0.8341007191653141
  0.5000927042553558  0.6667632782910191  0.1664810558899169
  0.5013435308822967  0.6656229585009493  0.4985441814984208
  0.5003813974367224  0.6655116033851758  0.8322197736514784
  0.8333956970298237  0.0000675005612033  0.1665850843549008
  0.8331578544989925  0.0001783222923026  0.4999495869447758
  0.8332040296247171  0.0002322410953528  0.8331683544758892
  0.8334299442910168  0.3334260372553546  0.1664810558899169
  0.8322896245009469  0.3346768638822957  0.4985441814984208
  0.8321782693851734  0.3337147304367211  0.8322197736514784
  0.8331012624166616  0.6664345964166640  0.1669145292429237
  0.8328807379421350  0.6662140719421374  0.5007254608363463
  0.8334313005051630  0.6667646345051655  0.8333298119688535
  0.9999991671271110  0.1668278488929191  0.1666674998728905
  0.0002902690213245  0.1663831229894402  0.4998190526728914
  0.9994612935181183  0.1669234596096029  0.8330765403903974
  0.0006443515571978  0.4999737529526869  0.1660223154428035
  0.9994599285191970  0.5001729029749196  0.4998270970250807
  0.0002902690213245  0.5001809473271088  0.8336168770105599
  0.9999613965265562  0.8332947295265549  0.1667052704734450
  0.0006443515571978  0.8339776845571965  0.5000262470473130
  0.9999991671271110  0.8333325001271098  0.8331721511070811
  0.3335901256096005  0.1669234596096029  0.1672053734818829
  0.3329608135248576  0.1662941475248601  0.5004077984106033
  0.3329814729682676  0.1663148069682700  0.8336851930317301
  0.3330497889894378  0.5001809473271088  0.1663763979786768
  0.3338360549264979  0.4998560814520926  0.5001439185479074
  0.3329608135248576  0.4995922015893965  0.8337058524751400
  0.3334945148929166  0.8333325001271098  0.1666674998728905
  0.3330497889894378  0.8336236020213232  0.4998190526728914
  0.3335901256096005  0.8327946265181171  0.8330765403903974
  0.6668476143271100  0.1663831229894402  0.1663763979786768
  0.6665227484520938  0.1671693889265004  0.5001439185479074
  0.6662588685893980  0.1662941475248601  0.8337058524751400
  0.6668395699749208  0.5001729029749196  0.1672067384808042
  0.6665227484520938  0.4998560814520926  0.8328306110734998
  0.6666404199526882  0.8339776845571965  0.1660223154428035
  0.6668395699749208  0.8327932615191957  0.4998270970250807
  0.6668476143271100  0.8336236020213232  0.8336168770105599
  0.5767831245449466  0.4101164585449490  0.5898835414550510
Cartesian
  0.0000000000000000  0.0000000000000000  0.0000000000000000
  0.0000000000000000  0.0000000000000000  0.0000000000000000
  0.0000000000000000  0.0000000000000000  0.0000000000000000
  0.0000000000000000  0.0000000000000000  0.0000000000000000
  0.0000000000000000  0.0000000000000000  0.0000000000000000
  0.0000000000000000  0.0000000000000000  0.0000000000000000
  0.0000000000000000  0.0000000000000000  0.0000000000000000
  0.0000000000000000  0.0000000000000000  0.0000000000000000
  0.0000000000000000  0.0000000000000000  0.0000000000000000
  0.0000000000000000  0.0000000000000000  0.0000000000000000
  0.0000000000000000  0.0000000000000000  0.0000000000000000
  0.0000000000000000  0.0000000000000000  0.0000000000000000
  0.0000000000000000  0.0000000000000000  0.0000000000000000
  0.0000000000000000  0.0000000000000000  0.0000000000000000
  0.0000000000000000  0.0000000000000000  0.0000000000000000
  0.0000000000000000  0.0000000000000000  0.0000000000000000
  0.0000000000000000  0.0000000000000000  0.0000000000000000
  0.0000000000000000  0.0000000000000000  0.0000000000000000
  0.0000000000000000  0.0000000000000000  0.0000000000000000
  0.0000000000000000  0.0000000000000000  0.0000000000000000
  0.0000000000000000  0.0000000000000000  0.0000000000000000
  0.0000000000000000  0.0000000000000000  0.0000000000000000
  0.0000000000000000  0.0000000000000000  0.0000000000000000
  0.0000000000000000  0.0000000000000000  0.0000000000000000
  0.0000000000000000  0.0000000000000000  0.0000000000000000
  0.0000000000000000  0.0000000000000000  0.0000000000000000
  0.0000000000000000  0.0000000000000000  0.0000000000000000
  0.0000000000000000  0.0000000000000000  0.0000000000000000
  0.0000000000000000  0.0000000000000000  0.0000000000000000
  0.0000000000000000  0.0000000000000000  0.0000000000000000
  0.0000000000000000  0.0000000000000000  0.0000000000000000
  0.0000000000000000  0.0000000000000000  0.0000000000000000
  0.0000000000000000  0.0000000000000000  0.0000000000000000
  0.0000000000000000  0.0000000000000000  0.0000000000000000
  0.0000000000000000  0.0000000000000000  0.0000000000000000
  0.0000000000000000  0.0000000000000000  0.0000000000000000
  0.0000000000000000  0.0000000000000000  0.0000000000000000
  0.0000000000000000  0.0000000000000000  0.0000000000000000
  0.0000000000000000  0.0000000000000000  0.0000000000000000
  0.0000000000000000  0.0000000000000000  0.0000000000000000
  0.0000000000000000  0.0000000000000000  0.0000000000000000
  0.0000000000000000  0.0000000000000000  0.0000000000000000
  0.0000000000000000  0.0000000000000000  0.0000000000000000
  0.0000000000000000  0.0000000000000000  0.0000000000000000
  0.0000000000000000  0.0000000000000000  0.0000000000000000
  0.0000000000000000  0.0000000000000000  0.0000000000000000
  0.0000000000000000  0.0000000000000000  0.0000000000000000
  0.0000000000000000  0.0000000000000000  0.0000000000000000
  0.0000000000000000  0.0000000000000000  0.0000000000000000
  0.0000000000000000  0.0000000000000000  0.0000000000000000
  0.0000000000000000  0.0000000000000000  0.0000000000000000
  0.0000000000000000  0.0000000000000000  0.0000000000000000
  0.0000000000000000  0.0000000000000000  0.0000000000000000
  0.0000000000000000  0.0000000000000000  0.0000000000000000
  0.0000000000000000  0.0000000000000000  0.0000000000000000
  0.0000000000000000  0.0000000000000000  0.0000000000000000
  0.0000000000000000  0.0000000000000000  0.0000000000000000
  0.0000000000000000  0.0000000000000000  0.0000000000000000
  0.0000000000000000  0.0000000000000000  0.0000000000000000
  0.0000000000000000  0.0000000000000000  0.0000000000000000
  0.0000000000000000  0.0000000000000000  0.0000000000000000
  0.0000000000000000  0.0000000000000000  0.0000000000000000
  0.0000000000000000  0.0000000000000000  0.0000000000000000
  0.0000000000000000  0.0000000000000000  0.0000000000000000
  0.0000000000000000  0.0000000000000000  0.0000000000000000
  0.0000000000000000  0.0000000000000000  0.0000000000000000
  0.0000000000000000  0.0000000000000000  0.0000000000000000
  0.0000000000000000  0.0000000000000000  0.0000000000000000
  0.0000000000000000  0.0000000000000000  0.0000000000000000
  0.0000000000000000  0.0000000000000000  0.0000000000000000
  0.0000000000000000  0.0000000000000000  0.0000000000000000
  0.0000000000000000  0.0000000000000000  0.0000000000000000
  0.0000000000000000  0.0000000000000000  0.0000000000000000
  0.0000000000000000  0.0000000000000000  0.0000000000000000
  0.0000000000000000  0.0000000000000000  0.0000000000000000
  0.0000000000000000  0.0000000000000000  0.0000000000000000
  0.0000000000000000  0.0000000000000000  0.0000000000000000
  0.0000000000000000  0.0000000000000000  0.0000000000000000
  0.0000000000000000  0.0000000000000000  0.0000000000000000
  0.0000000000000000  0.0000000000000000  0.0000000000000000
  0.0000000000000000  0.0000000000000000  0.0000000000000000
  0.0000000000000000  0.0000000000000000  0.0000000000000000
  0.0000000000000000  0.0000000000000000  0.0000000000000000
  0.0000000000000000  0.0000000000000000  0.0000000000000000
  0.0000000000000000  0.0000000000000000  0.0000000000000000
  0.0000000000000000  0.0000000000000000  0.0000000000000000
  0.0000000000000000  0.0000000000000000  0.0000000000000000
  0.0000000000000000  0.0000000000000000  0.0000000000000000
  0.0000000000000000  0.0000000000000000  0.0000000000000000
  0.0000000000000000  0.0000000000000000  0.0000000000000000
  0.0000000000000000  0.0000000000000000  0.0000000000000000
  0.0000000000000000  0.0000000000000000  0.0000000000000000
  0.0000000000000000  0.0000000000000000  0.0000000000000000
  0.0000000000000000  0.0000000000000000  0.0000000000000000
  0.0000000000000000  0.0000000000000000  0.0000000000000000
  0.0000000000000000  0.0000000000000000  0.0000000000000000
  0.0000000000000000  0.0000000000000000  0.0000000000000000
  0.0000000000000000  0.0000000000000000  0.0000000000000000
  0.0000000000000000  0.0000000000000000  0.0000000000000000
  0.0000000000000000  0.0000000000000000  0.0000000000000000
  0.0000000000000000  0.0000000000000000  0.0000000000000000
  0.0000000000000000  0.0000000000000000  0.0000000000000000
  0.0000000000000000  0.0000000000000000  0.0000000000000000
  0.0000000000000000  0.0000000000000000  0.0000000000000000
  0.0000000000000000  0.0000000000000000  0.0000000000000000
  0.0000000000000000  0.0000000000000000  0.0000000000000000
  0.0000000000000000  0.0000000000000000  0.0000000000000000
  0.0000000000000000  0.0000000000000000  0.0000000000000000
  0.0000000000000000  0.0000000000000000  0.0000000000000000
  0.0000000000000000  0.0000000000000000  0.0000000000000000
  0.0000000000000000  0.0000000000000000  0.0000000000000000
  0.0000000000000000  0.0000000000000000  0.0000000000000000
  0.0000000000000000  0.0000000000000000  0.0000000000000000
  0.0000000000000000  0.0000000000000000  0.0000000000000000
  0.0000000000000000  0.0000000000000000  0.0000000000000000
  0.0000000000000000  0.0000000000000000  0.0000000000000000
  0.0000000000000000  0.0000000000000000  0.0000000000000000
  0.0000000000000000  0.0000000000000000  0.0000000000000000
  0.0000000000000000  0.0000000000000000  0.0000000000000000
  0.0000000000000000  0.0000000000000000  0.0000000000000000
  0.0000000000000000  0.0000000000000000  0.0000000000000000
  0.0000000000000000  0.0000000000000000  0.0000000000000000
  0.0000000000000000  0.0000000000000000  0.0000000000000000
  0.0000000000000000  0.0000000000000000  0.0000000000000000
  0.0000000000000000  0.0000000000000000  0.0000000000000000
  0.0000000000000000  0.0000000000000000  0.0000000000000000
  0.0000000000000000  0.0000000000000000  0.0000000000000000
  0.0000000000000000  0.0000000000000000  0.0000000000000000
  0.0000000000000000  0.0000000000000000  0.0000000000000000
  0.0000000000000000  0.0000000000000000  0.0000000000000000
  0.0000000000000000  0.0000000000000000  0.0000000000000000
  0.0000000000000000  0.0000000000000000  0.0000000000000000
  0.0000000000000000  0.0000000000000000  0.0000000000000000
  0.0000000000000000  0.0000000000000000  0.0000000000000000
  0.0000000000000000  0.0000000000000000  0.0000000000000000
  0.0000000000000000  0.0000000000000000  0.0000000000000000
  0.0000000000000000  0.0000000000000000  0.0000000000000000
  0.0000000000000000  0.0000000000000000  0.0000000000000000
  0.0000000000000000  0.0000000000000000  0.0000000000000000
  0.0000000000000000  0.0000000000000000  0.0000000000000000
  0.0000000000000000  0.0000000000000000  0.0000000000000000
  0.0000000000000000  0.0000000000000000  0.0000000000000000
  0.0000000000000000  0.0000000000000000  0.0000000000000000
  0.0000000000000000  0.0000000000000000  0.0000000000000000
  0.0000000000000000  0.0000000000000000  0.0000000000000000
  0.0000000000000000  0.0000000000000000  0.0000000000000000
  0.0000000000000000  0.0000000000000000  0.0000000000000000
  0.0000000000000000  0.0000000000000000  0.0000000000000000
  0.0000000000000000  0.0000000000000000  0.0000000000000000
  0.0000000000000000  0.0000000000000000  0.0000000000000000
  0.0000000000000000  0.0000000000000000  0.0000000000000000
  0.0000000000000000  0.0000000000000000  0.0000000000000000
  0.0000000000000000  0.0000000000000000  0.0000000000000000
  0.0000000000000000  0.0000000000000000  0.0000000000000000
  0.0000000000000000  0.0000000000000000  0.0000000000000000
  0.0000000000000000  0.0000000000000000  0.0000000000000000
  0.0000000000000000  0.0000000000000000  0.0000000000000000
  0.0000000000000000  0.0000000000000000  0.0000000000000000
  0.0000000000000000  0.0000000000000000  0.0000000000000000
  0.0000000000000000  0.0000000000000000  0.0000000000000000
  0.0000000000000000  0.0000000000000000  0.0000000000000000
  0.0000000000000000  0.0000000000000000  0.0000000000000000
  0.0000000000000000  0.0000000000000000  0.0000000000000000
  0.0000000000000000  0.0000000000000000  0.0000000000000000
  0.0000000000000000  0.0000000000000000  0.0000000000000000
  0.0000000000000000  0.0000000000000000  0.0000000000000000
  0.0000000000000000  0.0000000000000000  0.0000000000000000
  0.0000000000000000  0.0000000000000000  0.0000000000000000
  0.0000000000000000  0.0000000000000000  0.0000000000000000
  0.0000000000000000  0.0000000000000000  0.0000000000000000
  0.0000000000000000  0.0000000000000000  0.0000000000000000
  0.0000000000000000  0.0000000000000000  0.0000000000000000
  0.0000000000000000  0.0000000000000000  0.0000000000000000
  0.0000000000000000  0.0000000000000000  0.0000000000000000
  0.0000000000000000  0.0000000000000000  0.0000000000000000
  0.0000000000000000  0.0000000000000000  0.0000000000000000
  0.0000000000000000  0.0000000000000000  0.0000000000000000
  0.0000000000000000  0.0000000000000000  0.0000000000000000
  0.0000000000000000  0.0000000000000000  0.0000000000000000
  0.0000000000000000  0.0000000000000000  0.0000000000000000
  0.0000000000000000  0.0000000000000000  0.0000000000000000
  0.0000000000000000  0.0000000000000000  0.0000000000000000
  0.0000000000000000  0.0000000000000000  0.0000000000000000
  0.0000000000000000  0.0000000000000000  0.0000000000000000
  0.0000000000000000  0.0000000000000000  0.0000000000000000
  0.0000000000000000  0.0000000000000000  0.0000000000000000
  0.0000000000000000  0.0000000000000000  0.0000000000000000
  0.0000000000000000  0.0000000000000000  0.0000000000000000
  0.0000000000000000  0.0000000000000000  0.0000000000000000
  0.0000000000000000  0.0000000000000000  0.0000000000000000
  0.0000000000000000  0.0000000000000000  0.0000000000000000
  0.0000000000000000  0.0000000000000000  0.0000000000000000
  0.0000000000000000  0.0000000000000000  0.0000000000000000
  0.0000000000000000  0.0000000000000000  0.0000000000000000
  0.0000000000000000  0.0000000000000000  0.0000000000000000
  0.0000000000000000  0.0000000000000000  0.0000000000000000
  0.0000000000000000  0.0000000000000000  0.0000000000000000
  0.0000000000000000  0.0000000000000000  0.0000000000000000
  0.0000000000000000  0.0000000000000000  0.0000000000000000
  0.0000000000000000  0.0000000000000000  0.0000000000000000
  0.0000000000000000  0.0000000000000000  0.0000000000000000
  0.0000000000000000  0.0000000000000000  0.0000000000000000
  0.0000000000000000  0.0000000000000000  0.0000000000000000
  0.0000000000000000  0.0000000000000000  0.0000000000000000
  0.0000000000000000  0.0000000000000000  0.0000000000000000
  0.0000000000000000  0.0000000000000000  0.0000000000000000
  0.0000000000000000  0.0000000000000000  0.0000000000000000
  0.0000000000000000  0.0000000000000000  0.0000000000000000
  0.0000000000000000  0.0000000000000000  0.0000000000000000
  0.0000000000000000  0.0000000000000000  0.0000000000000000
  0.0000000000000000  0.0000000000000000  0.0000000000000000
  0.0000000000000000  0.0000000000000000  0.0000000000000000
  0.0000000000000000  0.0000000000000000  0.0000000000000000
  0.0000000000000000  0.0000000000000000  0.0000000000000000
  0.0000000000000000  0.0000000000000000  0.0000000000000000
