
     Program PWSCF v.7.4.1 starts on 23Aug2026 at  0:41: 7 

     This program is part of the open-source Quantum ESPRESSO suite
     for quantum simulation of materials; please cite
         "P. Giannozzi et al., J. Phys.:Condens. Matter 21 395502 (2009);
         "P. Giannozzi et al., J. Phys.:Condens. Matter 29 465901 (2017);
         "P. Giannozzi et al., J. Chem. Phys. 152 154105 (2020);
          URL http://www.quantum-espresso.org", 
     in publications or presentations arising from this work. More details at
     http://www.quantum-espresso.org/quote

     Parallel version (MPI), running on    36 processors

     MPI processes distributed on     1 nodes
     123730 MiB available memory on the printing compute node when the environment starts
 
     Reading input from scf.in

     Current dimensions of program PWSCF are:
     Max number of different atomic species (ntypx) = 10
     Max number of k-points (npk) =  40000
     Max angular momentum in pseudopotentials (lmaxx) =  4
     file C.pbe-n-kjpaw_psl.1.0.0.UPF: wavefunction(s)  2S 2P renormalized
     file N.pbe-n-kjpaw_psl.1.0.0.UPF: wavefunction(s)  2S renormalized
 
     R & G space division:  proc/nbgrp/npool/nimage =      36
     Subspace diagonalization in iterative solution of the eigenvalue problem:
     one sub-group per band group will be used
     scalapack distributed-memory algorithm (size of sub-group:  6*  6 procs)

 
     Parallelization info
     --------------------
     sticks:   dense  smooth     PW     G-vecs:    dense   smooth      PW
     Min         163     163     40                 9409     9409    1174
     Max         164     164     41                 9414     9414    1179
     Sum        5877    5877   1473               338755   338755   42379
 
     Using Slab Decomposition
 


     bravais-lattice index     =            0
     lattice parameter (alat)  =      20.2515  a.u.
     unit-cell volume          =    8305.5769 (a.u.)^3
     number of atoms/cell      =          215
     number of atomic types    =            2
     number of electrons       =       862.00 (up: 432.00, down: 430.00)
     number of Kohn-Sham states=          862
     kinetic-energy cutoff     =      45.0000  Ry
     charge density cutoff     =     180.0000  Ry
     scf convergence threshold =      1.0E-08
     mixing beta               =       0.7000
     number of iterations used =            8  plain     mixing
     Exchange-correlation= SLA  PW   PBX  PBC
                           (   1   4   3   4   0   0   0)

     celldm(1)=  20.251472  celldm(2)=   0.000000  celldm(3)=   0.000000
     celldm(4)=   0.000000  celldm(5)=   0.000000  celldm(6)=   0.000000

     crystal axes: (cart. coord. in units of alat)
               a(1) = (  -0.707107   0.000000   0.707107 )  
               a(2) = (   0.408248   0.816497   0.408248 )  
               a(3) = (  -0.577350   0.577350  -0.577350 )  

     reciprocal axes: (cart. coord. in units 2 pi/alat)
               b(1) = ( -0.707107  0.000000  0.707107 )  
               b(2) = (  0.408248  0.816497  0.408248 )  
               b(3) = ( -0.577350  0.577350 -0.577350 )  


     PseudoPot. # 1 for C  read from file:
     ../../pseudos/C.pbe-n-kjpaw_psl.1.0.0.UPF
     MD5 check sum: 5f16ad9a65e90284d1d834d4ab3b0f7d
     Pseudo is Projector augmented-wave + core cor, Zval =  4.0
     Generated using &quot;atomic&quot; code by A. Dal Corso  v.6.3
     Shape of augmentation charge: PSQ
     Using radial grid of 1073 points,  4 beta functions with: 
                l(1) =   0
                l(2) =   0
                l(3) =   1
                l(4) =   1
     Q(r) pseudized with 0 coefficients 


     PseudoPot. # 2 for N  read from file:
     ../../pseudos/N.pbe-n-kjpaw_psl.1.0.0.UPF
     MD5 check sum: a6186d50559fdcbe4b2d0187dd61a119
     Pseudo is Projector augmented-wave + core cor, Zval =  5.0
     Generated using &quot;atomic&quot; code by A. Dal Corso  v.6.3
     Shape of augmentation charge: PSQ
     Using radial grid of 1085 points,  4 beta functions with: 
                l(1) =   0
                l(2) =   0
                l(3) =   1
                l(4) =   1
     Q(r) pseudized with 0 coefficients 


     atomic species   valence    mass     pseudopotential
     C                 4.00    12.01070     C ( 1.00)
     N                 5.00    14.00670     N ( 1.00)

     Starting magnetic structure 
     atomic species   magnetization
     C               0.000
     N               0.000

     No symmetry found



   Cartesian axes

     site n.     atom                  positions (alat units)
         1        C      tau(   1) = (  -0.0000832   0.0000786   0.0000641  )
         2        C      tau(   2) = (  -0.1925045   0.1926678  -0.1922264  )
         3        C      tau(   3) = (  -0.3850323   0.3848486  -0.3849372  )
         4        C      tau(   4) = (   0.1358126   0.2723309   0.1360907  )
         5        C      tau(   5) = (  -0.0569060   0.4653231  -0.0560003  )
         6        C      tau(   6) = (  -0.2488294   0.6570246  -0.2489898  )
         7        C      tau(   7) = (   0.2722098   0.5443223   0.2723050  )
         8        C      tau(   8) = (   0.0798923   0.7367858   0.0797319  )
         9        C      tau(   9) = (  -0.1131037   0.9286586  -0.1122266  )
        10        C      tau(  10) = (  -0.2357451   0.0002862   0.2356757  )
        11        C      tau(  11) = (  -0.4282821   0.1925459   0.0432080  )
        12        C      tau(  12) = (  -0.6206080   0.3848685  -0.1490679  )
        13        C      tau(  13) = (  -0.0996029   0.2722969   0.3718873  )
        14        C      tau(  14) = (  -0.2939404   0.4660976   0.1808462  )
        15        C      tau(  15) = (  -0.4829597   0.6572192  -0.0137541  )
        16        C      tau(  16) = (   0.0363442   0.5442719   0.5078844  )
        17        C      tau(  17) = (  -0.1553577   0.7367087   0.3138479  )
        18        C      tau(  18) = (  -0.3491556   0.9279625   0.1239942  )
        19        C      tau(  19) = (  -0.4714245   0.0000590   0.4714102  )
        20        C      tau(  20) = (  -0.6638977   0.1924715   0.2788876  )
        21        C      tau(  21) = (  -0.8562715   0.3851259   0.0866016  )
        22        C      tau(  22) = (  -0.3352631   0.2722116   0.6075222  )
        23        C      tau(  23) = (  -0.5280269   0.4645266   0.4153138  )
        24        C      tau(  24) = (  -0.7191943   0.6569609   0.2225814  )
        25        C      tau(  25) = (  -0.1993857   0.5445131   0.7434874  )
        26        C      tau(  26) = (  -0.3916295   0.7364415   0.5501463  )
        27        C      tau(  27) = (  -0.5844985   0.9295307   0.3589566  )
        28        C      tau(  28) = (  -0.0499650   0.1362898   0.1858445  )
        29        C      tau(  29) = (  -0.2426510   0.3294255  -0.0058464  )
        30        C      tau(  30) = (  -0.4349074   0.5208404  -0.1993246  )
        31        C      tau(  31) = (   0.0861167   0.4082908   0.3221312  )
        32        C      tau(  32) = (  -0.1061837   0.6023637   0.1303292  )
        33        C      tau(  33) = (  -0.2992882   0.7917225  -0.0621160  )
        34        C      tau(  34) = (   0.2224017   0.6804017   0.4581928  )
        35        C      tau(  35) = (   0.0300338   0.8730008   0.2658043  )
        36        C      tau(  36) = (  -0.1628898   1.0646770   0.0735789  )
        37        C      tau(  37) = (  -0.2854745   0.1361878   0.4217098  )
        38        C      tau(  38) = (  -0.4781627   0.3282954   0.2292196  )
        39        C      tau(  39) = (  -0.6695432   0.5213111   0.0372790  )
        40        C      tau(  40) = (  -0.1493871   0.4083098   0.5576840  )
        41        C      tau(  41) = (  -0.3427566   0.5994642   0.3630247  )
        42        C      tau(  42) = (  -0.5331213   0.7942674   0.1734583  )
        43        C      tau(  43) = (  -0.0135887   0.6805033   0.6936634  )
        44        C      tau(  44) = (  -0.2060313   0.8727402   0.5005410  )
        45        C      tau(  45) = (  -0.3983639   1.0655612   0.3090811  )
        46        C      tau(  46) = (  -0.5212556   0.1361993   0.6573817  )
        47        C      tau(  47) = (  -0.7137600   0.3286977   0.4649759  )
        48        C      tau(  48) = (  -0.9060362   0.5210850   0.2723258  )
        49        C      tau(  49) = (  -0.3851493   0.4084643   0.7932576  )
        50        C      tau(  50) = (  -0.5777307   0.6008458   0.6009560  )
        51        C      tau(  51) = (  -0.7700408   0.7931246   0.4086212  )
        52        C      tau(  52) = (  -0.2491235   0.6804684   0.9294939  )
        53        C      tau(  53) = (  -0.4414600   0.8728264   0.7368877  )
        54        C      tau(  54) = (  -0.6341339   1.0654058   0.5447213  )
        55        C      tau(  55) = (  -0.2140828   0.0964681   0.0217268  )
        56        C      tau(  56) = (  -0.4066922   0.2887153  -0.1706778  )
        57        C      tau(  57) = (  -0.5991031   0.4810712  -0.3633120  )
        58        C      tau(  58) = (  -0.0789058   0.3691568   0.1578987  )
        59        C      tau(  59) = (  -0.2716172   0.5622228  -0.0351044  )
        60        C      tau(  60) = (  -0.4631129   0.7533433  -0.2273424  )
        61        C      tau(  61) = (   0.0584251   0.6405430   0.2940079  )
        62        C      tau(  62) = (  -0.1348293   0.8316269   0.1023429  )
        63        C      tau(  63) = (  -0.3270795   1.0248379  -0.0906109  )
        64        C      tau(  64) = (  -0.4499139   0.0962881   0.2572704  )
        65        C      tau(  65) = (  -0.6422481   0.2887217   0.0648230  )
        66        C      tau(  66) = (  -0.8346126   0.4812895  -0.1273604  )
        67        C      tau(  67) = (  -0.3137182   0.3681963   0.3936641  )
        68        C      tau(  68) = (  -0.5037402   0.5604030   0.2020411  )
        69        C      tau(  69) = (  -0.6978262   0.7534108   0.0087461  )
        70        C      tau(  70) = (  -0.1782331   0.6405229   0.5285891  )
        71        C      tau(  71) = (  -0.3709537   0.8336159   0.3356260  )
        72        C      tau(  72) = (  -0.5627894   1.0256649   0.1446556  )
        73        C      tau(  73) = (  -0.6855916   0.0963246   0.4930457  )
        74        C      tau(  74) = (  -0.8778635   0.2889117   0.3005434  )
        75        C      tau(  75) = (  -1.0704263   0.4811869   0.1081911  )
        76        C      tau(  76) = (  -0.5495648   0.3685381   0.6291711  )
        77        C      tau(  77) = (  -0.7419125   0.5610086   0.4367742  )
        78        C      tau(  78) = (  -0.9341669   0.7532756   0.2441807  )
        79        C      tau(  79) = (  -0.4132680   0.6406507   0.7650941  )
        80        C      tau(  80) = (  -0.6058974   0.8329525   0.5727646  )
        81        C      tau(  81) = (  -0.7983966   1.0255489   0.3804586  )
        82        C      tau(  82) = (  -0.0284257   0.2326720  -0.0280300  )
        83        C      tau(  83) = (  -0.2206361   0.4244181  -0.2213757  )
        84        C      tau(  84) = (  -0.4131470   0.6172785  -0.4130119  )
        85        C      tau(  85) = (   0.1086999   0.5043284   0.1079602  )
        86        C      tau(  86) = (  -0.0850226   0.6969649  -0.0840895  )
        87        C      tau(  87) = (  -0.2770707   0.8895828  -0.2776080  )
        88        C      tau(  88) = (   0.2438936   0.7767033   0.2440286  )
        89        C      tau(  89) = (   0.0520700   0.9694457   0.0515327  )
        90        C      tau(  90) = (  -0.1410921   1.1613293  -0.1406937  )
        91        C      tau(  91) = (  -0.2639449   0.2323321   0.2075717  )
        92        C      tau(  92) = (  -0.4562720   0.4250903   0.0152246  )
        93        C      tau(  93) = (  -0.6493270   0.6171114  -0.1780685  )
        94        C      tau(  94) = (  -0.1280313   0.5047348   0.3434653  )
        95        C      tau(  95) = (  -0.5124572   0.8890920  -0.0409097  )
        96        C      tau(  96) = (   0.0089542   0.7768372   0.4802127  )
        97        C      tau(  97) = (  -0.1844750   0.9686738   0.2870724  )
        98        C      tau(  98) = (  -0.3768739   1.1622512   0.0948645  )
        99        C      tau(  99) = (  -0.4996650   0.2323492   0.4432876  )
       100        C      tau( 100) = (  -0.6921401   0.4248026   0.2508287  )
       101        C      tau( 101) = (  -0.8842033   0.6173355   0.0584213  )
       102        C      tau( 102) = (  -0.3635751   0.5045258   0.5793937  )
       103        C      tau( 103) = (  -0.5558028   0.6970139   0.3866789  )
       104        C      tau( 104) = (  -0.7491897   0.8899414   0.1946249  )
       105        C      tau( 105) = (  -0.2275423   0.7766681   0.7150823  )
       106        C      tau( 106) = (  -0.4202442   0.9697570   0.5235704  )
       107        C      tau( 107) = (  -0.6123787   1.1615894   0.3305298  )
       108        C      tau( 108) = (  -0.0731302   0.1163896   0.0448893  )
       109        C      tau( 109) = (  -0.2656906   0.3089417  -0.1474294  )
       110        C      tau( 110) = (  -0.4580821   0.5009390  -0.3401760  )
       111        C      tau( 111) = (   0.0627978   0.3886463   0.1810590  )
       112        C      tau( 112) = (  -0.1301600   0.5815999  -0.0109598  )
       113        C      tau( 113) = (  -0.3217584   0.7738487  -0.2050241  )
       114        C      tau( 114) = (   0.1992770   0.6604411   0.3171830  )
       115        C      tau( 115) = (   0.0075626   0.8537553   0.1242969  )
       116        C      tau( 116) = (  -0.1860235   1.0449213  -0.0675170  )
       117        C      tau( 117) = (  -0.3088018   0.1162618   0.2805919  )
       118        C      tau( 118) = (  -0.5012534   0.3086497   0.0880612  )
       119        C      tau( 119) = (  -0.6933605   0.5011754  -0.1042256  )
       120        C      tau( 120) = (  -0.1726261   0.3883881   0.4166885  )
       121        C      tau( 121) = (  -0.5564874   0.7732304   0.0321083  )
       122        C      tau( 122) = (  -0.0367099   0.6605055   0.5524250  )
       123        C      tau( 123) = (  -0.2293553   0.8526060   0.3592404  )
       124        C      tau( 124) = (  -0.4216176   1.0466672   0.1676535  )
       125        C      tau( 125) = (  -0.5445004   0.1161891   0.5163082  )
       126        C      tau( 126) = (  -0.7368965   0.3086866   0.3238377  )
       127        C      tau( 127) = (  -0.9292319   0.5011989   0.1313730  )
       128        C      tau( 128) = (  -0.4084075   0.3883914   0.6523268  )
       129        C      tau( 129) = (  -0.6009015   0.5808941   0.4599530  )
       130        C      tau( 130) = (  -0.7929660   0.7733040   0.2675085  )
       131        C      tau( 131) = (  -0.2723219   0.6605920   0.7882830  )
       132        C      tau( 132) = (  -0.4648037   0.8529295   0.5956708  )
       133        C      tau( 133) = (  -0.6574099   1.0455134   0.4037258  )
       134        C      tau( 134) = (  -0.1229953   0.2525369   0.2308039  )
       135        C      tau( 135) = (  -0.3161136   0.4463256   0.0389015  )
       136        C      tau( 136) = (  -0.5092495   0.6367534  -0.1552073  )
       137        C      tau( 137) = (   0.0132182   0.5244799   0.3668591  )
       138        C      tau( 138) = (  -0.1650862   0.7181743   0.1772829  )
       139        C      tau( 139) = (  -0.3718629   0.9083333  -0.0173238  )
       140        C      tau( 140) = (   0.1495373   0.7967514   0.5033174  )
       141        C      tau( 141) = (  -0.0432687   0.9890163   0.3104459  )
       142        C      tau( 142) = (  -0.2356952   1.1813942   0.1180895  )
       143        C      tau( 143) = (  -0.3585885   0.2521254   0.4666112  )
       144        C      tau( 144) = (  -0.5513795   0.4441863   0.2743541  )
       145        C      tau( 145) = (  -0.7428304   0.6373108   0.0816785  )
       146        C      tau( 146) = (  -0.2225398   0.5244973   0.6023080  )
       147        C      tau( 147) = (  -0.4150888   0.7167300   0.4082791  )
       148        C      tau( 148) = (  -0.6092093   0.9098507   0.2178499  )
       149        C      tau( 149) = (  -0.0864931   0.7966171   0.7384632  )
       150        C      tau( 150) = (  -0.2789214   0.9890602   0.5460613  )
       151        C      tau( 151) = (  -0.4712623   1.1816613   0.3538318  )
       152        C      tau( 152) = (  -0.5944194   0.2524472   0.7022200  )
       153        C      tau( 153) = (  -0.7868352   0.4448565   0.5097722  )
       154        C      tau( 154) = (  -0.9790758   0.6371830   0.3171673  )
       155        C      tau( 155) = (  -0.4578192   0.5242307   0.8381537  )
       156        C      tau( 156) = (  -0.6507799   0.7169165   0.6458575  )
       157        C      tau( 157) = (  -0.8431948   0.9092630   0.4534578  )
       158        C      tau( 158) = (  -0.3221597   0.7966344   0.9743391  )
       159        C      tau( 159) = (  -0.5142705   0.9893756   0.7817666  )
       160        C      tau( 160) = (  -0.7071471   1.1814058   0.5895099  )
       161        C      tau( 161) = (  -0.2872446   0.2126833   0.0665546  )
       162        C      tau( 162) = (  -0.4796117   0.4048994  -0.1259708  )
       163        C      tau( 163) = (  -0.6724448   0.5973051  -0.3186647  )
       164        C      tau( 164) = (  -0.1520285   0.4861393   0.2029867  )
       165        C      tau( 165) = (  -0.3462094   0.6742264  -0.0038403  )
       166        C      tau( 166) = (  -0.5359192   0.8694792  -0.1822046  )
       167        C      tau( 167) = (  -0.0138774   0.7569508   0.3401648  )
       168        C      tau( 168) = (  -0.2079014   0.9481171   0.1466377  )
       169        C      tau( 169) = (  -0.3999098   1.1415491  -0.0461250  )
       170        C      tau( 170) = (  -0.5229488   0.2122449   0.3022509  )
       171        C      tau( 171) = (  -0.7150735   0.4049886   0.1097743  )
       172        C      tau( 172) = (  -0.9075843   0.5973869  -0.0826279  )
       173        C      tau( 173) = (  -0.3869714   0.4840784   0.4387622  )
       174        C      tau( 174) = (  -0.5774087   0.6773446   0.2459592  )
       175        C      tau( 175) = (  -0.7715460   0.8695294   0.0534367  )
       176        C      tau( 176) = (  -0.2508000   0.7566973   0.5737088  )
       177        C      tau( 177) = (  -0.4434949   0.9500598   0.3835643  )
       178        C      tau( 178) = (  -0.6357100   1.1417596   0.1893841  )
       179        C      tau( 179) = (  -0.7586397   0.2126006   0.5379997  )
       180        C      tau( 180) = (  -0.9508403   0.4046037   0.3451327  )
       181        C      tau( 181) = (  -1.1434583   0.5973539   0.1530406  )
       182        C      tau( 182) = (  -0.6225486   0.4847191   0.6740588  )
       183        C      tau( 183) = (  -0.8149772   0.6770756   0.4816603  )
       184        C      tau( 184) = (  -1.0073155   0.8697428   0.2887216  )
       185        C      tau( 185) = (  -0.4862803   0.7567553   0.8099627  )
       186        C      tau( 186) = (  -0.6789179   0.9491232   0.6177347  )
       187        C      tau( 187) = (  -0.8713338   1.1415674   0.4253232  )
       188        C      tau( 188) = (  -0.1016037   0.3490857   0.0169013  )
       189        C      tau( 189) = (  -0.2932846   0.5396789  -0.1770245  )
       190        C      tau( 190) = (  -0.4862815   0.7335140  -0.3682892  )
       191        C      tau( 191) = (   0.0363723   0.6196670   0.1526324  )
       192        C      tau( 192) = (  -0.1581841   0.8122865  -0.0389097  )
       193        C      tau( 193) = (  -0.3500967   1.0054577  -0.2320293  )
       194        C      tau( 194) = (   0.1709614   0.8929879   0.2889537  )
       195        C      tau( 195) = (  -0.0216055   1.0851630   0.0964619  )
       196        C      tau( 196) = (  -0.2140128   1.2775842  -0.0959811  )
       197        C      tau( 197) = (  -0.3371187   0.3478772   0.2527095  )
       198        C      tau( 198) = (  -0.5276538   0.5414119   0.0602720  )
       199        C      tau( 199) = (  -0.7217301   0.7334296  -0.1324788  )
       200        C      tau( 200) = (  -0.2012490   0.6206109   0.3866768  )
       201        C      tau( 201) = (  -0.4011314   0.8242737   0.2011291  )
       202        C      tau( 202) = (  -0.5857082   1.0055050   0.0036097  )
       203        C      tau( 203) = (  -0.0648187   0.8928230   0.5244325  )
       204        C      tau( 204) = (  -0.2572549   1.0852012   0.3320631  )
       205        C      tau( 205) = (  -0.4497131   1.2781947   0.1395711  )
       206        C      tau( 206) = (  -0.5727866   0.3484056   0.4882492  )
       207        C      tau( 207) = (  -0.7648778   0.5410573   0.2956469  )
       208        C      tau( 208) = (  -0.9573798   0.7334315   0.1032120  )
       209        C      tau( 209) = (  -0.4365932   0.6207125   0.6239316  )
       210        C      tau( 210) = (  -0.6290504   0.8131737   0.4317414  )
       211        C      tau( 211) = (  -0.8219407   1.0057370   0.2392631  )
       212        C      tau( 212) = (  -0.3005088   0.8928151   0.7600830  )
       213        C      tau( 213) = (  -0.4929795   1.0855563   0.5682243  )
       214        C      tau( 214) = (  -0.6853901   1.2777399   0.3753584  )
       215        N      tau( 215) = (  -0.3677650   0.5740586   0.2284750  )

     number of k points=     1
                       cart. coord. in units 2pi/alat
        k(    1) = (   0.0000000   0.0000000   0.0000000), wk =   1.0000000

     Dense  grid:   338755 G-vectors     FFT dimensions: (  90,  90,  90)

     Occupations read from input 

      Spin-up

        1.0000   1.0000   1.0000   1.0000   1.0000   1.0000   1.0000   1.0000
        1.0000   1.0000   1.0000   1.0000   1.0000   1.0000   1.0000   1.0000
        1.0000   1.0000   1.0000   1.0000   1.0000   1.0000   1.0000   1.0000
        1.0000   1.0000   1.0000   1.0000   1.0000   1.0000   1.0000   1.0000
        1.0000   1.0000   1.0000   1.0000   1.0000   1.0000   1.0000   1.0000
        1.0000   1.0000   1.0000   1.0000   1.0000   1.0000   1.0000   1.0000
        1.0000   1.0000   1.0000   1.0000   1.0000   1.0000   1.0000   1.0000
        1.0000   1.0000   1.0000   1.0000   1.0000   1.0000   1.0000   1.0000
        1.0000   1.0000   1.0000   1.0000   1.0000   1.0000   1.0000   1.0000
        1.0000   1.0000   1.0000   1.0000   1.0000   1.0000   1.0000   1.0000
        1.0000   1.0000   1.0000   1.0000   1.0000   1.0000   1.0000   1.0000
        1.0000   1.0000   1.0000   1.0000   1.0000   1.0000   1.0000   1.0000
        1.0000   1.0000   1.0000   1.0000   1.0000   1.0000   1.0000   1.0000
        1.0000   1.0000   1.0000   1.0000   1.0000   1.0000   1.0000   1.0000
        1.0000   1.0000   1.0000   1.0000   1.0000   1.0000   1.0000   1.0000
        1.0000   1.0000   1.0000   1.0000   1.0000   1.0000   1.0000   1.0000
        1.0000   1.0000   1.0000   1.0000   1.0000   1.0000   1.0000   1.0000
        1.0000   1.0000   1.0000   1.0000   1.0000   1.0000   1.0000   1.0000
        1.0000   1.0000   1.0000   1.0000   1.0000   1.0000   1.0000   1.0000
        1.0000   1.0000   1.0000   1.0000   1.0000   1.0000   1.0000   1.0000
        1.0000   1.0000   1.0000   1.0000   1.0000   1.0000   1.0000   1.0000
        1.0000   1.0000   1.0000   1.0000   1.0000   1.0000   1.0000   1.0000
        1.0000   1.0000   1.0000   1.0000   1.0000   1.0000   1.0000   1.0000
        1.0000   1.0000   1.0000   1.0000   1.0000   1.0000   1.0000   1.0000
        1.0000   1.0000   1.0000   1.0000   1.0000   1.0000   1.0000   1.0000
        1.0000   1.0000   1.0000   1.0000   1.0000   1.0000   1.0000   1.0000
        1.0000   1.0000   1.0000   1.0000   1.0000   1.0000   1.0000   1.0000
        1.0000   1.0000   1.0000   1.0000   1.0000   1.0000   1.0000   1.0000
        1.0000   1.0000   1.0000   1.0000   1.0000   1.0000   1.0000   1.0000
        1.0000   1.0000   1.0000   1.0000   1.0000   1.0000   1.0000   1.0000
        1.0000   1.0000   1.0000   1.0000   1.0000   1.0000   1.0000   1.0000
        1.0000   1.0000   1.0000   1.0000   1.0000   1.0000   1.0000   1.0000
        1.0000   1.0000   1.0000   1.0000   1.0000   1.0000   1.0000   1.0000
        1.0000   1.0000   1.0000   1.0000   1.0000   1.0000   1.0000   1.0000
        1.0000   1.0000   1.0000   1.0000   1.0000   1.0000   1.0000   1.0000
        1.0000   1.0000   1.0000   1.0000   1.0000   1.0000   1.0000   1.0000
        1.0000   1.0000   1.0000   1.0000   1.0000   1.0000   1.0000   1.0000
        1.0000   1.0000   1.0000   1.0000   1.0000   1.0000   1.0000   1.0000
        1.0000   1.0000   1.0000   1.0000   1.0000   1.0000   1.0000   1.0000
        1.0000   1.0000   1.0000   1.0000   1.0000   1.0000   1.0000   1.0000
        1.0000   1.0000   1.0000   1.0000   1.0000   1.0000   1.0000   1.0000
        1.0000   1.0000   1.0000   1.0000   1.0000   1.0000   1.0000   1.0000
        1.0000   1.0000   1.0000   1.0000   1.0000   1.0000   1.0000   1.0000
        1.0000   1.0000   1.0000   1.0000   1.0000   1.0000   1.0000   1.0000
        1.0000   1.0000   1.0000   1.0000   1.0000   1.0000   1.0000   1.0000
        1.0000   1.0000   1.0000   1.0000   1.0000   1.0000   1.0000   1.0000
        1.0000   1.0000   1.0000   1.0000   1.0000   1.0000   1.0000   1.0000
        1.0000   1.0000   1.0000   1.0000   1.0000   1.0000   1.0000   1.0000
        1.0000   1.0000   1.0000   1.0000   1.0000   1.0000   1.0000   1.0000
        1.0000   1.0000   1.0000   1.0000   1.0000   1.0000   1.0000   1.0000
        1.0000   1.0000   1.0000   1.0000   1.0000   1.0000   1.0000   1.0000
        1.0000   1.0000   1.0000   1.0000   1.0000   1.0000   1.0000   1.0000
        1.0000   1.0000   1.0000   1.0000   1.0000   1.0000   1.0000   1.0000
        1.0000   1.0000   1.0000   1.0000   1.0000   1.0000   1.0000   1.0000
        0.0000   0.0000   0.0000   0.0000   0.0000   0.0000   0.0000   0.0000
        0.0000   0.0000   0.0000   0.0000   0.0000   0.0000   0.0000   0.0000
        0.0000   0.0000   0.0000   0.0000   0.0000   0.0000   0.0000   0.0000
        0.0000   0.0000   0.0000   0.0000   0.0000   0.0000   0.0000   0.0000
        0.0000   0.0000   0.0000   0.0000   0.0000   0.0000   0.0000   0.0000
        0.0000   0.0000   0.0000   0.0000   0.0000   0.0000   0.0000   0.0000
        0.0000   0.0000   0.0000   0.0000   0.0000   0.0000   0.0000   0.0000
        0.0000   0.0000   0.0000   0.0000   0.0000   0.0000   0.0000   0.0000
        0.0000   0.0000   0.0000   0.0000   0.0000   0.0000   0.0000   0.0000
        0.0000   0.0000   0.0000   0.0000   0.0000   0.0000   0.0000   0.0000
        0.0000   0.0000   0.0000   0.0000   0.0000   0.0000   0.0000   0.0000
        0.0000   0.0000   0.0000   0.0000   0.0000   0.0000   0.0000   0.0000
        0.0000   0.0000   0.0000   0.0000   0.0000   0.0000   0.0000   0.0000
        0.0000   0.0000   0.0000   0.0000   0.0000   0.0000   0.0000   0.0000
        0.0000   0.0000   0.0000   0.0000   0.0000   0.0000   0.0000   0.0000
        0.0000   0.0000   0.0000   0.0000   0.0000   0.0000   0.0000   0.0000
        0.0000   0.0000   0.0000   0.0000   0.0000   0.0000   0.0000   0.0000
        0.0000   0.0000   0.0000   0.0000   0.0000   0.0000   0.0000   0.0000
        0.0000   0.0000   0.0000   0.0000   0.0000   0.0000   0.0000   0.0000
        0.0000   0.0000   0.0000   0.0000   0.0000   0.0000   0.0000   0.0000
        0.0000   0.0000   0.0000   0.0000   0.0000   0.0000   0.0000   0.0000
        0.0000   0.0000   0.0000   0.0000   0.0000   0.0000   0.0000   0.0000
        0.0000   0.0000   0.0000   0.0000   0.0000   0.0000   0.0000   0.0000
        0.0000   0.0000   0.0000   0.0000   0.0000   0.0000   0.0000   0.0000
        0.0000   0.0000   0.0000   0.0000   0.0000   0.0000   0.0000   0.0000
        0.0000   0.0000   0.0000   0.0000   0.0000   0.0000   0.0000   0.0000
        0.0000   0.0000   0.0000   0.0000   0.0000   0.0000   0.0000   0.0000
        0.0000   0.0000   0.0000   0.0000   0.0000   0.0000   0.0000   0.0000
        0.0000   0.0000   0.0000   0.0000   0.0000   0.0000   0.0000   0.0000
        0.0000   0.0000   0.0000   0.0000   0.0000   0.0000   0.0000   0.0000
        0.0000   0.0000   0.0000   0.0000   0.0000   0.0000   0.0000   0.0000
        0.0000   0.0000   0.0000   0.0000   0.0000   0.0000   0.0000   0.0000
        0.0000   0.0000   0.0000   0.0000   0.0000   0.0000   0.0000   0.0000
        0.0000   0.0000   0.0000   0.0000   0.0000   0.0000   0.0000   0.0000
        0.0000   0.0000   0.0000   0.0000   0.0000   0.0000   0.0000   0.0000
        0.0000   0.0000   0.0000   0.0000   0.0000   0.0000   0.0000   0.0000
        0.0000   0.0000   0.0000   0.0000   0.0000   0.0000   0.0000   0.0000
        0.0000   0.0000   0.0000   0.0000   0.0000   0.0000   0.0000   0.0000
        0.0000   0.0000   0.0000   0.0000   0.0000   0.0000   0.0000   0.0000
        0.0000   0.0000   0.0000   0.0000   0.0000   0.0000   0.0000   0.0000
        0.0000   0.0000   0.0000   0.0000   0.0000   0.0000   0.0000   0.0000
        0.0000   0.0000   0.0000   0.0000   0.0000   0.0000   0.0000   0.0000
        0.0000   0.0000   0.0000   0.0000   0.0000   0.0000   0.0000   0.0000
        0.0000   0.0000   0.0000   0.0000   0.0000   0.0000   0.0000   0.0000
        0.0000   0.0000   0.0000   0.0000   0.0000   0.0000   0.0000   0.0000
        0.0000   0.0000   0.0000   0.0000   0.0000   0.0000   0.0000   0.0000
        0.0000   0.0000   0.0000   0.0000   0.0000   0.0000   0.0000   0.0000
        0.0000   0.0000   0.0000   0.0000   0.0000   0.0000   0.0000   0.0000
        0.0000   0.0000   0.0000   0.0000   0.0000   0.0000   0.0000   0.0000
        0.0000   0.0000   0.0000   0.0000   0.0000   0.0000   0.0000   0.0000
        0.0000   0.0000   0.0000   0.0000   0.0000   0.0000   0.0000   0.0000
        0.0000   0.0000   0.0000   0.0000   0.0000   0.0000   0.0000   0.0000
        0.0000   0.0000   0.0000   0.0000   0.0000   0.0000   0.0000   0.0000
        0.0000   0.0000   0.0000   0.0000   0.0000   0.0000

      Spin-down

        1.0000   1.0000   1.0000   1.0000   1.0000   1.0000   1.0000   1.0000
        1.0000   1.0000   1.0000   1.0000   1.0000   1.0000   1.0000   1.0000
        1.0000   1.0000   1.0000   1.0000   1.0000   1.0000   1.0000   1.0000
        1.0000   1.0000   1.0000   1.0000   1.0000   1.0000   1.0000   1.0000
        1.0000   1.0000   1.0000   1.0000   1.0000   1.0000   1.0000   1.0000
        1.0000   1.0000   1.0000   1.0000   1.0000   1.0000   1.0000   1.0000
        1.0000   1.0000   1.0000   1.0000   1.0000   1.0000   1.0000   1.0000
        1.0000   1.0000   1.0000   1.0000   1.0000   1.0000   1.0000   1.0000
        1.0000   1.0000   1.0000   1.0000   1.0000   1.0000   1.0000   1.0000
        1.0000   1.0000   1.0000   1.0000   1.0000   1.0000   1.0000   1.0000
        1.0000   1.0000   1.0000   1.0000   1.0000   1.0000   1.0000   1.0000
        1.0000   1.0000   1.0000   1.0000   1.0000   1.0000   1.0000   1.0000
        1.0000   1.0000   1.0000   1.0000   1.0000   1.0000   1.0000   1.0000
        1.0000   1.0000   1.0000   1.0000   1.0000   1.0000   1.0000   1.0000
        1.0000   1.0000   1.0000   1.0000   1.0000   1.0000   1.0000   1.0000
        1.0000   1.0000   1.0000   1.0000   1.0000   1.0000   1.0000   1.0000
        1.0000   1.0000   1.0000   1.0000   1.0000   1.0000   1.0000   1.0000
        1.0000   1.0000   1.0000   1.0000   1.0000   1.0000   1.0000   1.0000
        1.0000   1.0000   1.0000   1.0000   1.0000   1.0000   1.0000   1.0000
        1.0000   1.0000   1.0000   1.0000   1.0000   1.0000   1.0000   1.0000
        1.0000   1.0000   1.0000   1.0000   1.0000   1.0000   1.0000   1.0000
        1.0000   1.0000   1.0000   1.0000   1.0000   1.0000   1.0000   1.0000
        1.0000   1.0000   1.0000   1.0000   1.0000   1.0000   1.0000   1.0000
        1.0000   1.0000   1.0000   1.0000   1.0000   1.0000   1.0000   1.0000
        1.0000   1.0000   1.0000   1.0000   1.0000   1.0000   1.0000   1.0000
        1.0000   1.0000   1.0000   1.0000   1.0000   1.0000   1.0000   1.0000
        1.0000   1.0000   1.0000   1.0000   1.0000   1.0000   1.0000   1.0000
        1.0000   1.0000   1.0000   1.0000   1.0000   1.0000   1.0000   1.0000
        1.0000   1.0000   1.0000   1.0000   1.0000   1.0000   1.0000   1.0000
        1.0000   1.0000   1.0000   1.0000   1.0000   1.0000   1.0000   1.0000
        1.0000   1.0000   1.0000   1.0000   1.0000   1.0000   1.0000   1.0000
        1.0000   1.0000   1.0000   1.0000   1.0000   1.0000   1.0000   1.0000
        1.0000   1.0000   1.0000   1.0000   1.0000   1.0000   1.0000   1.0000
        1.0000   1.0000   1.0000   1.0000   1.0000   1.0000   1.0000   1.0000
        1.0000   1.0000   1.0000   1.0000   1.0000   1.0000   1.0000   1.0000
        1.0000   1.0000   1.0000   1.0000   1.0000   1.0000   1.0000   1.0000
        1.0000   1.0000   1.0000   1.0000   1.0000   1.0000   1.0000   1.0000
        1.0000   1.0000   1.0000   1.0000   1.0000   1.0000   1.0000   1.0000
        1.0000   1.0000   1.0000   1.0000   1.0000   1.0000   1.0000   1.0000
        1.0000   1.0000   1.0000   1.0000   1.0000   1.0000   1.0000   1.0000
        1.0000   1.0000   1.0000   1.0000   1.0000   1.0000   1.0000   1.0000
        1.0000   1.0000   1.0000   1.0000   1.0000   1.0000   1.0000   1.0000
        1.0000   1.0000   1.0000   1.0000   1.0000   1.0000   1.0000   1.0000
        1.0000   1.0000   1.0000   1.0000   1.0000   1.0000   1.0000   1.0000
        1.0000   1.0000   1.0000   1.0000   1.0000   1.0000   1.0000   1.0000
        1.0000   1.0000   1.0000   1.0000   1.0000   1.0000   1.0000   1.0000
        1.0000   1.0000   1.0000   1.0000   1.0000   1.0000   1.0000   1.0000
        1.0000   1.0000   1.0000   1.0000   1.0000   1.0000   1.0000   1.0000
        1.0000   1.0000   1.0000   1.0000   1.0000   1.0000   1.0000   1.0000
        1.0000   1.0000   1.0000   1.0000   1.0000   1.0000   1.0000   1.0000
        1.0000   1.0000   1.0000   1.0000   1.0000   1.0000   1.0000   1.0000
        1.0000   1.0000   1.0000   1.0000   1.0000   1.0000   1.0000   1.0000
        1.0000   1.0000   1.0000   1.0000   1.0000   1.0000   1.0000   1.0000
        1.0000   1.0000   1.0000   1.0000   1.0000   0.0000   0.5000   0.5000
        0.0000   0.0000   0.0000   0.0000   0.0000   0.0000   0.0000   0.0000
        0.0000   0.0000   0.0000   0.0000   0.0000   0.0000   0.0000   0.0000
        0.0000   0.0000   0.0000   0.0000   0.0000   0.0000   0.0000   0.0000
        0.0000   0.0000   0.0000   0.0000   0.0000   0.0000   0.0000   0.0000
        0.0000   0.0000   0.0000   0.0000   0.0000   0.0000   0.0000   0.0000
        0.0000   0.0000   0.0000   0.0000   0.0000   0.0000   0.0000   0.0000
        0.0000   0.0000   0.0000   0.0000   0.0000   0.0000   0.0000   0.0000
        0.0000   0.0000   0.0000   0.0000   0.0000   0.0000   0.0000   0.0000
        0.0000   0.0000   0.0000   0.0000   0.0000   0.0000   0.0000   0.0000
        0.0000   0.0000   0.0000   0.0000   0.0000   0.0000   0.0000   0.0000
        0.0000   0.0000   0.0000   0.0000   0.0000   0.0000   0.0000   0.0000
        0.0000   0.0000   0.0000   0.0000   0.0000   0.0000   0.0000   0.0000
        0.0000   0.0000   0.0000   0.0000   0.0000   0.0000   0.0000   0.0000
        0.0000   0.0000   0.0000   0.0000   0.0000   0.0000   0.0000   0.0000
        0.0000   0.0000   0.0000   0.0000   0.0000   0.0000   0.0000   0.0000
        0.0000   0.0000   0.0000   0.0000   0.0000   0.0000   0.0000   0.0000
        0.0000   0.0000   0.0000   0.0000   0.0000   0.0000   0.0000   0.0000
        0.0000   0.0000   0.0000   0.0000   0.0000   0.0000   0.0000   0.0000
        0.0000   0.0000   0.0000   0.0000   0.0000   0.0000   0.0000   0.0000
        0.0000   0.0000   0.0000   0.0000   0.0000   0.0000   0.0000   0.0000
        0.0000   0.0000   0.0000   0.0000   0.0000   0.0000   0.0000   0.0000
        0.0000   0.0000   0.0000   0.0000   0.0000   0.0000   0.0000   0.0000
        0.0000   0.0000   0.0000   0.0000   0.0000   0.0000   0.0000   0.0000
        0.0000   0.0000   0.0000   0.0000   0.0000   0.0000   0.0000   0.0000
        0.0000   0.0000   0.0000   0.0000   0.0000   0.0000   0.0000   0.0000
        0.0000   0.0000   0.0000   0.0000   0.0000   0.0000   0.0000   0.0000
        0.0000   0.0000   0.0000   0.0000   0.0000   0.0000   0.0000   0.0000
        0.0000   0.0000   0.0000   0.0000   0.0000   0.0000   0.0000   0.0000
        0.0000   0.0000   0.0000   0.0000   0.0000   0.0000   0.0000   0.0000
        0.0000   0.0000   0.0000   0.0000   0.0000   0.0000   0.0000   0.0000
        0.0000   0.0000   0.0000   0.0000   0.0000   0.0000   0.0000   0.0000
        0.0000   0.0000   0.0000   0.0000   0.0000   0.0000   0.0000   0.0000
        0.0000   0.0000   0.0000   0.0000   0.0000   0.0000   0.0000   0.0000
        0.0000   0.0000   0.0000   0.0000   0.0000   0.0000   0.0000   0.0000
        0.0000   0.0000   0.0000   0.0000   0.0000   0.0000   0.0000   0.0000
        0.0000   0.0000   0.0000   0.0000   0.0000   0.0000   0.0000   0.0000
        0.0000   0.0000   0.0000   0.0000   0.0000   0.0000   0.0000   0.0000
        0.0000   0.0000   0.0000   0.0000   0.0000   0.0000   0.0000   0.0000
        0.0000   0.0000   0.0000   0.0000   0.0000   0.0000   0.0000   0.0000
        0.0000   0.0000   0.0000   0.0000   0.0000   0.0000   0.0000   0.0000
        0.0000   0.0000   0.0000   0.0000   0.0000   0.0000   0.0000   0.0000
        0.0000   0.0000   0.0000   0.0000   0.0000   0.0000   0.0000   0.0000
        0.0000   0.0000   0.0000   0.0000   0.0000   0.0000   0.0000   0.0000
        0.0000   0.0000   0.0000   0.0000   0.0000   0.0000   0.0000   0.0000
        0.0000   0.0000   0.0000   0.0000   0.0000   0.0000   0.0000   0.0000
        0.0000   0.0000   0.0000   0.0000   0.0000   0.0000   0.0000   0.0000
        0.0000   0.0000   0.0000   0.0000   0.0000   0.0000   0.0000   0.0000
        0.0000   0.0000   0.0000   0.0000   0.0000   0.0000   0.0000   0.0000
        0.0000   0.0000   0.0000   0.0000   0.0000   0.0000   0.0000   0.0000
        0.0000   0.0000   0.0000   0.0000   0.0000   0.0000   0.0000   0.0000
        0.0000   0.0000   0.0000   0.0000   0.0000   0.0000   0.0000   0.0000
        0.0000   0.0000   0.0000   0.0000   0.0000   0.0000   0.0000   0.0000
        0.0000   0.0000   0.0000   0.0000   0.0000   0.0000   0.0000   0.0000
        0.0000   0.0000   0.0000   0.0000   0.0000   0.0000

     Estimated max dynamical RAM per process >     206.76 MB

     Estimated total dynamical RAM >       7.27 GB

     Check: negative core charge=   -0.000075
     Generating pointlists ...
     new r_m :   0.0570 (alat units)  1.1541 (a.u.) for type    1
     new r_m :   0.0574 (alat units)  1.1628 (a.u.) for type    2

     Initial potential from superposition of free atoms

     starting charge     860.9911, renormalised to     862.0000
     Starting wfcs are random
     Checking if some PAW data can be deallocated... 

     total cpu time spent up to now is        6.4 secs

     per-process dynamical memory:   193.2 Mb

     Self-consistent Calculation

     iteration #  1     ecut=    45.00 Ry     beta= 0.70
     Davidson diagonalization with overlap
     ethr =  1.00E-02,  avg # of iterations =  9.0

     total cpu time spent up to now is       79.7 secs

     total energy              =   -3970.07808237 Ry
     estimated scf accuracy    <      12.74501084 Ry

     total magnetization       =     2.00 Bohr mag/cell
     absolute magnetization    =     2.13 Bohr mag/cell

     iteration #  2     ecut=    45.00 Ry     beta= 0.70
     Davidson diagonalization with overlap
     ethr =  1.48E-03,  avg # of iterations =  4.0

     total cpu time spent up to now is       99.2 secs

     total energy              =   -3968.12573192 Ry
     estimated scf accuracy    <       5.06803685 Ry

     total magnetization       =     2.00 Bohr mag/cell
     absolute magnetization    =     2.37 Bohr mag/cell

     iteration #  3     ecut=    45.00 Ry     beta= 0.70
     Davidson diagonalization with overlap
     ethr =  5.88E-04,  avg # of iterations =  5.5

     total cpu time spent up to now is      128.1 secs

     total energy              =   -3969.12995161 Ry
     estimated scf accuracy    <      20.20152468 Ry

     total magnetization       =     2.00 Bohr mag/cell
     absolute magnetization    =     2.13 Bohr mag/cell

     iteration #  4     ecut=    45.00 Ry     beta= 0.70
     Davidson diagonalization with overlap
     ethr =  5.88E-04,  avg # of iterations =  6.0

     total cpu time spent up to now is      151.3 secs

     total energy              =   -3971.12085327 Ry
     estimated scf accuracy    <       1.22088633 Ry

     total magnetization       =     2.00 Bohr mag/cell
     absolute magnetization    =     2.08 Bohr mag/cell

     iteration #  5     ecut=    45.00 Ry     beta= 0.70
     Davidson diagonalization with overlap
     ethr =  1.42E-04,  avg # of iterations = 12.5

     total cpu time spent up to now is      176.2 secs

     total energy              =   -3971.22460642 Ry
     estimated scf accuracy    <       0.29135021 Ry

     total magnetization       =     2.00 Bohr mag/cell
     absolute magnetization    =     2.08 Bohr mag/cell

     iteration #  6     ecut=    45.00 Ry     beta= 0.70
     Davidson diagonalization with overlap
     ethr =  3.38E-05,  avg # of iterations = 10.0

     total cpu time spent up to now is      199.4 secs

     total energy              =   -3971.21580210 Ry
     estimated scf accuracy    <       0.10807967 Ry

     total magnetization       =     2.00 Bohr mag/cell
     absolute magnetization    =     2.11 Bohr mag/cell

     iteration #  7     ecut=    45.00 Ry     beta= 0.70
     Davidson diagonalization with overlap
     ethr =  1.25E-05,  avg # of iterations =  9.0

     total cpu time spent up to now is      222.1 secs

     total energy              =   -3971.22182391 Ry
     estimated scf accuracy    <       0.01978473 Ry

     total magnetization       =     2.00 Bohr mag/cell
     absolute magnetization    =     2.14 Bohr mag/cell

     iteration #  8     ecut=    45.00 Ry     beta= 0.70
     Davidson diagonalization with overlap
     ethr =  2.30E-06,  avg # of iterations = 17.5

     total cpu time spent up to now is      253.1 secs

     total energy              =   -3971.22525609 Ry
     estimated scf accuracy    <       0.00256978 Ry

     total magnetization       =     2.00 Bohr mag/cell
     absolute magnetization    =     2.17 Bohr mag/cell

     iteration #  9     ecut=    45.00 Ry     beta= 0.70
     Davidson diagonalization with overlap
     ethr =  2.98E-07,  avg # of iterations =  2.5

     total cpu time spent up to now is      271.7 secs

     total energy              =   -3971.22584452 Ry
     estimated scf accuracy    <       0.00040050 Ry

     total magnetization       =     2.00 Bohr mag/cell
     absolute magnetization    =     2.19 Bohr mag/cell

     iteration # 10     ecut=    45.00 Ry     beta= 0.70
     Davidson diagonalization with overlap
     ethr =  4.65E-08,  avg # of iterations =  2.0

     total cpu time spent up to now is      290.1 secs

     total energy              =   -3971.22596775 Ry
     estimated scf accuracy    <       0.00007404 Ry

     total magnetization       =     2.00 Bohr mag/cell
     absolute magnetization    =     2.20 Bohr mag/cell

     iteration # 11     ecut=    45.00 Ry     beta= 0.70
     Davidson diagonalization with overlap
     ethr =  8.59E-09,  avg # of iterations =  3.0

     total cpu time spent up to now is      309.2 secs

     total energy              =   -3971.22599157 Ry
     estimated scf accuracy    <       0.00002385 Ry

     total magnetization       =     2.00 Bohr mag/cell
     absolute magnetization    =     2.21 Bohr mag/cell

     iteration # 12     ecut=    45.00 Ry     beta= 0.70
     Davidson diagonalization with overlap
     ethr =  2.77E-09,  avg # of iterations =  2.0

     total cpu time spent up to now is      327.5 secs

     total energy              =   -3971.22599827 Ry
     estimated scf accuracy    <       0.00000369 Ry

     total magnetization       =     2.00 Bohr mag/cell
     absolute magnetization    =     2.21 Bohr mag/cell

     iteration # 13     ecut=    45.00 Ry     beta= 0.70
     Davidson diagonalization with overlap
     ethr =  4.28E-10,  avg # of iterations =  3.0

     total cpu time spent up to now is      346.6 secs

     total energy              =   -3971.22599944 Ry
     estimated scf accuracy    <       0.00000127 Ry

     total magnetization       =     2.00 Bohr mag/cell
     absolute magnetization    =     2.21 Bohr mag/cell

     iteration # 14     ecut=    45.00 Ry     beta= 0.70
     Davidson diagonalization with overlap
     ethr =  1.48E-10,  avg # of iterations =  2.5

     total cpu time spent up to now is      365.3 secs

     total energy              =   -3971.22599978 Ry
     estimated scf accuracy    <       0.00000020 Ry

     total magnetization       =     2.00 Bohr mag/cell
     absolute magnetization    =     2.21 Bohr mag/cell

     iteration # 15     ecut=    45.00 Ry     beta= 0.70
     Davidson diagonalization with overlap
     ethr =  2.37E-11,  avg # of iterations =  2.5

     total cpu time spent up to now is      384.0 secs

     total energy              =   -3971.22599985 Ry
     estimated scf accuracy    <       0.00000008 Ry

     total magnetization       =     2.00 Bohr mag/cell
     absolute magnetization    =     2.21 Bohr mag/cell

     iteration # 16     ecut=    45.00 Ry     beta= 0.70
     Davidson diagonalization with overlap
     ethr =  9.08E-12,  avg # of iterations =  2.0

     total cpu time spent up to now is      402.3 secs

     total energy              =   -3971.22599987 Ry
     estimated scf accuracy    <       0.00000001 Ry

     total magnetization       =     2.00 Bohr mag/cell
     absolute magnetization    =     2.21 Bohr mag/cell

     iteration # 17     ecut=    45.00 Ry     beta= 0.70
     Davidson diagonalization with overlap
     ethr =  1.25E-12,  avg # of iterations =  2.0
 
     Magnetic moment per site  (integrated on atomic sphere of radius R)
     atom   1 (R=0.057)  charge=  1.8294  magn=  0.0001
     atom   2 (R=0.057)  charge=  1.8300  magn= -0.0000
     atom   3 (R=0.057)  charge=  1.8306  magn= -0.0000
     atom   4 (R=0.057)  charge=  1.8300  magn= -0.0000
     atom   5 (R=0.057)  charge=  1.8278  magn= -0.0002
     atom   6 (R=0.057)  charge=  1.8292  magn= -0.0009
     atom   7 (R=0.057)  charge=  1.8306  magn= -0.0000
     atom   8 (R=0.057)  charge=  1.8292  magn= -0.0009
     atom   9 (R=0.057)  charge=  1.8277  magn= -0.0003
     atom  10 (R=0.057)  charge=  1.8356  magn=  0.0016
     atom  11 (R=0.057)  charge=  1.8307  magn= -0.0001
     atom  12 (R=0.057)  charge=  1.8307  magn= -0.0002
     atom  13 (R=0.057)  charge=  1.8307  magn= -0.0001
     atom  14 (R=0.057)  charge=  1.7973  magn=  0.0003
     atom  15 (R=0.057)  charge=  1.8361  magn= -0.0034
     atom  16 (R=0.057)  charge=  1.8307  magn= -0.0002
     atom  17 (R=0.057)  charge=  1.8361  magn= -0.0034
     atom  18 (R=0.057)  charge=  1.8305  magn=  0.0004
     atom  19 (R=0.057)  charge=  1.8293  magn=  0.0001
     atom  20 (R=0.057)  charge=  1.8309  magn=  0.0000
     atom  21 (R=0.057)  charge=  1.8305  magn= -0.0001
     atom  22 (R=0.057)  charge=  1.8309  magn=  0.0000
     atom  23 (R=0.057)  charge=  1.8317  magn= -0.0002
     atom  24 (R=0.057)  charge=  1.8254  magn= -0.0002
     atom  25 (R=0.057)  charge=  1.8305  magn= -0.0001
     atom  26 (R=0.057)  charge=  1.8254  magn= -0.0002
     atom  27 (R=0.057)  charge=  1.8304  magn= -0.0009
     atom  28 (R=0.057)  charge=  1.8305  magn= -0.0001
     atom  29 (R=0.057)  charge=  1.8252  magn= -0.0002
     atom  30 (R=0.057)  charge=  1.8303  magn= -0.0009
     atom  31 (R=0.057)  charge=  1.8308  magn= -0.0002
     atom  32 (R=0.057)  charge=  1.8357  magn= -0.0034
     atom  33 (R=0.057)  charge=  1.8305  magn=  0.0004
     atom  34 (R=0.057)  charge=  1.8306  magn= -0.0000
     atom  35 (R=0.057)  charge=  1.8294  magn= -0.0009
     atom  36 (R=0.057)  charge=  1.8277  magn= -0.0003
     atom  37 (R=0.057)  charge=  1.8310  magn=  0.0000
     atom  38 (R=0.057)  charge=  1.8316  magn= -0.0002
     atom  39 (R=0.057)  charge=  1.8253  magn= -0.0002
     atom  40 (R=0.057)  charge=  1.8306  magn= -0.0001
     atom  41 (R=0.057)  charge=  1.7975  magn=  0.0003
     atom  42 (R=0.057)  charge=  1.8359  magn= -0.0034
     atom  43 (R=0.057)  charge=  1.8299  magn= -0.0000
     atom  44 (R=0.057)  charge=  1.8280  magn= -0.0002
     atom  45 (R=0.057)  charge=  1.8296  magn= -0.0009
     atom  46 (R=0.057)  charge=  1.8293  magn=  0.0001
     atom  47 (R=0.057)  charge=  1.8311  magn=  0.0000
     atom  48 (R=0.057)  charge=  1.8303  magn= -0.0001
     atom  49 (R=0.057)  charge=  1.8355  magn=  0.0016
     atom  50 (R=0.057)  charge=  1.8308  magn= -0.0001
     atom  51 (R=0.057)  charge=  1.8307  magn= -0.0002
     atom  52 (R=0.057)  charge=  1.8293  magn=  0.0001
     atom  53 (R=0.057)  charge=  1.8297  magn= -0.0000
     atom  54 (R=0.057)  charge=  1.8308  magn= -0.0000
     atom  55 (R=0.057)  charge=  1.8305  magn= -0.0001
     atom  56 (R=0.057)  charge=  1.8308  magn= -0.0002
     atom  57 (R=0.057)  charge=  1.8306  magn= -0.0000
     atom  58 (R=0.057)  charge=  1.8252  magn= -0.0002
     atom  59 (R=0.057)  charge=  1.8357  magn= -0.0034
     atom  60 (R=0.057)  charge=  1.8294  magn= -0.0009
     atom  61 (R=0.057)  charge=  1.8303  magn= -0.0009
     atom  62 (R=0.057)  charge=  1.8305  magn=  0.0004
     atom  63 (R=0.057)  charge=  1.8277  magn= -0.0003
     atom  64 (R=0.057)  charge=  1.8310  magn=  0.0000
     atom  65 (R=0.057)  charge=  1.8306  magn= -0.0001
     atom  66 (R=0.057)  charge=  1.8299  magn= -0.0000
     atom  67 (R=0.057)  charge=  1.8316  magn= -0.0002
     atom  68 (R=0.057)  charge=  1.7975  magn=  0.0003
     atom  69 (R=0.057)  charge=  1.8280  magn= -0.0002
     atom  70 (R=0.057)  charge=  1.8254  magn= -0.0002
     atom  71 (R=0.057)  charge=  1.8359  magn= -0.0034
     atom  72 (R=0.057)  charge=  1.8296  magn= -0.0009
     atom  73 (R=0.057)  charge=  1.8293  magn=  0.0001
     atom  74 (R=0.057)  charge=  1.8355  magn=  0.0016
     atom  75 (R=0.057)  charge=  1.8293  magn=  0.0001
     atom  76 (R=0.057)  charge=  1.8311  magn=  0.0000
     atom  77 (R=0.057)  charge=  1.8308  magn= -0.0001
     atom  78 (R=0.057)  charge=  1.8297  magn= -0.0000
     atom  79 (R=0.057)  charge=  1.8303  magn= -0.0001
     atom  80 (R=0.057)  charge=  1.8307  magn= -0.0002
     atom  81 (R=0.057)  charge=  1.8308  magn= -0.0000
     atom  82 (R=0.057)  charge=  1.8300  magn=  0.0000
     atom  83 (R=0.057)  charge=  1.8372  magn=  0.0021
     atom  84 (R=0.057)  charge=  1.8297  magn=  0.0000
     atom  85 (R=0.057)  charge=  1.8372  magn=  0.0021
     atom  86 (R=0.057)  charge=  1.8320  magn= -0.0008
     atom  87 (R=0.057)  charge=  1.8344  magn=  0.0037
     atom  88 (R=0.057)  charge=  1.8297  magn=  0.0000
     atom  89 (R=0.057)  charge=  1.8344  magn=  0.0037
     atom  90 (R=0.057)  charge=  1.8300  magn=  0.0004
     atom  91 (R=0.057)  charge=  1.8322  magn=  0.0010
     atom  92 (R=0.057)  charge=  1.8339  magn= -0.0006
     atom  93 (R=0.057)  charge=  1.8372  magn=  0.0021
     atom  94 (R=0.057)  charge=  1.8339  magn= -0.0006
     atom  95 (R=0.057)  charge=  1.8320  magn= -0.0008
     atom  96 (R=0.057)  charge=  1.8372  magn=  0.0021
     atom  97 (R=0.057)  charge=  1.8320  magn= -0.0008
     atom  98 (R=0.057)  charge=  1.8344  magn=  0.0037
     atom  99 (R=0.057)  charge=  1.8307  magn=  0.0001
     atom 100 (R=0.057)  charge=  1.8322  magn=  0.0010
     atom 101 (R=0.057)  charge=  1.8297  magn=  0.0000
     atom 102 (R=0.057)  charge=  1.8322  magn=  0.0010
     atom 103 (R=0.057)  charge=  1.8336  magn= -0.0006
     atom 104 (R=0.057)  charge=  1.8370  magn=  0.0021
     atom 105 (R=0.057)  charge=  1.8297  magn=  0.0000
     atom 106 (R=0.057)  charge=  1.8370  magn=  0.0021
     atom 107 (R=0.057)  charge=  1.8297  magn=  0.0000
     atom 108 (R=0.057)  charge=  1.8296  magn=  0.0002
     atom 109 (R=0.057)  charge=  1.8264  magn=  0.0001
     atom 110 (R=0.057)  charge=  1.8302  magn=  0.0012
     atom 111 (R=0.057)  charge=  1.8264  magn=  0.0001
     atom 112 (R=0.057)  charge=  1.8239  magn=  0.0055
     atom 113 (R=0.057)  charge=  1.8255  magn=  0.0157
     atom 114 (R=0.057)  charge=  1.8302  magn=  0.0012
     atom 115 (R=0.057)  charge=  1.8255  magn=  0.0157
     atom 116 (R=0.057)  charge=  1.8276  magn=  0.0008
     atom 117 (R=0.057)  charge=  1.8295  magn=  0.0009
     atom 118 (R=0.057)  charge=  1.8294  magn=  0.0010
     atom 119 (R=0.057)  charge=  1.8264  magn=  0.0001
     atom 120 (R=0.057)  charge=  1.8294  magn=  0.0010
     atom 121 (R=0.057)  charge=  1.8241  magn=  0.0055
     atom 122 (R=0.057)  charge=  1.8264  magn=  0.0001
     atom 123 (R=0.057)  charge=  1.8241  magn=  0.0055
     atom 124 (R=0.057)  charge=  1.8255  magn=  0.0157
     atom 125 (R=0.057)  charge=  1.8289  magn=  0.0006
     atom 126 (R=0.057)  charge=  1.8295  magn=  0.0009
     atom 127 (R=0.057)  charge=  1.8296  magn=  0.0002
     atom 128 (R=0.057)  charge=  1.8295  magn=  0.0009
     atom 129 (R=0.057)  charge=  1.8294  magn=  0.0010
     atom 130 (R=0.057)  charge=  1.8264  magn=  0.0001
     atom 131 (R=0.057)  charge=  1.8296  magn=  0.0002
     atom 132 (R=0.057)  charge=  1.8264  magn=  0.0001
     atom 133 (R=0.057)  charge=  1.8302  magn=  0.0012
     atom 134 (R=0.057)  charge=  1.8287  magn=  0.0001
     atom 135 (R=0.057)  charge=  1.8237  magn=  0.0040
     atom 136 (R=0.057)  charge=  1.8285  magn=  0.0158
     atom 137 (R=0.057)  charge=  1.8291  magn=  0.0012
     atom 138 (R=0.057)  charge=  1.8561  magn=  0.1919
     atom 139 (R=0.057)  charge=  1.8257  magn=  0.0049
     atom 140 (R=0.057)  charge=  1.8319  magn=  0.0014
     atom 141 (R=0.057)  charge=  1.8290  magn=  0.0010
     atom 142 (R=0.057)  charge=  1.8276  magn=  0.0002
     atom 143 (R=0.057)  charge=  1.8304  magn=  0.0010
     atom 144 (R=0.057)  charge=  1.8311  magn=  0.0070
     atom 145 (R=0.057)  charge=  1.8287  magn=  0.0002
     atom 146 (R=0.057)  charge=  1.8287  magn=  0.0001
     atom 147 (R=0.057)  charge=  1.8237  magn=  0.0040
     atom 148 (R=0.057)  charge=  1.8285  magn=  0.0158
     atom 149 (R=0.057)  charge=  1.8291  magn=  0.0003
     atom 150 (R=0.057)  charge=  1.8278  magn=  0.0001
     atom 151 (R=0.057)  charge=  1.8298  magn=  0.0011
     atom 152 (R=0.057)  charge=  1.8291  magn=  0.0003
     atom 153 (R=0.057)  charge=  1.8279  magn=  0.0001
     atom 154 (R=0.057)  charge=  1.8298  magn=  0.0011
     atom 155 (R=0.057)  charge=  1.8319  magn=  0.0014
     atom 156 (R=0.057)  charge=  1.8290  magn=  0.0010
     atom 157 (R=0.057)  charge=  1.8276  magn=  0.0002
     atom 158 (R=0.057)  charge=  1.8290  magn=  0.0005
     atom 159 (R=0.057)  charge=  1.8294  magn=  0.0016
     atom 160 (R=0.057)  charge=  1.8297  magn=  0.0003
     atom 161 (R=0.057)  charge=  1.8287  magn=  0.0001
     atom 162 (R=0.057)  charge=  1.8291  magn=  0.0012
     atom 163 (R=0.057)  charge=  1.8319  magn=  0.0014
     atom 164 (R=0.057)  charge=  1.8237  magn=  0.0040
     atom 165 (R=0.057)  charge=  1.8561  magn=  0.1919
     atom 166 (R=0.057)  charge=  1.8290  magn=  0.0010
     atom 167 (R=0.057)  charge=  1.8285  magn=  0.0158
     atom 168 (R=0.057)  charge=  1.8257  magn=  0.0049
     atom 169 (R=0.057)  charge=  1.8276  magn=  0.0002
     atom 170 (R=0.057)  charge=  1.8304  magn=  0.0010
     atom 171 (R=0.057)  charge=  1.8287  magn=  0.0001
     atom 172 (R=0.057)  charge=  1.8291  magn=  0.0003
     atom 173 (R=0.057)  charge=  1.8311  magn=  0.0070
     atom 174 (R=0.057)  charge=  1.8237  magn=  0.0040
     atom 175 (R=0.057)  charge=  1.8278  magn=  0.0001
     atom 176 (R=0.057)  charge=  1.8287  magn=  0.0002
     atom 177 (R=0.057)  charge=  1.8285  magn=  0.0158
     atom 178 (R=0.057)  charge=  1.8298  magn=  0.0011
     atom 179 (R=0.057)  charge=  1.8291  magn=  0.0003
     atom 180 (R=0.057)  charge=  1.8319  magn=  0.0014
     atom 181 (R=0.057)  charge=  1.8290  magn=  0.0005
     atom 182 (R=0.057)  charge=  1.8279  magn=  0.0001
     atom 183 (R=0.057)  charge=  1.8290  magn=  0.0010
     atom 184 (R=0.057)  charge=  1.8294  magn=  0.0016
     atom 185 (R=0.057)  charge=  1.8298  magn=  0.0011
     atom 186 (R=0.057)  charge=  1.8276  magn=  0.0002
     atom 187 (R=0.057)  charge=  1.8297  magn=  0.0003
     atom 188 (R=0.057)  charge=  1.8284  magn=  0.0002
     atom 189 (R=0.057)  charge=  1.8285  magn=  0.0158
     atom 190 (R=0.057)  charge=  1.8298  magn=  0.0011
     atom 191 (R=0.057)  charge=  1.8285  magn=  0.0158
     atom 192 (R=0.057)  charge=  1.8257  magn=  0.0049
     atom 193 (R=0.057)  charge=  1.8276  magn=  0.0002
     atom 194 (R=0.057)  charge=  1.8298  magn=  0.0011
     atom 195 (R=0.057)  charge=  1.8276  magn=  0.0002
     atom 196 (R=0.057)  charge=  1.8297  magn=  0.0003
     atom 197 (R=0.057)  charge=  1.8312  magn=  0.0070
     atom 198 (R=0.057)  charge=  1.8237  magn=  0.0040
     atom 199 (R=0.057)  charge=  1.8279  magn=  0.0001
     atom 200 (R=0.057)  charge=  1.8237  magn=  0.0040
     atom 201 (R=0.057)  charge=  1.8561  magn=  0.1919
     atom 202 (R=0.057)  charge=  1.8290  magn=  0.0010
     atom 203 (R=0.057)  charge=  1.8279  magn=  0.0001
     atom 204 (R=0.057)  charge=  1.8290  magn=  0.0010
     atom 205 (R=0.057)  charge=  1.8294  magn=  0.0016
     atom 206 (R=0.057)  charge=  1.8304  magn=  0.0010
     atom 207 (R=0.057)  charge=  1.8287  magn=  0.0001
     atom 208 (R=0.057)  charge=  1.8291  magn=  0.0003
     atom 209 (R=0.057)  charge=  1.8287  magn=  0.0001
     atom 210 (R=0.057)  charge=  1.8291  magn=  0.0012
     atom 211 (R=0.057)  charge=  1.8318  magn=  0.0014
     atom 212 (R=0.057)  charge=  1.8291  magn=  0.0003
     atom 213 (R=0.057)  charge=  1.8318  magn=  0.0014
     atom 214 (R=0.057)  charge=  1.8290  magn=  0.0005
     atom 215 (R=0.057)  charge=  2.9187  magn=  0.1203

     total cpu time spent up to now is      420.7 secs

     End of self-consistent calculation

 ------ SPIN UP ------------


          k = 0.0000 0.0000 0.0000 ( 42379 PWs)   bands (ev):

    -8.3078  -7.5569  -7.2910  -7.2910  -7.2390  -7.2390  -7.1604  -6.6908
    -6.2961  -6.2961  -6.2801  -6.2801  -6.2658  -6.2344  -6.2331  -6.2331
    -6.1802  -6.1802  -6.0125  -5.5463  -5.2638  -5.2605  -5.2605  -5.2318
    -5.2318  -5.2307  -5.0681  -4.4953  -4.2756  -4.2756  -4.2513  -4.2513
    -4.1956  -3.9090  -3.4004  -3.4004  -3.3820  -3.3820  -3.3781  -3.3635
    -3.3635  -3.3624  -3.3573  -3.3496  -3.3496  -3.3324  -3.3263  -3.3262
    -3.2992  -3.2992  -3.2949  -3.2914  -3.2913  -3.2733  -3.1996  -3.1996
    -3.0322  -2.8492  -2.6338  -2.6338  -2.5911  -2.5825  -2.5825  -2.5755
    -2.5669  -2.5669  -2.5660  -2.5475  -2.5474  -2.5281  -2.5281  -2.5224
    -2.5070  -2.5070  -2.4864  -2.4600  -2.4600  -2.4103  -2.3090  -2.3089
    -1.6517  -1.0799  -0.9164  -0.9164  -0.8764  -0.8764  -0.8617  -0.8575
    -0.8533  -0.8533  -0.7985  -0.7985  -0.4552   0.3304   0.3920   0.3920
     0.4102   0.4102   0.4500   0.6570   0.8245   0.8246   0.8908   0.8919
     0.8919   0.8962   0.8962   0.9085   0.9085   0.9108   0.9148   0.9456
     0.9456   0.9685   0.9798   1.0176   1.0176   1.0315   1.0362   1.0362
     1.0596   1.0597   1.0828   1.1043   1.1055   1.1055   1.1331   1.1331
     1.1331   1.1333   1.1401   1.1402   1.1406   1.1743   1.1743   1.1949
     1.1949   1.1968   1.2053   1.2053   1.2072   1.2073   1.2186   1.4329
     1.5667   1.5668   1.9412   2.1882   2.1882   2.1911   2.2320   2.2392
     2.2392   2.2495   2.2776   2.2776   2.4142   2.4143   3.3660   3.6959
     3.6959   3.7232   3.7804   3.7914   3.7940   3.7940   3.7955   3.7955
     3.8073   3.8137   3.8256   3.8262   3.8263   3.8426   3.8426   3.9588
     3.9588   3.9655   4.0139   4.3375   4.3375   4.3753   4.4347   4.4484
     4.4484   4.4509   4.4557   4.4557   4.4652   4.4652   4.4766   4.4870
     4.4870   4.4883   4.4915   4.4915   4.5021   4.5111   4.5111   4.5239
     4.7418   4.7418   5.2142   5.2143   5.2513   5.3123   5.3123   5.3133
     5.3152   5.3174   5.3174   5.3306   5.3345   5.3345   5.3577   5.3577
     5.4010   5.4078   5.4078   5.4273   5.4358   5.4679   5.4679   5.5151
     5.5399   5.5399   5.6111   5.7277   5.7277   5.8157   5.8354   5.8354
     5.8426   5.8568   5.8568   5.8573   5.8622   5.8622   5.8624   5.8780
     5.8780   5.8790   5.9017   5.9124   5.9124   5.9129   5.9370   5.9370
     5.9488   5.9769   5.9769   6.0110   6.0111   6.3061   6.3520   6.3520
     6.8412   6.8412   6.8982   6.9090   6.9364   6.9364   7.0618   7.3517
     7.3518   7.4451   7.4504   7.4504   7.4681   7.4724   7.4724   7.5073
     7.5560   7.5561   7.6956   7.6956   7.8151   7.8530   7.8618   7.8659
     7.8659   7.8707   7.8707   7.8974   7.9243   7.9243   7.9353   8.0420
     8.0420   8.0890   8.1085   8.1125   8.1125   8.1338   8.1342   8.1343
     8.1364   8.1381   8.1382   8.1505   8.1506   8.1577   8.1809   8.1809
     8.1883   8.2030   8.2030   8.2036   8.2036   8.2207   8.2661   8.2662
     8.2932   8.3094   8.3187   8.3187   8.3205   8.3278   8.3312   8.3312
     8.3364   8.3364   8.3405   8.3505   8.3505   8.3509   8.3536   8.3536
     8.3614   8.3627   8.3645   8.3645   8.3774   8.3774   8.3838   8.3850
     8.3904   8.3904   8.4013   8.4013   8.4294   8.4294   8.4498   8.4518
     8.4518   8.4809   8.4813   8.4813   8.5087   8.5347   8.5498   8.5520
     8.5520   8.6698   8.6698   8.9122   8.9207   8.9208   9.0821   9.0821
     9.1445   9.1574   9.1574   9.1616   9.1948   9.1955   9.1955   9.2061
     9.2064   9.2064   9.2145   9.2282   9.2282   9.2329   9.2329   9.2570
     9.3350   9.3350   9.3626   9.9247  10.1341  10.1342  10.4781  10.5045
    10.5046  10.5697  10.5720  10.5721  10.5953  10.6029  10.6030  10.6110
    10.6670  10.6670  10.6865  10.7624  10.7624  10.8286  10.8316  10.8316
    10.8336  10.8337  10.8360  10.8360  10.8433  10.8785  10.8785  10.8933
    10.8965  10.8966  10.9039  10.9419  10.9419  11.4249  11.5224  11.5225
    11.7238  11.7350  11.7350  11.7479  11.7770  11.7815  11.7815  11.7982
    11.8611  11.8611  12.9654  13.0107  13.0108  13.8751  15.2350  15.2351
    17.2962  17.2962  17.3020  17.3593  17.3593  17.3697  17.8334  17.9473
    17.9473  17.9535  17.9536  18.0174  18.0776  18.0776  18.1327  18.1969
    18.1972  18.1972  18.8100  18.8101  18.8274  19.3327  19.4687  19.4687
    19.4853  19.5115  19.5116  19.5299  19.5412  19.5412  19.5481  19.5481
    19.5909  19.9361  20.1763  20.1764  20.2131  20.2162  20.2162  20.2268
    20.2269  20.2279  20.2279  20.2287  20.2461  20.2461  20.2483  20.2594
    20.2873  20.2874  20.2911  20.3233  20.3233  20.3565  20.3713  20.3724
    20.3724  20.5865  20.6476  20.6477  20.7059  20.7169  20.7174  20.7174
    20.7270  20.7270  20.7431  20.7503  20.7527  20.7527  20.7783  20.7783
    20.8072  20.8072  20.8158  20.8211  20.8268  20.8268  20.8401  20.8457
    20.8457  20.8559  20.8559  20.8643  20.8664  20.8664  20.8834  20.8834
    20.8975  20.9139  20.9140  20.9502  20.9576  21.0061  21.0147  21.0147
    21.0782  21.0783  21.0860  21.1723  21.2807  21.2807  21.3135  21.3236
    21.3236  21.3370  21.3370  21.3375  21.3491  21.3491  21.3532  21.3576
    21.3752  21.3752  21.3967  21.3968  21.4016  21.4073  21.4073  21.4108
    21.4125  21.4125  21.4252  21.4252  21.4327  21.4459  21.4538  21.4538
    21.4711  21.4711  21.5036  21.5037  21.5100  21.5174  21.5938  21.6215
    21.6215  21.6295  21.6522  21.6522  21.6603  21.6630  21.6864  21.6864
    21.7039  21.7039  21.7208  21.7497  21.7497  21.7700  21.8001  21.8261
    21.8262  21.9302  21.9302  21.9722  22.0167  22.0167  22.1081  22.1081
    22.1357  22.1827  22.1873  22.1873  22.1975  22.2051  22.2051  22.3405
    22.3542  22.3542  22.4009  22.4545  22.4546  22.4855  22.4859  22.4860
    22.6318  22.6879  22.6879  22.8095  22.9408  22.9408  22.9809  23.1005
    23.1006  23.1070  23.1214  23.1214  23.1305  23.1305  23.1389  23.1389
    23.1421  23.1489  23.1697  23.1806  23.2012  23.2012  23.2129  23.2783
    23.3050  23.3051  23.3586  23.3587  23.4113  23.4580  23.4580  23.7660
    23.7660  23.7788  23.7866  23.7964  23.8054  23.8055  23.8132  23.8253
    23.8253  23.8446  23.8446  23.8557  23.8557  23.8616  23.8961  23.8964
    23.9669  23.9669  23.9871  24.1032  24.1032  24.1876  24.1876  24.2242
    24.2242  24.2243  24.2540  24.2709  24.2709  24.2736  24.2858  24.2858
    24.2976  24.3163  24.3163  24.3490  24.3755  24.3755  24.3984  24.3984
    24.3990  24.4022  24.4022  24.4058  24.4672  24.4707  24.4720  24.4720
    24.4863  24.4863  24.4869  24.5054  24.5092  24.5092  24.5217  24.5217
    24.5405  24.5574  24.5604  24.5604  24.6803  24.6803  24.7397  24.7960
    24.7960  24.9177  24.9178  25.5165  25.5284  25.5285  25.6087  25.7313
    25.8006  25.8006  25.8062  25.8062  25.9946  25.9946  26.0012  26.0202
    26.0340  26.0340  26.1043  26.1310  26.1531  26.1532  26.2279  26.2816
    26.2816  26.4269  26.5605  26.5605  26.5677  26.6238  26.6425  26.6425
    26.6479  26.6705  26.6705  26.6915  26.6960  26.6960  26.7469  26.7484
    26.7485  26.7809  26.7810  26.7873  26.8193  26.8456  26.8456  26.9465
    26.9465  27.0357  27.0357  27.0736  27.0912  27.0998  27.0998  27.1188
    27.1218  27.1218  27.1235  27.1327  27.1327  27.1560  27.1560  27.1767
    27.1937  27.2142  27.2142  27.2415  27.2415  27.2486  27.2625  27.2625
    27.2648  27.2800  27.2846  27.2846  27.2925  27.3057  27.3057  27.3084
    27.3084  27.3165  27.3236  27.3304  27.3380  27.3381  27.3601  27.3602
    27.3695  27.3696  27.3836  27.3837  27.3956  27.3956  27.4013  27.4146
    27.4281  27.4282  27.4682  27.4873  27.4873  27.4958  27.4958  27.5149
    27.5149  27.5193  27.5453  27.5453  27.5496  27.5594  27.5829  27.5890
    27.5890  27.5921  27.5921  27.5941  27.6022  27.6023  27.6098  27.6432
    27.6433  27.7205  27.7205  27.7325  27.7782  27.8838  27.8880  27.8880
    27.9194  27.9374  27.9374  27.9913  28.0532  28.0532  28.0974  28.0974
    28.1169  28.1564  28.1564  28.2706  28.3228  28.3353  28.3354  28.3436
    28.3732  28.3732  28.6004  28.7022  28.7024  28.8506  29.7118  29.8037
    29.8037  29.8315  29.9371  29.9371  30.0115  30.0585

 ------ SPIN DOWN ----------


          k = 0.0000 0.0000 0.0000 ( 42379 PWs)   bands (ev):

    -8.2983  -7.5216  -7.2881  -7.2881  -7.2328  -7.2328  -7.1476  -6.6621
    -6.2932  -6.2932  -6.2775  -6.2775  -6.2621  -6.2298  -6.2270  -6.2270
    -6.1660  -6.1660  -5.9902  -5.5281  -5.2587  -5.2533  -5.2533  -5.2234
    -5.2188  -5.2188  -5.0455  -4.4701  -4.2696  -4.2696  -4.2428  -4.2428
    -4.1882  -3.8825  -3.3936  -3.3936  -3.3792  -3.3792  -3.3766  -3.3600
    -3.3597  -3.3597  -3.3548  -3.3467  -3.3467  -3.3308  -3.3224  -3.3224
    -3.2858  -3.2858  -3.2852  -3.2818  -3.2818  -3.2686  -3.1800  -3.1800
    -3.0205  -2.8399  -2.6292  -2.6292  -2.5876  -2.5779  -2.5779  -2.5675
    -2.5643  -2.5632  -2.5632  -2.5399  -2.5399  -2.5221  -2.5221  -2.5134
    -2.5026  -2.5026  -2.4762  -2.4490  -2.4490  -2.3987  -2.2562  -2.2562
    -1.5979  -1.0659  -0.9107  -0.9107  -0.8665  -0.8665  -0.8566  -0.8523
    -0.8471  -0.8471  -0.7725  -0.7725  -0.4008   0.3464   0.3964   0.3964
     0.4172   0.4172   0.4554   0.6819   0.8330   0.8331   0.8911   0.8944
     0.8944   0.8983   0.8984   0.9136   0.9142   0.9142   0.9169   0.9488
     0.9488   0.9761   0.9900   1.0268   1.0268   1.0368   1.0474   1.0474
     1.0730   1.0731   1.0871   1.1103   1.1103   1.1147   1.1354   1.1375
     1.1388   1.1388   1.1445   1.1445   1.1501   1.1778   1.1778   1.2007
     1.2007   1.2025   1.2105   1.2106   1.2273   1.2273   1.2468   1.4532
     1.6077   1.6078   1.9603   2.1960   2.1960   2.2111   2.2402   2.2432
     2.2432   2.2531   2.2838   2.2838   2.4656   2.4657   3.4308   3.7076
     3.7076   3.7366   3.7878   3.7965   3.7965   3.7967   3.8005   3.8005
     3.8165   3.8167   3.8305   3.8309   3.8309   3.8515   3.8515   3.9731
     3.9731   3.9782   4.0314   4.3486   4.3487   4.3992   4.4381   4.4519
     4.4522   4.4522   4.4607   4.4607   4.4708   4.4708   4.4796   4.4921
     4.4921   4.4994   4.4994   4.5049   4.5153   4.5207   4.5207   4.5322
     4.7909   4.7910   5.2269   5.2269   5.2674   5.3143   5.3143   5.3171
     5.3180   5.3202   5.3202   5.3325   5.3384   5.3384   5.3615   5.3615
     5.4100   5.4147   5.4147   5.4376   5.4414   5.4798   5.4798   5.5255
     5.5490   5.5490   5.6438   5.7372   5.7372   5.8291   5.8382   5.8382
     5.8469   5.8610   5.8610   5.8673   5.8674   5.8693   5.8693   5.8836
     5.8836   5.8863   5.9135   5.9160   5.9239   5.9240   5.9465   5.9465
     5.9668   5.9911   5.9911   6.0237   6.0238   6.3387   6.3899   6.3899
     6.8507   6.8507   6.9057   6.9260   6.9518   6.9518   7.1292   7.3685
     7.3685   7.4536   7.4536   7.4571   7.4723   7.4788   7.4788   7.5255
     7.5694   7.5694   7.7064   7.7064   7.8367   7.8583   7.8713   7.8713
     7.8807   7.8808   7.8819   7.9049   7.9334   7.9334   7.9513   8.0530
     8.0530   8.0934   8.1114   8.1152   8.1152   8.1365   8.1369   8.1369
     8.1393   8.1417   8.1417   8.1530   8.1530   8.1638   8.1874   8.1874
     8.1933   8.2075   8.2075   8.2157   8.2157   8.2276   8.2720   8.2720
     8.3012   8.3215   8.3215   8.3222   8.3250   8.3302   8.3350   8.3350
     8.3390   8.3390   8.3453   8.3551   8.3552   8.3552   8.3592   8.3592
     8.3650   8.3675   8.3678   8.3678   8.3834   8.3834   8.3888   8.3985
     8.3985   8.4042   8.4154   8.4154   8.4363   8.4363   8.4562   8.4572
     8.4572   8.4932   8.4932   8.4951   8.5398   8.5438   8.5540   8.5731
     8.5731   8.7011   8.7012   8.9307   8.9367   8.9368   9.0890   9.0890
     9.1477   9.1607   9.1607   9.1635   9.2000   9.2003   9.2003   9.2189
     9.2212   9.2212   9.2216   9.2359   9.2359   9.2480   9.2480   9.2610
     9.3649   9.3649   9.3907  10.0048  10.1897  10.1898  10.5198  10.5199
    10.5741  10.5752  10.5752  10.5929  10.5978  10.6144  10.6144  10.6424
    10.6718  10.6718  10.6956  10.7676  10.7676  10.8372  10.8372  10.8377
    10.8402  10.8403  10.8475  10.8475  10.8476  10.8885  10.8885  10.9079
    10.9079  10.9094  10.9173  10.9521  10.9521  11.4954  11.5460  11.5460
    11.7430  11.7430  11.7502  11.7802  11.7881  11.7881  11.8084  11.8780
    11.8780  12.0077  13.0397  13.0398  13.0634  14.6297  16.1818  16.1819
    17.3003  17.3003  17.3172  17.3704  17.3704  17.3808  17.8444  17.9543
    17.9544  17.9597  17.9597  18.0270  18.0830  18.0831  18.1642  18.2072
    18.2135  18.2135  18.8268  18.8269  18.8404  19.3517  19.4722  19.4722
    19.4877  19.5206  19.5206  19.5355  19.5458  19.5458  19.5535  19.5536
    19.5990  19.9516  20.1804  20.1805  20.2157  20.2190  20.2190  20.2299
    20.2299  20.2312  20.2356  20.2356  20.2535  20.2540  20.2541  20.2647
    20.2955  20.2955  20.2964  20.3291  20.3291  20.3653  20.3809  20.3809
    20.3810  20.5979  20.6583  20.6584  20.7079  20.7184  20.7202  20.7202
    20.7300  20.7300  20.7454  20.7537  20.7554  20.7555  20.7828  20.7828
    20.8116  20.8116  20.8193  20.8310  20.8310  20.8342  20.8438  20.8584
    20.8584  20.8617  20.8618  20.8683  20.8760  20.8761  20.8922  20.8922
    20.9024  20.9218  20.9218  20.9572  20.9655  21.0171  21.0205  21.0205
    21.0859  21.0859  21.0933  21.1814  21.2881  21.2881  21.3165  21.3284
    21.3284  21.3406  21.3406  21.3420  21.3538  21.3538  21.3558  21.3721
    21.3793  21.3793  21.4032  21.4033  21.4042  21.4130  21.4130  21.4181
    21.4197  21.4197  21.4335  21.4336  21.4380  21.4599  21.4658  21.4658
    21.4849  21.4849  21.5210  21.5210  21.5294  21.5341  21.5997  21.6324
    21.6324  21.6328  21.6570  21.6570  21.6653  21.6772  21.6933  21.6933
    21.7116  21.7117  21.7323  21.7560  21.7560  21.7749  21.8213  21.8452
    21.8452  21.9518  21.9518  21.9781  22.0314  22.0314  22.1116  22.1116
    22.1378  22.1901  22.2019  22.2019  22.2053  22.2124  22.2124  22.3480
    22.3644  22.3644  22.4249  22.4631  22.4632  22.4902  22.4902  22.4931
    22.6523  22.7211  22.7211  22.8726  22.9569  22.9569  22.9979  23.1068
    23.1068  23.1090  23.1248  23.1248  23.1351  23.1351  23.1423  23.1423
    23.1463  23.1546  23.1743  23.1941  23.2152  23.2152  23.2317  23.3203
    23.3392  23.3392  23.3775  23.3775  23.4373  23.4886  23.4886  23.7761
    23.7761  23.7888  23.8011  23.8101  23.8101  23.8161  23.8246  23.8308
    23.8308  23.8531  23.8532  23.8626  23.8626  23.8682  23.9024  23.9149
    23.9839  23.9840  23.9956  24.1144  24.1144  24.2019  24.2020  24.2302
    24.2302  24.2314  24.2565  24.2751  24.2751  24.2804  24.2907  24.2907
    24.3034  24.3245  24.3245  24.3537  24.3854  24.3854  24.4049  24.4078
    24.4078  24.4162  24.4162  24.4162  24.4725  24.4870  24.4870  24.4879
    24.4908  24.4967  24.4968  24.5143  24.5184  24.5184  24.5281  24.5281
    24.5449  24.5652  24.5652  24.5811  24.7237  24.7237  24.7618  24.8995
    24.8995  24.9739  24.9739  25.5680  25.5708  25.5708  25.6404  25.7449
    25.8110  25.8110  25.8222  25.8222  26.0029  26.0038  26.0038  26.0253
    26.0452  26.0452  26.1331  26.1393  26.1684  26.1684  26.2546  26.3112
    26.3112  26.4439  26.5697  26.5697  26.5893  26.6306  26.6489  26.6489
    26.6535  26.6762  26.6762  26.7039  26.7040  26.7059  26.7572  26.7573
    26.7608  26.7875  26.7875  26.7927  26.8269  26.8586  26.8586  26.9701
    26.9702  27.0468  27.0468  27.0822  27.0937  27.1043  27.1043  27.1235
    27.1254  27.1254  27.1272  27.1360  27.1360  27.1624  27.1624  27.1883
    27.1977  27.2194  27.2195  27.2479  27.2480  27.2528  27.2671  27.2671
    27.2753  27.2834  27.2919  27.2919  27.2985  27.3114  27.3114  27.3179
    27.3180  27.3258  27.3260  27.3367  27.3482  27.3482  27.3686  27.3686
    27.3752  27.3803  27.3889  27.3889  27.4031  27.4031  27.4233  27.4341
    27.4367  27.4367  27.4738  27.4934  27.4934  27.5124  27.5125  27.5233
    27.5233  27.5376  27.5506  27.5506  27.5537  27.5636  27.5889  27.5957
    27.5957  27.6003  27.6003  27.6049  27.6101  27.6101  27.6137  27.6724
    27.6724  27.7457  27.7457  27.7884  27.8105  27.9014  27.9171  27.9171
    27.9272  27.9537  27.9537  28.0239  28.0714  28.0714  28.1302  28.1324
    28.1324  28.1831  28.1831  28.3027  28.3394  28.3733  28.3733  28.3901
    28.4441  28.4442  28.6661  28.7931  28.7933  28.9373  29.7592  29.8194
    29.8194  29.9271  29.9601  29.9603  30.0236  30.0680

     highest occupied, lowest unoccupied level (ev):    15.23514320   14.62973644

!    total energy              =   -3971.22599987 Ry
     total all-electron energy =    -16414.041603 Ry
     estimated scf accuracy    <          2.7E-09 Ry

     The total energy is the sum of the following terms:
     one-electron contribution =     884.97349976 Ry
     hartree contribution      =     218.52850294 Ry
     xc contribution           =   -1009.08005885 Ry
     ewald contribution        =   -2738.87255203 Ry
     one-center paw contrib.   =   -1326.77539170 Ry

     total magnetization       =     2.00 Bohr mag/cell
     absolute magnetization    =     2.21 Bohr mag/cell

     convergence has been achieved in  17 iterations

     Forces acting on atoms (cartesian axes, Ry/au):

     atom    1 type  1   force =     0.00004163   -0.00007636   -0.00002300
     atom    2 type  1   force =     0.00020094   -0.00003634   -0.00001316
     atom    3 type  1   force =     0.00005175   -0.00003298   -0.00007111
     atom    4 type  1   force =     0.00002721   -0.00007865   -0.00018705
     atom    5 type  1   force =    -0.00007250    0.00002645    0.00006603
     atom    6 type  1   force =    -0.00013975   -0.00005094   -0.00006754
     atom    7 type  1   force =     0.00007834   -0.00002663   -0.00004450
     atom    8 type  1   force =     0.00007353    0.00000086    0.00014585
     atom    9 type  1   force =    -0.00003972   -0.00000372    0.00004063
     atom   10 type  1   force =    -0.00002121   -0.00001374    0.00002465
     atom   11 type  1   force =     0.00008398   -0.00013072    0.00016213
     atom   12 type  1   force =    -0.00013922    0.00005020   -0.00004359
     atom   13 type  1   force =    -0.00012427   -0.00018134   -0.00004615
     atom   14 type  1   force =    -0.00005685    0.00020472    0.00000720
     atom   15 type  1   force =     0.00012096    0.00006061   -0.00008114
     atom   16 type  1   force =     0.00002661    0.00009037    0.00012212
     atom   17 type  1   force =     0.00006787    0.00004767   -0.00013419
     atom   18 type  1   force =    -0.00000576   -0.00002187    0.00001108
     atom   19 type  1   force =    -0.00005352   -0.00000045    0.00005372
     atom   20 type  1   force =     0.00000245   -0.00007711    0.00008403
     atom   21 type  1   force =    -0.00006267    0.00001945    0.00003573
     atom   22 type  1   force =    -0.00006341   -0.00009315    0.00001819
     atom   23 type  1   force =     0.00009764   -0.00009585   -0.00007444
     atom   24 type  1   force =     0.00003962    0.00000279   -0.00010872
     atom   25 type  1   force =    -0.00004103    0.00002465    0.00005739
     atom   26 type  1   force =     0.00010604    0.00001896   -0.00004232
     atom   27 type  1   force =     0.00001196    0.00009611   -0.00003530
     atom   28 type  1   force =    -0.00001312   -0.00008000   -0.00008389
     atom   29 type  1   force =     0.00008401    0.00006129    0.00000894
     atom   30 type  1   force =     0.00002865    0.00004237   -0.00009248
     atom   31 type  1   force =     0.00009204   -0.00008453   -0.00011816
     atom   32 type  1   force =     0.00006104    0.00007368   -0.00006374
     atom   33 type  1   force =     0.00001355   -0.00006603    0.00000780
     atom   34 type  1   force =     0.00004755    0.00002810    0.00003568
     atom   35 type  1   force =     0.00012850   -0.00014051   -0.00004031
     atom   36 type  1   force =    -0.00002430   -0.00006409   -0.00005737
     atom   37 type  1   force =    -0.00007760   -0.00008697    0.00003823
     atom   38 type  1   force =     0.00004221    0.00003906    0.00010563
     atom   39 type  1   force =     0.00001048    0.00007523    0.00001950
     atom   40 type  1   force =    -0.00017039   -0.00005949    0.00012224
     atom   41 type  1   force =     0.00001728    0.00002860   -0.00023160
     atom   42 type  1   force =     0.00006270    0.00010938   -0.00004216
     atom   43 type  1   force =    -0.00005636    0.00012072    0.00009990
     atom   44 type  1   force =    -0.00003671   -0.00007912   -0.00007367
     atom   45 type  1   force =    -0.00016876   -0.00000497   -0.00000560
     atom   46 type  1   force =    -0.00001465   -0.00008329   -0.00006802
     atom   47 type  1   force =     0.00003029   -0.00013162    0.00000946
     atom   48 type  1   force =    -0.00002413   -0.00006727   -0.00009935
     atom   49 type  1   force =     0.00001721   -0.00005050   -0.00004098
     atom   50 type  1   force =     0.00011705   -0.00018228    0.00008001
     atom   51 type  1   force =    -0.00011075    0.00001460   -0.00011141
     atom   52 type  1   force =     0.00002836   -0.00001639    0.00005126
     atom   53 type  1   force =     0.00018597    0.00002668    0.00005939
     atom   54 type  1   force =     0.00003819    0.00003453    0.00001764
     atom   55 type  1   force =     0.00009999   -0.00005249    0.00002924
     atom   56 type  1   force =     0.00013735   -0.00007348   -0.00007283
     atom   57 type  1   force =    -0.00003986    0.00000693   -0.00005176
     atom   58 type  1   force =    -0.00002078    0.00003582   -0.00009581
     atom   59 type  1   force =     0.00004638    0.00007005   -0.00007862
     atom   60 type  1   force =     0.00007595   -0.00015326   -0.00009287
     atom   61 type  1   force =     0.00008060    0.00005503   -0.00004051
     atom   62 type  1   force =     0.00000814   -0.00006723    0.00000252
     atom   63 type  1   force =     0.00007016   -0.00004120    0.00003710
     atom   64 type  1   force =    -0.00001880   -0.00007271    0.00009709
     atom   65 type  1   force =    -0.00010962   -0.00004468    0.00018301
     atom   66 type  1   force =    -0.00012701    0.00010360    0.00002927
     atom   67 type  1   force =    -0.00011062    0.00000193   -0.00004717
     atom   68 type  1   force =     0.00021858    0.00007753   -0.00003019
     atom   69 type  1   force =     0.00008916   -0.00004866    0.00005222
     atom   70 type  1   force =    -0.00003640    0.00006387   -0.00002742
     atom   71 type  1   force =     0.00001702    0.00009825   -0.00008787
     atom   72 type  1   force =     0.00000184    0.00003632    0.00016495
     atom   73 type  1   force =     0.00008528   -0.00005901    0.00003197
     atom   74 type  1   force =     0.00005215   -0.00004185   -0.00000603
     atom   75 type  1   force =    -0.00004503   -0.00003417   -0.00002212
     atom   76 type  1   force =     0.00002275   -0.00013363    0.00000186
     atom   77 type  1   force =    -0.00003151   -0.00021834   -0.00006852
     atom   78 type  1   force =    -0.00005867   -0.00003272   -0.00018530
     atom   79 type  1   force =     0.00011168   -0.00003432    0.00003647
     atom   80 type  1   force =     0.00010157    0.00006613    0.00010092
     atom   81 type  1   force =    -0.00002415    0.00001933   -0.00004472
     atom   82 type  1   force =     0.00014661   -0.00021210   -0.00009516
     atom   83 type  1   force =    -0.00008349    0.00009489   -0.00000743
     atom   84 type  1   force =    -0.00007434   -0.00012851   -0.00038145
     atom   85 type  1   force =    -0.00001762    0.00011092    0.00005855
     atom   86 type  1   force =     0.00003309    0.00000281   -0.00003386
     atom   87 type  1   force =    -0.00006634   -0.00021391    0.00001635
     atom   88 type  1   force =     0.00039878   -0.00001366    0.00009163
     atom   89 type  1   force =     0.00003252   -0.00018994    0.00011534
     atom   90 type  1   force =     0.00006966    0.00012754   -0.00010053
     atom   91 type  1   force =    -0.00009476    0.00013016    0.00006324
     atom   92 type  1   force =     0.00001591    0.00000034   -0.00009232
     atom   93 type  1   force =     0.00015004   -0.00002089   -0.00003601
     atom   94 type  1   force =     0.00009001    0.00001828   -0.00001822
     atom   95 type  1   force =     0.00000920    0.00002979   -0.00003084
     atom   96 type  1   force =     0.00004420   -0.00004658   -0.00014196
     atom   97 type  1   force =     0.00002314    0.00003322   -0.00001687
     atom   98 type  1   force =    -0.00011155   -0.00012566    0.00014208
     atom   99 type  1   force =    -0.00008092   -0.00026333    0.00014488
     atom  100 type  1   force =     0.00019573   -0.00000325    0.00002066
     atom  101 type  1   force =    -0.00023175   -0.00004097   -0.00005731
     atom  102 type  1   force =    -0.00001367   -0.00005416   -0.00018885
     atom  103 type  1   force =    -0.00001735    0.00007826   -0.00000171
     atom  104 type  1   force =     0.00013360    0.00004714    0.00004506
     atom  105 type  1   force =     0.00005873    0.00002959    0.00023319
     atom  106 type  1   force =    -0.00005110    0.00000247   -0.00013966
     atom  107 type  1   force =    -0.00021498    0.00025724    0.00015263
     atom  108 type  1   force =     0.00001633   -0.00008001    0.00000315
     atom  109 type  1   force =     0.00006508    0.00007404   -0.00004014
     atom  110 type  1   force =    -0.00001529    0.00003987   -0.00015541
     atom  111 type  1   force =     0.00002337    0.00006383   -0.00008182
     atom  112 type  1   force =    -0.00006123    0.00010103    0.00003671
     atom  113 type  1   force =    -0.00004731   -0.00007467    0.00011842
     atom  114 type  1   force =     0.00014123    0.00007783    0.00000109
     atom  115 type  1   force =    -0.00009873   -0.00008724    0.00006699
     atom  116 type  1   force =     0.00005834    0.00019735   -0.00010620
     atom  117 type  1   force =    -0.00008427    0.00010971    0.00005770
     atom  118 type  1   force =    -0.00002826   -0.00006044    0.00013052
     atom  119 type  1   force =    -0.00001842    0.00011911   -0.00003115
     atom  120 type  1   force =    -0.00011334   -0.00008120    0.00004540
     atom  121 type  1   force =     0.00009070    0.00002217    0.00002468
     atom  122 type  1   force =     0.00000170    0.00012397   -0.00001108
     atom  123 type  1   force =    -0.00002663   -0.00000629   -0.00009265
     atom  124 type  1   force =    -0.00001443   -0.00013403    0.00004695
     atom  125 type  1   force =    -0.00006693   -0.00010150    0.00009156
     atom  126 type  1   force =     0.00010730    0.00002006    0.00005512
     atom  127 type  1   force =    -0.00011658   -0.00002386    0.00002707
     atom  128 type  1   force =    -0.00005522   -0.00001953   -0.00010735
     atom  129 type  1   force =    -0.00000771   -0.00013314    0.00003991
     atom  130 type  1   force =    -0.00000993    0.00007216   -0.00007053
     atom  131 type  1   force =    -0.00002396   -0.00000141    0.00011971
     atom  132 type  1   force =     0.00005114    0.00008706   -0.00000943
     atom  133 type  1   force =    -0.00007278    0.00017044    0.00003146
     atom  134 type  1   force =    -0.00009810    0.00001703   -0.00007258
     atom  135 type  1   force =    -0.00003075    0.00013676    0.00001020
     atom  136 type  1   force =     0.00005617    0.00001636    0.00002535
     atom  137 type  1   force =     0.00017400    0.00002033    0.00004797
     atom  138 type  1   force =     0.00006543    0.00006626    0.00006856
     atom  139 type  1   force =    -0.00003721   -0.00008771    0.00007470
     atom  140 type  1   force =    -0.00001315    0.00005151   -0.00004203
     atom  141 type  1   force =     0.00020384   -0.00003396    0.00010141
     atom  142 type  1   force =    -0.00013454    0.00001772   -0.00000622
     atom  143 type  1   force =    -0.00012001   -0.00004942    0.00002459
     atom  144 type  1   force =     0.00011460    0.00013593   -0.00004098
     atom  145 type  1   force =    -0.00017959   -0.00000368   -0.00002368
     atom  146 type  1   force =    -0.00011900    0.00007171   -0.00000972
     atom  147 type  1   force =     0.00001007    0.00003988   -0.00011955
     atom  148 type  1   force =     0.00006311    0.00000433    0.00002510
     atom  149 type  1   force =    -0.00002174    0.00006075    0.00014927
     atom  150 type  1   force =    -0.00008935   -0.00007663    0.00003944
     atom  151 type  1   force =    -0.00022059    0.00017788    0.00006811
     atom  152 type  1   force =     0.00002670   -0.00009891   -0.00005769
     atom  153 type  1   force =    -0.00010186   -0.00006935    0.00005044
     atom  154 type  1   force =    -0.00015126   -0.00004088   -0.00021677
     atom  155 type  1   force =    -0.00003318    0.00007349   -0.00000106
     atom  156 type  1   force =     0.00020215   -0.00003736    0.00009733
     atom  157 type  1   force =    -0.00013965   -0.00000079   -0.00003172
     atom  158 type  1   force =     0.00015987   -0.00000629    0.00008300
     atom  159 type  1   force =     0.00005940   -0.00006393    0.00010116
     atom  160 type  1   force =     0.00002394    0.00007682   -0.00000851
     atom  161 type  1   force =     0.00006370    0.00005630    0.00008917
     atom  162 type  1   force =    -0.00004640   -0.00003305   -0.00017246
     atom  163 type  1   force =     0.00002836    0.00006156   -0.00000050
     atom  164 type  1   force =    -0.00004306    0.00013376   -0.00000206
     atom  165 type  1   force =    -0.00008031    0.00003121   -0.00007714
     atom  166 type  1   force =    -0.00008465   -0.00010410   -0.00018710
     atom  167 type  1   force =    -0.00002682   -0.00000377   -0.00005768
     atom  168 type  1   force =    -0.00005297   -0.00009155    0.00005896
     atom  169 type  1   force =    -0.00000198    0.00004987    0.00012634
     atom  170 type  1   force =    -0.00001563   -0.00002409    0.00012888
     atom  171 type  1   force =    -0.00001092    0.00009803    0.00009837
     atom  172 type  1   force =    -0.00015986    0.00002719    0.00001111
     atom  173 type  1   force =     0.00001103    0.00011075   -0.00014449
     atom  174 type  1   force =     0.00010699    0.00006338   -0.00002263
     atom  175 type  1   force =    -0.00002278   -0.00006056    0.00010602
     atom  176 type  1   force =     0.00001878    0.00004448    0.00017462
     atom  177 type  1   force =    -0.00002362   -0.00001667   -0.00006159
     atom  178 type  1   force =    -0.00011434    0.00020361    0.00017433
     atom  179 type  1   force =     0.00008008   -0.00008586   -0.00000421
     atom  180 type  1   force =    -0.00001723    0.00007745    0.00001483
     atom  181 type  1   force =    -0.00007455   -0.00006322   -0.00015131
     atom  182 type  1   force =    -0.00003565   -0.00005333    0.00011669
     atom  183 type  1   force =    -0.00008004   -0.00010585   -0.00018489
     atom  184 type  1   force =    -0.00008151   -0.00009820   -0.00003985
     atom  185 type  1   force =     0.00021591    0.00004825    0.00015035
     atom  186 type  1   force =     0.00002696    0.00003965    0.00013494
     atom  187 type  1   force =    -0.00000908    0.00006878   -0.00004154
     atom  188 type  1   force =     0.00008805   -0.00013538   -0.00005520
     atom  189 type  1   force =    -0.00005939    0.00005772    0.00001927
     atom  190 type  1   force =    -0.00000668   -0.00009781   -0.00023849
     atom  191 type  1   force =    -0.00003400    0.00006384    0.00004461
     atom  192 type  1   force =    -0.00006102   -0.00005137    0.00007349
     atom  193 type  1   force =     0.00004187   -0.00008423   -0.00006010
     atom  194 type  1   force =     0.00025458   -0.00003435    0.00002274
     atom  195 type  1   force =     0.00007938   -0.00007511   -0.00002258
     atom  196 type  1   force =    -0.00000513    0.00009009   -0.00001664
     atom  197 type  1   force =    -0.00000912    0.00018492   -0.00003578
     atom  198 type  1   force =     0.00008237    0.00009535    0.00000344
     atom  199 type  1   force =    -0.00000464   -0.00010599    0.00003416
     atom  200 type  1   force =    -0.00002346    0.00006961   -0.00010245
     atom  201 type  1   force =    -0.00004720    0.00005309    0.00003417
     atom  202 type  1   force =    -0.00016350    0.00012176    0.00012679
     atom  203 type  1   force =    -0.00000838   -0.00010684    0.00003049
     atom  204 type  1   force =    -0.00015655    0.00012360    0.00013374
     atom  205 type  1   force =    -0.00010839    0.00001767    0.00010417
     atom  206 type  1   force =     0.00000446   -0.00010574    0.00002124
     atom  207 type  1   force =     0.00003341   -0.00004258   -0.00007315
     atom  208 type  1   force =    -0.00015153   -0.00002144   -0.00004001
     atom  209 type  1   force =     0.00008196   -0.00003079   -0.00002456
     atom  210 type  1   force =    -0.00011365    0.00013793    0.00008014
     atom  211 type  1   force =     0.00001829    0.00005052   -0.00000585
     atom  212 type  1   force =     0.00003961    0.00002491    0.00015104
     atom  213 type  1   force =    -0.00000569    0.00004485   -0.00002984
     atom  214 type  1   force =    -0.00014875    0.00013603    0.00011583
     atom  215 type  2   force =    -0.00000922    0.00001565    0.00000566

     Total force =     0.002290     Total SCF correction =     0.000191


     Computing stress (Cartesian axis) and pressure

          total   stress  (Ry/bohr**3)                   (kbar)     P=       28.46
   0.00019824  -0.00000504   0.00000316           29.16       -0.74        0.46
  -0.00000504   0.00018714   0.00000820           -0.74       27.53        1.21
   0.00000316   0.00000820   0.00019503            0.46        1.21       28.69


     Writing all to output data dir ./tmp/diamond_pd.save/ :
     XML data file, charge density
     init_run     :      5.82s CPU      6.23s WALL (       1 calls)
     electrons    :    407.68s CPU    414.54s WALL (       1 calls)
     forces       :      4.08s CPU      4.20s WALL (       1 calls)
     stress       :     14.23s CPU     14.36s WALL (       1 calls)

     Called by init_run:
     wfcinit      :      4.93s CPU      5.11s WALL (       1 calls)
     potinit      :      0.60s CPU      0.76s WALL (       1 calls)
     hinit0       :      0.10s CPU      0.11s WALL (       1 calls)

     Called by electrons:
     c_bands      :    366.74s CPU    372.88s WALL (      17 calls)
     sum_band     :     26.16s CPU     26.48s WALL (      17 calls)
     v_of_rho     :      0.64s CPU      0.65s WALL (      18 calls)
     newd         :      2.45s CPU      2.52s WALL (      18 calls)
     PAW_pot      :     11.84s CPU     12.09s WALL (      18 calls)
     mix_rho      :      0.48s CPU      0.48s WALL (      17 calls)

     Called by c_bands:
     init_us_2    :      5.31s CPU      5.42s WALL (      74 calls)
     cegterg      :    360.46s CPU    366.47s WALL (      34 calls)

     Called by *egterg:
     cdiaghg      :     63.68s CPU     64.72s WALL (     224 calls)
     h_psi        :    102.90s CPU    105.48s WALL (     226 calls)
     s_psi        :     32.81s CPU     33.02s WALL (     226 calls)
     g_psi        :      0.85s CPU      0.86s WALL (     190 calls)

     Called by h_psi:
     h_psi:calbec :     34.14s CPU     34.41s WALL (     226 calls)
     vloc_psi     :     33.27s CPU     33.93s WALL (     226 calls)
     add_vuspsi   :     33.75s CPU     34.63s WALL (     226 calls)

     General routines
     calbec       :     59.65s CPU     60.10s WALL (     294 calls)
     fft          :      0.26s CPU      0.27s WALL (     420 calls)
     ffts         :      0.02s CPU      0.02s WALL (      34 calls)
     fftw         :     35.31s CPU     36.01s WALL (  174442 calls)
 
     Parallel routines
 
     PWSCF        :   7m11.95s CPU   7m19.78s WALL

 
   This run was terminated on:   0:48:27  23Aug2026            

=------------------------------------------------------------------------------=
   JOB DONE.
=------------------------------------------------------------------------------=
