<?xml version="1.0" encoding="ISO-8859-1"?>
<modeling>
 <generator>
  <i name="program" type="string">vasp </i>
  <i name="version" type="string">5.4.4.18Apr17-6-g9f103f2a35  </i>
  <i name="subversion" type="string">(build Jul 15 2019 14:02:39) complex            parallel </i>
  <i name="platform" type="string">TEST </i>
  <i name="date" type="string">2025 02 03 </i>
  <i name="time" type="string">15:12:50 </i>
 </generator>
 <incar>
  <i type="string" name="PREC">normal    ! low/normal/accurate</i>
  <i type="string" name="ALGO"> Damped ! Algorithm for electronic relax</i>
  <i type="int" name="ISPIN">     1</i>
  <i type="int" name="NELM">   100</i>
  <i type="int" name="NELMIN">     4</i>
  <i type="int" name="IBRION">     2</i>
  <i name="EDIFF">      0.00000100</i>
  <i name="EDIFFG">     -0.00500000</i>
  <i type="int" name="NSW">    30</i>
  <i type="int" name="ISIF">     3</i>
  <i name="ENCUT">    500.00000000</i>
  <i type="logical" name="LREAL"> F  </i>
  <i name="TIME">      0.40000000</i>
  <i type="int" name="ISMEAR">     0</i>
  <i name="SIGMA">      0.00500000</i>
  <v type="int" name="KPOINT_BSE">    -1     0     0     0</v>
  <i type="int" name="NELM">   100</i>
  <i type="logical" name="LHFCALC"> T  </i>
  <i name="HFSCREEN">      0.20000000</i>
  <i name="AEXX">      0.25000000</i>
 </incar>
 <structure name="primitive_cell" >
  <crystal>
   <varray name="basis" >
    <v>       2.56679773       0.00000000       0.00000000 </v>
    <v>       1.28339887       2.22291204       0.00000000 </v>
    <v>       1.28339887       0.74097068       2.09578157 </v>
   </varray>
   <i name="volume">     11.95803839 </i>
   <varray name="rec_basis" >
    <v>       0.38959050      -0.22493018      -0.15904965 </v>
    <v>       0.00000000       0.44986035      -0.15904965 </v>
    <v>       0.00000000       0.00000000       0.47714896 </v>
   </varray>
  </crystal>
  <varray name="positions" >
   <v>       0.00000000       0.00000000       0.00000000 </v>
   <v>       0.25000000       0.25000000       0.25000000 </v>
  </varray>
 </structure>
 <varray name="primitive_index" >
  <v type="int" >        1 </v>
  <v type="int" >        2 </v>
 </varray>
 <kpoints>
  <generation param="Gamma">
   <v type="int" name="divisions">      10       10       10 </v>
   <v name="usershift">      0.00000000       0.00000000       0.00000000 </v>
   <v name="genvec1">      0.10000000       0.00000000      -0.00000000 </v>
   <v name="genvec2">      0.00000000       0.10000000      -0.00000000 </v>
   <v name="genvec3">      0.00000000       0.00000000       0.10000000 </v>
   <v name="shift">      0.00000000       0.00000000       0.00000000 </v>
  </generation>
  <varray name="kpointlist" >
   <v>       0.00000000       0.00000000       0.00000000 </v>
   <v>       0.10000000       0.00000000       0.00000000 </v>
   <v>       0.20000000       0.00000000       0.00000000 </v>
   <v>       0.30000000       0.00000000       0.00000000 </v>
   <v>       0.40000000       0.00000000       0.00000000 </v>
   <v>       0.50000000       0.00000000       0.00000000 </v>
   <v>       0.10000000       0.10000000       0.00000000 </v>
   <v>       0.20000000       0.10000000       0.00000000 </v>
   <v>       0.30000000       0.10000000       0.00000000 </v>
   <v>       0.40000000       0.10000000       0.00000000 </v>
   <v>       0.50000000       0.10000000       0.00000000 </v>
   <v>      -0.40000000       0.10000000       0.00000000 </v>
   <v>      -0.30000000       0.10000000       0.00000000 </v>
   <v>      -0.20000000       0.10000000       0.00000000 </v>
   <v>      -0.10000000       0.10000000       0.00000000 </v>
   <v>       0.20000000       0.20000000       0.00000000 </v>
   <v>       0.30000000       0.20000000       0.00000000 </v>
   <v>       0.40000000       0.20000000       0.00000000 </v>
   <v>       0.50000000       0.20000000       0.00000000 </v>
   <v>      -0.40000000       0.20000000       0.00000000 </v>
   <v>      -0.30000000       0.20000000       0.00000000 </v>
   <v>      -0.20000000       0.20000000       0.00000000 </v>
   <v>       0.30000000       0.30000000       0.00000000 </v>
   <v>       0.40000000       0.30000000       0.00000000 </v>
   <v>       0.50000000       0.30000000       0.00000000 </v>
   <v>      -0.40000000       0.30000000       0.00000000 </v>
   <v>      -0.30000000       0.30000000       0.00000000 </v>
   <v>       0.40000000       0.40000000       0.00000000 </v>
   <v>       0.50000000       0.40000000       0.00000000 </v>
   <v>      -0.40000000       0.40000000       0.00000000 </v>
   <v>       0.50000000       0.50000000       0.00000000 </v>
   <v>       0.30000000       0.20000000       0.10000000 </v>
   <v>       0.40000000       0.20000000       0.10000000 </v>
   <v>       0.50000000       0.20000000       0.10000000 </v>
   <v>      -0.40000000       0.20000000       0.10000000 </v>
   <v>       0.40000000       0.30000000       0.10000000 </v>
   <v>       0.50000000       0.30000000       0.10000000 </v>
   <v>      -0.40000000       0.30000000       0.10000000 </v>
   <v>      -0.30000000       0.30000000       0.10000000 </v>
   <v>      -0.20000000       0.30000000       0.10000000 </v>
   <v>       0.50000000       0.40000000       0.10000000 </v>
   <v>      -0.40000000       0.40000000       0.10000000 </v>
   <v>      -0.30000000       0.40000000       0.10000000 </v>
   <v>      -0.40000000       0.50000000       0.10000000 </v>
   <v>      -0.40000000       0.40000000       0.20000000 </v>
   <v>      -0.30000000       0.40000000       0.20000000 </v>
   <v>      -0.30000000       0.50000000       0.20000000 </v>
  </varray>
  <varray name="weights" >
   <v>       0.00100000 </v>
   <v>       0.00800000 </v>
   <v>       0.00800000 </v>
   <v>       0.00800000 </v>
   <v>       0.00800000 </v>
   <v>       0.00400000 </v>
   <v>       0.00600000 </v>
   <v>       0.02400000 </v>
   <v>       0.02400000 </v>
   <v>       0.02400000 </v>
   <v>       0.02400000 </v>
   <v>       0.02400000 </v>
   <v>       0.02400000 </v>
   <v>       0.02400000 </v>
   <v>       0.01200000 </v>
   <v>       0.00600000 </v>
   <v>       0.02400000 </v>
   <v>       0.02400000 </v>
   <v>       0.02400000 </v>
   <v>       0.02400000 </v>
   <v>       0.02400000 </v>
   <v>       0.01200000 </v>
   <v>       0.00600000 </v>
   <v>       0.02400000 </v>
   <v>       0.02400000 </v>
   <v>       0.02400000 </v>
   <v>       0.01200000 </v>
   <v>       0.00600000 </v>
   <v>       0.02400000 </v>
   <v>       0.01200000 </v>
   <v>       0.00300000 </v>
   <v>       0.02400000 </v>
   <v>       0.04800000 </v>
   <v>       0.04800000 </v>
   <v>       0.02400000 </v>
   <v>       0.02400000 </v>
   <v>       0.04800000 </v>
   <v>       0.04800000 </v>
   <v>       0.04800000 </v>
   <v>       0.02400000 </v>
   <v>       0.02400000 </v>
   <v>       0.04800000 </v>
   <v>       0.02400000 </v>
   <v>       0.01200000 </v>
   <v>       0.02400000 </v>
   <v>       0.02400000 </v>
   <v>       0.01200000 </v>
  </varray>
 </kpoints>
 <parameters>
  <separator name="general" >
   <i type="string" name="SYSTEM">unknown system</i>
   <i type="logical" name="LCOMPAT"> F  </i>
  </separator>
  <separator name="electronic" >
   <i type="string" name="PREC">normal</i>
   <i name="ENMAX">    500.00000000</i>
   <i name="ENAUG">    627.11200000</i>
   <i name="EDIFF">      0.00000100</i>
   <i type="int" name="IALGO">    53</i>
   <i type="int" name="IWAVPR">    11</i>
   <i type="int" name="NBANDS">     8</i>
   <i name="NELECT">      8.00000000</i>
   <i type="int" name="TURBO">     0</i>
   <i type="int" name="IRESTART">     0</i>
   <i type="int" name="NREBOOT">     0</i>
   <i type="int" name="NMIN">     0</i>
   <i name="EREF">      0.00000000</i>
   <separator name="electronic smearing" >
    <i type="int" name="ISMEAR">     0</i>
    <i name="SIGMA">      0.00500000</i>
    <i name="KSPACING">      0.50000000</i>
    <i type="logical" name="KGAMMA"> T  </i>
   </separator>
   <separator name="electronic projectors" >
    <i type="logical" name="LREAL"> F  </i>
    <v name="ROPT">      0.00000000      0.00000000</v>
    <i type="int" name="LMAXPAW">  -100</i>
    <i type="int" name="LMAXMIX">     2</i>
    <i type="logical" name="NLSPLINE"> F  </i>
   </separator>
   <separator name="electronic startup" >
    <i type="int" name="ISTART">     0</i>
    <i type="int" name="ICHARG">     2</i>
    <i type="int" name="INIWAV">     1</i>
   </separator>
   <separator name="electronic spin" >
    <i type="int" name="ISPIN">     1</i>
    <i type="logical" name="LNONCOLLINEAR"> F  </i>
    <v name="MAGMOM">      1.00000000      1.00000000</v>
    <i name="NUPDOWN">     -1.00000000</i>
    <i type="logical" name="LSORBIT"> F  </i>
    <v name="SAXIS">      0.00000000      0.00000000      1.00000000</v>
    <i type="logical" name="LSPIRAL"> F  </i>
    <v name="QSPIRAL">      0.00000000      0.00000000      0.00000000</v>
    <i type="logical" name="LZEROZ"> F  </i>
   </separator>
   <separator name="electronic exchange-correlation" >
    <i type="logical" name="LASPH"> F  </i>
    <i type="logical" name="LMETAGGA"> F  </i>
   </separator>
   <separator name="electronic convergence" >
    <i type="int" name="NELM">   100</i>
    <i type="int" name="NELMDL">    -5</i>
    <i type="int" name="NELMIN">     4</i>
    <i name="ENINI">    500.00000000</i>
    <separator name="electronic convergence detail" >
     <i type="logical" name="LDIAG"> T  </i>
     <i type="logical" name="LSUBROT"> F  </i>
     <i name="WEIMIN">      0.00100000</i>
     <i name="EBREAK">      0.00000003</i>
     <i name="DEPER">      0.30000000</i>
     <i type="int" name="NRMM">     4</i>
     <i name="TIME">      0.40000000</i>
    </separator>
   </separator>
   <separator name="electronic mixer" >
    <i name="AMIX">      0.40000000</i>
    <i name="BMIX">      1.00000000</i>
    <i name="AMIN">      0.10000000</i>
    <i name="AMIX_MAG">      1.60000000</i>
    <i name="BMIX_MAG">      1.00000000</i>
    <separator name="electronic mixer details" >
     <i type="int" name="IMIX">     4</i>
     <i type="logical" name="MIXFIRST"> F  </i>
     <i type="int" name="MAXMIX">   -45</i>
     <i name="WC">    100.00000000</i>
     <i type="int" name="INIMIX">     1</i>
     <i type="int" name="MIXPRE">     1</i>
     <i type="int" name="MREMOVE">     5</i>
    </separator>
   </separator>
   <separator name="electronic dipolcorrection" >
    <i type="logical" name="LDIPOL"> F  </i>
    <i type="logical" name="LMONO"> F  </i>
    <i type="int" name="IDIPOL">     0</i>
    <i name="EPSILON">      1.00000000</i>
    <v name="DIPOL">   -100.00000000   -100.00000000   -100.00000000</v>
    <i name="EFIELD">      0.00000000</i>
   </separator>
  </separator>
  <separator name="grids" >
   <i type="int" name="NGX">    14</i>
   <i type="int" name="NGY">    14</i>
   <i type="int" name="NGZ">    14</i>
   <i type="int" name="NGXF">    28</i>
   <i type="int" name="NGYF">    28</i>
   <i type="int" name="NGZF">    28</i>
   <i type="logical" name="ADDGRID"> F  </i>
  </separator>
  <separator name="ionic" >
   <i type="int" name="NSW">    30</i>
   <i type="int" name="IBRION">     2</i>
   <i type="int" name="MDALGO">     0</i>
   <i type="int" name="ISIF">     3</i>
   <i name="PSTRESS">      0.00000000</i>
   <i name="EDIFFG">     -0.00500000</i>
   <i type="int" name="NFREE">     1</i>
   <i name="POTIM">      0.50000000</i>
   <i name="SMASS">     -3.00000000</i>
   <i name="SCALEE">      1.00000000</i>
  </separator>
  <separator name="ionic md" >
   <i name="TEBEG">      0.00010000</i>
   <i name="TEEND">      0.00010000</i>
   <i type="int" name="NBLOCK">     1</i>
   <i type="int" name="KBLOCK">    30</i>
   <i type="int" name="NPACO">   256</i>
   <i name="APACO">     16.00000000</i>
  </separator>
  <separator name="symmetry" >
   <i type="int" name="ISYM">     3</i>
   <i name="SYMPREC">      0.00001000</i>
  </separator>
  <separator name="dos" >
   <i type="int" name="LORBIT">     0</i>
   <v name="RWIGS">     -1.00000000     -1.00000000</v>
   <i type="int" name="NEDOS">   301</i>
   <i name="EMIN">     10.00000000</i>
   <i name="EMAX">    -10.00000000</i>
   <i name="EFERMI">      0.00000000</i>
  </separator>
  <separator name="writing" >
   <i type="int" name="NWRITE">     2</i>
   <i type="logical" name="LWAVE"> T  </i>
   <i type="logical" name="LDOWNSAMPLE"> F  </i>
   <i type="logical" name="LCHARG"> T  </i>
   <i type="logical" name="LPARD"> F  </i>
   <i type="logical" name="LVTOT"> F  </i>
   <i type="logical" name="LVHAR"> F  </i>
   <i type="logical" name="LELF"> F  </i>
   <i type="logical" name="LOPTICS"> F  </i>
   <v name="STM">      0.00000000      0.00000000      0.00000000      0.00000000      0.00000000      0.00000000      0.00000000</v>
  </separator>
  <separator name="performance" >
   <i type="int" name="NPAR">     4</i>
   <i type="int" name="NSIM">     4</i>
   <i type="int" name="NBLK">    -1</i>
   <i type="logical" name="LPLANE"> T  </i>
   <i type="logical" name="LSCALAPACK"> T  </i>
   <i type="logical" name="LSCAAWARE"> F  </i>
   <i type="logical" name="LSCALU"> F  </i>
   <i type="logical" name="LASYNC"> F  </i>
   <i type="logical" name="LORBITALREAL"> F  </i>
  </separator>
  <separator name="miscellaneous" >
   <i type="int" name="IDIOT">     3</i>
   <i type="int" name="ISPECIAL">     0</i>
   <i type="logical" name="LMUSIC"> F  </i>
   <v name="POMASS">     10.81100000     14.00100000</v>
   <v name="DARWINR">      0.00000000      0.00000000</v>
   <v name="DARWINV">      1.00000000      1.00000000</v>
   <i type="logical" name="LCORR"> T  </i>
  </separator>
  <i type="logical" name="GGA_COMPAT"> T  </i>
  <i type="logical" name="LBERRY"> F  </i>
  <i type="int" name="ICORELEVEL">     0</i>
  <i type="logical" name="LDAU"> F  </i>
  <i type="int" name="I_CONSTRAINED_M">     0</i>
  <separator name="electronic exchange-correlation" >
   <i type="string" name="GGA">--</i>
   <i type="int" name="VOSKOWN">     0</i>
   <i type="logical" name="LHFCALC"> T  </i>
   <i type="string" name="PRECFOCK">normal</i>
   <i type="logical" name="LSYMGRAD"> F  </i>
   <i type="logical" name="LHFONE"> F  </i>
   <i type="logical" name="LRHFCALC"> F  </i>
   <i type="logical" name="LTHOMAS"> F  </i>
   <i type="logical" name="LMODELHF"> F  </i>
   <i name="ENCUT4O">     -1.00000000</i>
   <i type="int" name="EXXOEP">     0</i>
   <i type="int" name="FOURORBIT">     0</i>
   <i name="AEXX">      0.25000000</i>
   <i name="HFALPHA">     -1.00000000</i>
   <i name="MCALPHA">      0.00000000</i>
   <i name="ALDAX">      0.75000000</i>
   <i name="AGGAX">      0.75000000</i>
   <i name="ALDAC">      1.00000000</i>
   <i name="AGGAC">      1.00000000</i>
   <i type="int" name="NKREDX">     1</i>
   <i type="int" name="NKREDY">     1</i>
   <i type="int" name="NKREDZ">     1</i>
   <i type="logical" name="SHIFTRED"> F  </i>
   <i type="logical" name="ODDONLY"> F  </i>
   <i type="logical" name="EVENONLY"> F  </i>
   <i type="int" name="LMAXFOCK">     4</i>
   <i type="int" name="NMAXFOCKAE">     1</i>
   <i type="logical" name="LFOCKAEDFT"> F  </i>
   <i name="HFSCREEN">      0.20000000</i>
   <i name="HFSCREENC">      0.20000000</i>
   <i type="int" name="NBANDSGWLOW">     1</i>
  </separator>
  <separator name="vdW DFT" >
   <i type="logical" name="LUSE_VDW"> F  </i>
   <i name="Zab_VDW">     -0.84910000</i>
   <i name="PARAM1">      0.12340000</i>
   <i name="PARAM2">      1.00000000</i>
   <i name="PARAM3">      0.00000000</i>
  </separator>
  <separator name="model GW" >
   <i type="int" name="MODEL_GW">     0</i>
   <i name="MODEL_EPS0">      3.58741152</i>
   <i name="MODEL_ALPHA">      1.00000000</i>
  </separator>
  <separator name="linear response parameters" >
   <i type="logical" name="LEPSILON"> F  </i>
   <i type="logical" name="LRPA"> F  </i>
   <i type="logical" name="LNABLA"> F  </i>
   <i type="logical" name="LVEL"> F  </i>
   <i type="int" name="KINTER">     0</i>
   <i name="CSHIFT">      0.10000000</i>
   <i name="OMEGAMAX">     -1.00000000</i>
   <i name="DEG_THRESHOLD">      0.00200000</i>
   <i name="RTIME">     -0.10000000</i>
   <i name="WPLASMAI">      0.00000000</i>
   <v name="DFIELD">      0.00000000      0.00000000      0.00000000</v>
   <v name="WPLASMA">      0.00000000      0.00000000      0.00000000      0.00000000      0.00000000      0.00000000      0.00000000      0.00000000      0.00000000</v>
  </separator>
  <separator name="orbital magnetization" >
   <i type="logical" name="NUCIND"> F  </i>
   <v name="MAGPOS">      0.00000000      0.00000000      0.00000000</v>
   <i type="logical" name="LNICSALL"> T  </i>
   <i type="logical" name="ORBITALMAG"> F  </i>
   <i type="logical" name="LMAGBLOCH"> F  </i>
   <i type="logical" name="LCHIMAG"> F  </i>
   <i type="logical" name="LGAUGE"> T  </i>
   <i type="int" name="MAGATOM">     0</i>
   <v name="MAGDIPOL">      0.00000000      0.00000000      0.00000000</v>
   <v name="AVECCONST">      0.00000000      0.00000000      0.00000000</v>
  </separator>
  <separator name="response functions" >
   <i type="logical" name="LADDER"> F  </i>
   <i type="logical" name="LRPAFORCE"> F  </i>
   <i type="logical" name="LFXC"> F  </i>
   <i type="logical" name="LHARTREE"> T  </i>
   <i type="int" name="IBSE">     0</i>
   <v type="int" name="KPOINT">    -1     0     0     0</v>
   <i type="logical" name="LTCTE"> F  </i>
   <i type="logical" name="LTETE"> F  </i>
   <i type="logical" name="LTRIPLET"> F  </i>
   <i type="logical" name="LFXCEPS"> F  </i>
   <i type="logical" name="LFXHEG"> F  </i>
   <i type="int" name="NATURALO">     2</i>
   <i type="logical" name="L2ORDER"> F  </i>
   <i type="logical" name="LMP2LT"> F  </i>
   <i type="logical" name="LUSEW"> F  </i>
   <i name="ENCUTGW">     -2.00000000</i>
   <i name="ENCUTGWSOFT">     -2.00000000</i>
   <i name="ENCUTLF">     -1.00000000</i>
   <i type="int" name="LMAXMP2">    -1</i>
   <i name="SCISSOR">      0.00000000</i>
   <i type="int" name="NOMEGA">     0</i>
   <i type="int" name="NOMEGAR">     0</i>
   <i type="int" name="NBANDSGW">    -1</i>
   <i type="int" name="NBANDSO">    -1</i>
   <i type="int" name="NBANDSV">    -1</i>
   <i type="int" name="NELM">   100</i>
   <i type="int" name="NELMHF">     1</i>
   <i type="int" name="DIM">     3</i>
   <i type="int" name="ANTIRES">     0</i>
   <i name="OMEGAMAX">    -30.00000000</i>
   <i name="OMEGAMIN">    -30.00000000</i>
   <i name="OMEGATL">   -200.00000000</i>
   <i type="int" name="OMEGAGRID">   140</i>
   <i name="CSHIFT">     -0.10000000</i>
   <i type="logical" name="SELFENERGY"> F  </i>
   <i type="logical" name="LSPECTRAL"> F  </i>
   <i type="logical" name="LSPECTRALGW"> F  </i>
   <i type="logical" name="LSINGLES"> F  </i>
   <i type="logical" name="LFERMIGW"> F  </i>
   <i type="logical" name="ODDONLYGW"> F  </i>
   <i type="logical" name="EVENONLYGW"> F  </i>
   <i type="int" name="NKREDLFX">     1</i>
   <i type="int" name="NKREDLFY">     1</i>
   <i type="int" name="NKREDLFZ">     1</i>
   <i type="int" name="MAXMEM">  2800</i>
   <i type="int" name="TELESCOPE">     0</i>
   <i type="int" name="TAUPAR">     1</i>
   <i type="int" name="OMEGAPAR">    -1</i>
   <i name="LAMBDA">      1.00000000</i>
  </separator>
  <separator name="External order field" >
   <i name="OFIELD_KAPPA">      0.00000000</i>
   <v name="OFIELD_K">      0.00000000      0.00000000      0.00000000</v>
   <i name="OFIELD_Q6_NEAR">      0.00000000</i>
   <i name="OFIELD_Q6_FAR">      0.00000000</i>
   <i name="OFIELD_A">      0.00000000</i>
  </separator>
 </parameters>
 <atominfo>
  <atoms>       2 </atoms>
  <types>       2 </types>
  <array name="atoms" >
   <dimension dim="1">ion</dimension>
   <field type="string">element</field>
   <field type="int">atomtype</field>
   <set>
    <rc><c>B </c><c>   1</c></rc>
    <rc><c>N </c><c>   2</c></rc>
   </set>
  </array>
  <array name="atomtypes" >
   <dimension dim="1">type</dimension>
   <field type="int">atomspertype</field>
   <field type="string">element</field>
   <field>mass</field>
   <field>valence</field>
   <field type="string">pseudopotential</field>
   <set>
    <rc><c>   1</c><c>B </c><c>     10.81100000</c><c>      3.00000000</c><c>  PAW_PBE B 06Sep2000                   </c></rc>
    <rc><c>   1</c><c>N </c><c>     14.00100000</c><c>      5.00000000</c><c>  PAW_PBE N 08Apr2002                   </c></rc>
   </set>
  </array>
 </atominfo>
 <structure name="initialpos" >
  <crystal>
   <varray name="basis" >
    <v>       2.56679773       0.00000000       0.00000000 </v>
    <v>       1.28339887       2.22291204       0.00000000 </v>
    <v>       1.28339887       0.74097068       2.09578157 </v>
   </varray>
   <i name="volume">     11.95803839 </i>
   <varray name="rec_basis" >
    <v>       0.38959050      -0.22493018      -0.15904965 </v>
    <v>       0.00000000       0.44986035      -0.15904965 </v>
    <v>       0.00000000       0.00000000       0.47714896 </v>
   </varray>
  </crystal>
  <varray name="positions" >
   <v>       0.00000000       0.00000000       0.00000000 </v>
   <v>       0.25000000       0.25000000       0.25000000 </v>
  </varray>
 </structure>
 <calculation>
  <scstep>
   <time name="total">    0.26    0.28</time>
   <energy>
    <i name="alphaZ">     29.75798775 </i>
    <i name="ewald">   -356.90722061 </i>
    <i name="hartreedc">    -38.11880592 </i>
    <i name="XCdc">     21.44259055 </i>
    <i name="pawpsdc">    253.56976862 </i>
    <i name="pawaedc">   -253.59740781 </i>
    <i name="eentropy">     -0.00006435 </i>
    <i name="bandstr">     58.51301425 </i>
    <i name="atom">    332.23131832 </i>
    <i name="e_fr_energy">     46.89118079 </i>
    <i name="e_wo_entrp">     46.89124514 </i>
    <i name="e_0_energy">     46.89121296 </i>
   </energy>
  </scstep>
  <scstep>
   <time name="total">    0.18    0.19</time>
   <energy>
    <i name="e_fr_energy">      1.17987399 </i>
    <i name="e_wo_entrp">      1.17988170 </i>
    <i name="e_0_energy">      1.17987785 </i>
   </energy>
  </scstep>
  <scstep>
   <time name="total">    0.17    0.18</time>
   <energy>
    <i name="e_fr_energy">     -1.32518185 </i>
    <i name="e_wo_entrp">     -1.32518185 </i>
    <i name="e_0_energy">     -1.32518185 </i>
   </energy>
  </scstep>
  <scstep>
   <time name="total">    0.17    0.18</time>
   <energy>
    <i name="e_fr_energy">     -1.49040651 </i>
    <i name="e_wo_entrp">     -1.49040651 </i>
    <i name="e_0_energy">     -1.49040651 </i>
   </energy>
  </scstep>
  <scstep>
   <time name="total">    0.24    0.24</time>
   <energy>
    <i name="e_fr_energy">     -1.50190276 </i>
    <i name="e_wo_entrp">     -1.50190276 </i>
    <i name="e_0_energy">     -1.50190276 </i>
   </energy>
  </scstep>
  <scstep>
   <time name="total">   47.15   47.40</time>
   <energy>
    <i name="e_fr_energy">    -20.27573463 </i>
    <i name="e_wo_entrp">    -20.27573463 </i>
    <i name="e_0_energy">    -20.27573463 </i>
   </energy>
  </scstep>
  <scstep>
   <time name="total">   47.15   47.42</time>
   <energy>
    <i name="e_fr_energy">    -20.34068013 </i>
    <i name="e_wo_entrp">    -20.34068013 </i>
    <i name="e_0_energy">    -20.34068013 </i>
   </energy>
  </scstep>
  <scstep>
   <time name="total">   47.09   47.35</time>
   <energy>
    <i name="e_fr_energy">    -20.35080163 </i>
    <i name="e_wo_entrp">    -20.35080163 </i>
    <i name="e_0_energy">    -20.35080163 </i>
   </energy>
  </scstep>
  <scstep>
   <time name="total">   47.14   47.38</time>
   <energy>
    <i name="e_fr_energy">    -20.35049892 </i>
    <i name="e_wo_entrp">    -20.35049892 </i>
    <i name="e_0_energy">    -20.35049892 </i>
   </energy>
  </scstep>
  <scstep>
   <time name="total">   47.12   47.38</time>
   <energy>
    <i name="e_fr_energy">    -20.35303785 </i>
    <i name="e_wo_entrp">    -20.35303785 </i>
    <i name="e_0_energy">    -20.35303785 </i>
   </energy>
  </scstep>
  <scstep>
   <time name="total">   47.12   47.40</time>
   <energy>
    <i name="e_fr_energy">    -20.35400649 </i>
    <i name="e_wo_entrp">    -20.35400649 </i>
    <i name="e_0_energy">    -20.35400649 </i>
   </energy>
  </scstep>
  <scstep>
   <time name="total">   47.10   47.42</time>
   <energy>
    <i name="e_fr_energy">    -20.35416506 </i>
    <i name="e_wo_entrp">    -20.35416506 </i>
    <i name="e_0_energy">    -20.35416506 </i>
   </energy>
  </scstep>
  <scstep>
   <time name="total">   47.08   47.47</time>
   <energy>
    <i name="e_fr_energy">    -20.35429169 </i>
    <i name="e_wo_entrp">    -20.35429169 </i>
    <i name="e_0_energy">    -20.35429169 </i>
   </energy>
  </scstep>
  <scstep>
   <time name="total">   47.06   47.46</time>
   <energy>
    <i name="e_fr_energy">    -20.35434932 </i>
    <i name="e_wo_entrp">    -20.35434932 </i>
    <i name="e_0_energy">    -20.35434932 </i>
   </energy>
  </scstep>
  <scstep>
   <time name="total">   47.10   47.54</time>
   <energy>
    <i name="e_fr_energy">    -20.35436018 </i>
    <i name="e_wo_entrp">    -20.35436018 </i>
    <i name="e_0_energy">    -20.35436018 </i>
   </energy>
  </scstep>
  <scstep>
   <time name="total">   47.08   47.43</time>
   <energy>
    <i name="e_fr_energy">    -20.35436689 </i>
    <i name="e_wo_entrp">    -20.35436689 </i>
    <i name="e_0_energy">    -20.35436689 </i>
   </energy>
  </scstep>
  <scstep>
   <time name="total">   47.09   47.42</time>
   <energy>
    <i name="e_fr_energy">    -20.35437039 </i>
    <i name="e_wo_entrp">    -20.35437039 </i>
    <i name="e_0_energy">    -20.35437039 </i>
   </energy>
  </scstep>
  <scstep>
   <time name="total">   93.96   94.50</time>
   <energy>
    <i name="alphaZ">     29.75798775 </i>
    <i name="ewald">   -356.90722061 </i>
    <i name="hartreedc">    -49.65681521 </i>
    <i name="XCdc">     22.17551332 </i>
    <i name="pawpsdc">    915.69005108 </i>
    <i name="pawaedc">   -915.98939999 </i>
    <i name="eentropy">     -0.00000000 </i>
    <i name="bandstr">    -17.21914265 </i>
    <i name="atom">    332.23131832 </i>
    <i name="e_fr_energy">    -20.35437116 </i>
    <i name="e_wo_entrp">    -20.35437116 </i>
    <i name="e_0_energy">    -20.35437116 </i>
   </energy>
  </scstep>
  <structure>
   <crystal>
    <varray name="basis" >
     <v>       2.56679773       0.00000000       0.00000000 </v>
     <v>       1.28339887       2.22291204       0.00000000 </v>
     <v>       1.28339887       0.74097068       2.09578157 </v>
    </varray>
    <i name="volume">     11.95803839 </i>
    <varray name="rec_basis" >
     <v>       0.38959050      -0.22493018      -0.15904965 </v>
     <v>       0.00000000       0.44986035      -0.15904965 </v>
     <v>       0.00000000       0.00000000       0.47714896 </v>
    </varray>
   </crystal>
   <varray name="positions" >
    <v>       0.00000000       0.00000000       0.00000000 </v>
    <v>       0.25000000       0.25000000       0.25000000 </v>
   </varray>
  </structure>
  <varray name="forces" >
   <v>       0.00000000      -0.00000000      -0.00000000 </v>
   <v>      -0.00000000       0.00000000       0.00000000 </v>
  </varray>
  <varray name="stress" >
   <v>    -103.60953777      -0.00000000      -0.00000000 </v>
   <v>      -0.00000000    -103.60953777       0.00000000 </v>
   <v>      -0.00000000       0.00000000    -103.60953777 </v>
  </varray>
  <energy>
   <i name="e_fr_energy">    -20.35437116 </i>
   <i name="e_wo_entrp">    -20.35437116 </i>
   <i name="e_0_energy">     -0.00000000 </i>
  </energy>
  <time name="totalsc">  717.05  721.90</time>
 </calculation>
 <calculation>
  <scstep>
   <time name="total">   47.06   47.33</time>
   <energy>
    <i name="alphaZ">     31.48733137 </i>
    <i name="ewald">   -363.69117720 </i>
    <i name="hartreedc">    -50.89617894 </i>
    <i name="XCdc">     22.59113477 </i>
    <i name="pawpsdc">    907.42422854 </i>
    <i name="pawaedc">   -907.75917211 </i>
    <i name="eentropy">     -0.00000000 </i>
    <i name="bandstr">    -11.62062879 </i>
    <i name="atom">    332.23131832 </i>
    <i name="e_fr_energy">    -20.23723587 </i>
    <i name="e_wo_entrp">    -20.23723587 </i>
    <i name="e_0_energy">    -20.23723587 </i>
   </energy>
  </scstep>
  <scstep>
   <time name="total">   47.07   47.35</time>
   <energy>
    <i name="e_fr_energy">    -20.32280715 </i>
    <i name="e_wo_entrp">    -20.32280715 </i>
    <i name="e_0_energy">    -20.32280715 </i>
   </energy>
  </scstep>
  <scstep>
   <time name="total">   47.07   47.32</time>
   <energy>
    <i name="e_fr_energy">    -20.34417419 </i>
    <i name="e_wo_entrp">    -20.34417419 </i>
    <i name="e_0_energy">    -20.34417419 </i>
   </energy>
  </scstep>
  <scstep>
   <time name="total">   47.04   47.31</time>
   <energy>
    <i name="e_fr_energy">    -20.34624502 </i>
    <i name="e_wo_entrp">    -20.34624502 </i>
    <i name="e_0_energy">    -20.34624502 </i>
   </energy>
  </scstep>
  <scstep>
   <time name="total">   47.08   47.35</time>
   <energy>
    <i name="e_fr_energy">    -20.34909559 </i>
    <i name="e_wo_entrp">    -20.34909559 </i>
    <i name="e_0_energy">    -20.34909559 </i>
   </energy>
  </scstep>
  <scstep>
   <time name="total">   47.05   47.32</time>
   <energy>
    <i name="e_fr_energy">    -20.35046346 </i>
    <i name="e_wo_entrp">    -20.35046346 </i>
    <i name="e_0_energy">    -20.35046346 </i>
   </energy>
  </scstep>
  <scstep>
   <time name="total">   47.13   47.39</time>
   <energy>
    <i name="e_fr_energy">    -20.35100694 </i>
    <i name="e_wo_entrp">    -20.35100694 </i>
    <i name="e_0_energy">    -20.35100694 </i>
   </energy>
  </scstep>
  <scstep>
   <time name="total">   47.12   47.38</time>
   <energy>
    <i name="e_fr_energy">    -20.35133929 </i>
    <i name="e_wo_entrp">    -20.35133929 </i>
    <i name="e_0_energy">    -20.35133929 </i>
   </energy>
  </scstep>
  <scstep>
   <time name="total">   47.12   47.39</time>
   <energy>
    <i name="e_fr_energy">    -20.35147340 </i>
    <i name="e_wo_entrp">    -20.35147340 </i>
    <i name="e_0_energy">    -20.35147340 </i>
   </energy>
  </scstep>
  <scstep>
   <time name="total">   47.21   47.48</time>
   <energy>
    <i name="e_fr_energy">    -20.35150674 </i>
    <i name="e_wo_entrp">    -20.35150674 </i>
    <i name="e_0_energy">    -20.35150674 </i>
   </energy>
  </scstep>
  <scstep>
   <time name="total">   47.14   47.40</time>
   <energy>
    <i name="e_fr_energy">    -20.35152079 </i>
    <i name="e_wo_entrp">    -20.35152079 </i>
    <i name="e_0_energy">    -20.35152079 </i>
   </energy>
  </scstep>
  <scstep>
   <time name="total">   47.12   47.39</time>
   <energy>
    <i name="e_fr_energy">    -20.35152787 </i>
    <i name="e_wo_entrp">    -20.35152787 </i>
    <i name="e_0_energy">    -20.35152787 </i>
   </energy>
  </scstep>
  <scstep>
   <time name="total">   47.07   47.34</time>
   <energy>
    <i name="e_fr_energy">    -20.35153059 </i>
    <i name="e_wo_entrp">    -20.35153059 </i>
    <i name="e_0_energy">    -20.35153059 </i>
   </energy>
  </scstep>
  <scstep>
   <time name="total">   47.09   47.36</time>
   <energy>
    <i name="e_fr_energy">    -20.35153170 </i>
    <i name="e_wo_entrp">    -20.35153170 </i>
    <i name="e_0_energy">    -20.35153170 </i>
   </energy>
  </scstep>
  <scstep>
   <time name="total">   94.01   94.54</time>
   <energy>
    <i name="alphaZ">     31.48733137 </i>
    <i name="ewald">   -363.69117720 </i>
    <i name="hartreedc">    -48.21998349 </i>
    <i name="XCdc">     22.43940382 </i>
    <i name="pawpsdc">    994.95737428 </i>
    <i name="pawaedc">   -995.28352761 </i>
    <i name="eentropy">     -0.00000000 </i>
    <i name="bandstr">    -14.11544345 </i>
    <i name="atom">    332.23131832 </i>
    <i name="e_fr_energy">    -20.35153218 </i>
    <i name="e_wo_entrp">    -20.35153218 </i>
    <i name="e_0_energy">    -20.35153218 </i>
   </energy>
  </scstep>
  <structure>
   <crystal>
    <varray name="basis" >
     <v>       2.51891908      -0.00000000      -0.00000000 </v>
     <v>       1.25945954       2.18144791       0.00000000 </v>
     <v>       1.25945954       0.72714930       2.05668882 </v>
    </varray>
    <i name="volume">     11.30128037 </i>
    <varray name="rec_basis" >
     <v>       0.39699568      -0.22920556      -0.16207281 </v>
     <v>       0.00000000       0.45841113      -0.16207281 </v>
     <v>       0.00000000      -0.00000000       0.48621843 </v>
    </varray>
   </crystal>
   <varray name="positions" >
    <v>       0.00000000      -0.00000000      -0.00000000 </v>
    <v>       0.25000000       0.25000000       0.25000000 </v>
   </varray>
  </structure>
  <varray name="forces" >
   <v>      -0.00000000       0.00000000       0.00000000 </v>
   <v>       0.00000000      -0.00000000      -0.00000000 </v>
  </varray>
  <varray name="stress" >
   <v>     127.74726286       0.00000000       0.00000000 </v>
   <v>       0.00000000     127.74726286      -0.00000000 </v>
   <v>       0.00000000      -0.00000000     127.74726286 </v>
  </varray>
  <energy>
   <i name="e_fr_energy">    -20.35153218 </i>
   <i name="e_wo_entrp">    -20.35153218 </i>
   <i name="e_0_energy">     -0.00000000 </i>
  </energy>
  <time name="totalsc">  810.28  815.12</time>
 </calculation>
 <calculation>
  <scstep>
   <time name="total">   47.11   47.38</time>
   <energy>
    <i name="alphaZ">     30.56078080 </i>
    <i name="ewald">   -360.08826037 </i>
    <i name="hartreedc">    -47.57937640 </i>
    <i name="XCdc">     22.21962127 </i>
    <i name="pawpsdc">   1001.54856378 </i>
    <i name="pawaedc">  -1001.85341393 </i>
    <i name="eentropy">     -0.00000000 </i>
    <i name="bandstr">    -16.98790345 </i>
    <i name="atom">    332.23131832 </i>
    <i name="e_fr_energy">    -20.33366421 </i>
    <i name="e_wo_entrp">    -20.33366421 </i>
    <i name="e_0_energy">    -20.33366421 </i>
   </energy>
  </scstep>
  <scstep>
   <time name="total">   47.08   47.35</time>
   <energy>
    <i name="e_fr_energy">    -20.35513223 </i>
    <i name="e_wo_entrp">    -20.35513223 </i>
    <i name="e_0_energy">    -20.35513223 </i>
   </energy>
  </scstep>
  <scstep>
   <time name="total">   47.13   47.39</time>
   <energy>
    <i name="e_fr_energy">    -20.36249672 </i>
    <i name="e_wo_entrp">    -20.36249672 </i>
    <i name="e_0_energy">    -20.36249672 </i>
   </energy>
  </scstep>
  <scstep>
   <time name="total">   47.12   47.39</time>
   <energy>
    <i name="e_fr_energy">    -20.36362536 </i>
    <i name="e_wo_entrp">    -20.36362536 </i>
    <i name="e_0_energy">    -20.36362536 </i>
   </energy>
  </scstep>
  <scstep>
   <time name="total">   47.10   47.37</time>
   <energy>
    <i name="e_fr_energy">    -20.36429894 </i>
    <i name="e_wo_entrp">    -20.36429894 </i>
    <i name="e_0_energy">    -20.36429894 </i>
   </energy>
  </scstep>
  <scstep>
   <time name="total">   47.10   47.37</time>
   <energy>
    <i name="e_fr_energy">    -20.36461213 </i>
    <i name="e_wo_entrp">    -20.36461213 </i>
    <i name="e_0_energy">    -20.36461213 </i>
   </energy>
  </scstep>
  <scstep>
   <time name="total">   47.08   47.35</time>
   <energy>
    <i name="e_fr_energy">    -20.36469712 </i>
    <i name="e_wo_entrp">    -20.36469712 </i>
    <i name="e_0_energy">    -20.36469712 </i>
   </energy>
  </scstep>
  <scstep>
   <time name="total">   47.08   47.35</time>
   <energy>
    <i name="e_fr_energy">    -20.36476667 </i>
    <i name="e_wo_entrp">    -20.36476667 </i>
    <i name="e_0_energy">    -20.36476667 </i>
   </energy>
  </scstep>
  <scstep>
   <time name="total">   47.15   47.40</time>
   <energy>
    <i name="e_fr_energy">    -20.36480035 </i>
    <i name="e_wo_entrp">    -20.36480035 </i>
    <i name="e_0_energy">    -20.36480035 </i>
   </energy>
  </scstep>
  <scstep>
   <time name="total">   47.06   47.32</time>
   <energy>
    <i name="e_fr_energy">    -20.36480917 </i>
    <i name="e_wo_entrp">    -20.36480917 </i>
    <i name="e_0_energy">    -20.36480917 </i>
   </energy>
  </scstep>
  <scstep>
   <time name="total">   47.10   47.37</time>
   <energy>
    <i name="e_fr_energy">    -20.36481266 </i>
    <i name="e_wo_entrp">    -20.36481266 </i>
    <i name="e_0_energy">    -20.36481266 </i>
   </energy>
  </scstep>
  <scstep>
   <time name="total">   47.07   47.33</time>
   <energy>
    <i name="e_fr_energy">    -20.36481472 </i>
    <i name="e_wo_entrp">    -20.36481472 </i>
    <i name="e_0_energy">    -20.36481472 </i>
   </energy>
  </scstep>
  <scstep>
   <time name="total">   93.88   94.42</time>
   <energy>
    <i name="alphaZ">     30.56078080 </i>
    <i name="ewald">   -360.08826037 </i>
    <i name="hartreedc">    -48.97357355 </i>
    <i name="XCdc">     22.29880076 </i>
    <i name="pawpsdc">    952.02054010 </i>
    <i name="pawaedc">   -952.33222713 </i>
    <i name="eentropy">     -0.00000000 </i>
    <i name="bandstr">    -15.77653078 </i>
    <i name="atom">    332.23131832 </i>
    <i name="e_fr_energy">    -20.36481551 </i>
    <i name="e_wo_entrp">    -20.36481551 </i>
    <i name="e_0_energy">    -20.36481551 </i>
   </energy>
  </scstep>
  <structure>
   <crystal>
    <varray name="basis" >
     <v>       2.54412250      -0.00000000      -0.00000000 </v>
     <v>       1.27206125       2.20327471       0.00000000 </v>
     <v>       1.27206125       0.73442490       2.07726732 </v>
    </varray>
    <i name="volume">     11.64391585 </i>
    <varray name="rec_basis" >
     <v>       0.39306283      -0.22693493      -0.16046723 </v>
     <v>       0.00000000       0.45386987      -0.16046723 </v>
     <v>       0.00000000      -0.00000000       0.48140169 </v>
    </varray>
   </crystal>
   <varray name="positions" >
    <v>       0.00000000      -0.00000000      -0.00000000 </v>
    <v>       0.25000000       0.25000000       0.25000000 </v>
   </varray>
  </structure>
  <varray name="forces" >
   <v>      -0.00000000      -0.00000000      -0.00000000 </v>
   <v>       0.00000000       0.00000000       0.00000000 </v>
  </varray>
  <varray name="stress" >
   <v>      -0.83028648      -0.00000000      -0.00000000 </v>
   <v>      -0.00000000      -0.83028648       0.00000000 </v>
   <v>      -0.00000000       0.00000000      -0.83028648 </v>
  </varray>
  <energy>
   <i name="e_fr_energy">    -20.36481551 </i>
   <i name="e_wo_entrp">    -20.36481551 </i>
   <i name="e_0_energy">     -0.00000000 </i>
  </energy>
  <time name="totalsc">  702.02  706.25</time>
  <eigenvalues>
   <array>
    <dimension dim="1">band</dimension>
    <dimension dim="2">kpoint</dimension>
    <dimension dim="3">spin</dimension>
    <field>eigene</field>
    <field>occ</field>
    <set>
     <set comment="spin 1">
      <set comment="kpoint 1">
       <r>  -15.5748    1.0000 </r>
       <r>    6.7048    1.0000 </r>
       <r>    6.7049    1.0000 </r>
       <r>    6.7049    1.0000 </r>
       <r>   17.3547    0.0000 </r>
       <r>   17.3547    0.0000 </r>
       <r>   17.3547    0.0000 </r>
       <r>   19.1025    0.0000 </r>
      </set>
      <set comment="kpoint 2">
       <r>  -15.3099    1.0000 </r>
       <r>    5.3247    1.0000 </r>
       <r>    6.4300    1.0000 </r>
       <r>    6.4301    1.0000 </r>
       <r>   17.6383    0.0000 </r>
       <r>   17.7738    0.0000 </r>
       <r>   17.7738    0.0000 </r>
       <r>   19.9639    0.0000 </r>
      </set>
      <set comment="kpoint 3">
       <r>  -14.5298    1.0000 </r>
       <r>    2.3344    1.0000 </r>
       <r>    5.8063    1.0000 </r>
       <r>    5.8064    1.0000 </r>
       <r>   18.0407    0.0000 </r>
       <r>   18.6380    0.0000 </r>
       <r>   18.6380    0.0000 </r>
       <r>   21.7592    0.0000 </r>
      </set>
      <set comment="kpoint 4">
       <r>  -13.2967    1.0000 </r>
       <r>   -0.9364    1.0000 </r>
       <r>    5.1686    1.0000 </r>
       <r>    5.1687    1.0000 </r>
       <r>   18.4114    0.0000 </r>
       <r>   19.2281    0.0000 </r>
       <r>   19.2281    0.0000 </r>
       <r>   23.2305    0.0000 </r>
      </set>
      <set comment="kpoint 5">
       <r>  -11.8295    1.0000 </r>
       <r>   -3.7513    1.0000 </r>
       <r>    4.7269    1.0000 </r>
       <r>    4.7270    1.0000 </r>
       <r>   18.6746    0.0000 </r>
       <r>   19.3466    0.0000 </r>
       <r>   19.3466    0.0000 </r>
       <r>   24.0212    0.0000 </r>
      </set>
      <set comment="kpoint 6">
       <r>  -10.9786    1.0000 </r>
       <r>   -5.0684    1.0000 </r>
       <r>    4.5719    1.0000 </r>
       <r>    4.5720    1.0000 </r>
       <r>   18.7676    0.0000 </r>
       <r>   19.3226    0.0000 </r>
       <r>   19.3226    0.0000 </r>
       <r>   24.2558    0.0000 </r>
      </set>
      <set comment="kpoint 7">
       <r>  -15.2218    1.0000 </r>
       <r>    5.7928    1.0000 </r>
       <r>    5.8834    1.0000 </r>
       <r>    5.8835    1.0000 </r>
       <r>   16.8311    0.0000 </r>
       <r>   18.4734    0.0000 </r>
       <r>   18.4734    0.0000 </r>
       <r>   20.0185    0.0000 </r>
      </set>
      <set comment="kpoint 8">
       <r>  -14.6136    1.0000 </r>
       <r>    3.3560    1.0000 </r>
       <r>    5.1168    1.0000 </r>
       <r>    5.6801    1.0000 </r>
       <r>   16.9195    0.0000 </r>
       <r>   19.2374    0.0000 </r>
       <r>   19.5714    0.0000 </r>
       <r>   21.2107    0.0000 </r>
      </set>
      <set comment="kpoint 9">
       <r>  -13.5282    1.0000 </r>
       <r>    0.2258    1.0000 </r>
       <r>    4.4728    1.0000 </r>
       <r>    5.0500    1.0000 </r>
       <r>   17.5412    0.0000 </r>
       <r>   19.6957    0.0000 </r>
       <r>   20.3358    0.0000 </r>
       <r>   22.3828    0.0000 </r>
      </set>
      <set comment="kpoint 10">
       <r>  -12.1100    1.0000 </r>
       <r>   -2.7299    1.0000 </r>
       <r>    4.1312    1.0000 </r>
       <r>    4.3281    1.0000 </r>
       <r>   18.0120    0.0000 </r>
       <r>   19.8459    0.0000 </r>
       <r>   20.4354    0.0000 </r>
       <r>   23.5633    0.0000 </r>
      </set>
      <set comment="kpoint 11">
       <r>  -10.9133    1.0000 </r>
       <r>   -4.6691    1.0000 </r>
       <r>    3.7702    1.0000 </r>
       <r>    4.1508    1.0000 </r>
       <r>   18.3479    0.0000 </r>
       <r>   19.7964    0.0000 </r>
       <r>   20.1606    0.0000 </r>
       <r>   24.5048    0.0000 </r>
      </set>
      <set comment="kpoint 12">
       <r>  -11.2144    1.0000 </r>
       <r>   -4.2167    1.0000 </r>
       <r>    3.5125    1.0000 </r>
       <r>    4.5145    1.0000 </r>
       <r>   18.7887    0.0000 </r>
       <r>   19.6367    0.0000 </r>
       <r>   19.8352    0.0000 </r>
       <r>   24.4605    0.0000 </r>
      </set>
      <set comment="kpoint 13">
       <r>  -12.6024    1.0000 </r>
       <r>   -1.8059    1.0000 </r>
       <r>    3.6211    1.0000 </r>
       <r>    5.1430    1.0000 </r>
       <r>   19.1210    0.0000 </r>
       <r>   19.4365    0.0000 </r>
       <r>   19.4844    0.0000 </r>
       <r>   23.4971    0.0000 </r>
      </set>
      <set comment="kpoint 14">
       <r>  -13.9387    1.0000 </r>
       <r>    1.2518    1.0000 </r>
       <r>    4.1192    1.0000 </r>
       <r>    5.8724    1.0000 </r>
       <r>   18.6873    0.0000 </r>
       <r>   18.7379    0.0000 </r>
       <r>   19.4620    0.0000 </r>
       <r>   22.2547    0.0000 </r>
      </set>
      <set comment="kpoint 15">
       <r>  -14.8731    1.0000 </r>
       <r>    4.0157    1.0000 </r>
       <r>    5.1017    1.0000 </r>
       <r>    6.4141    1.0000 </r>
       <r>   17.9505    0.0000 </r>
       <r>   17.9802    0.0000 </r>
       <r>   18.8154    0.0000 </r>
       <r>   20.9679    0.0000 </r>
      </set>
      <set comment="kpoint 16">
       <r>  -14.1846    1.0000 </r>
       <r>    3.6228    1.0000 </r>
       <r>    4.2268    1.0000 </r>
       <r>    4.2269    1.0000 </r>
       <r>   15.7672    0.0000 </r>
       <r>   20.7708    0.0000 </r>
       <r>   20.9898    0.0000 </r>
       <r>   20.9898    0.0000 </r>
      </set>
      <set comment="kpoint 17">
       <r>  -13.2732    1.0000 </r>
       <r>    1.2695    1.0000 </r>
       <r>    3.5061    1.0000 </r>
       <r>    3.7456    1.0000 </r>
       <r>   15.7094    0.0000 </r>
       <r>   20.6293    0.0000 </r>
       <r>   21.9074    0.0000 </r>
       <r>   22.1452    0.0000 </r>
      </set>
      <set comment="kpoint 18">
       <r>  -11.9849    1.0000 </r>
       <r>   -1.4348    1.0000 </r>
       <r>    2.8757    1.0000 </r>
       <r>    3.1425    1.0000 </r>
       <r>   16.2138    0.0000 </r>
       <r>   21.3585    0.0000 </r>
       <r>   22.2270    0.0000 </r>
       <r>   22.5325    0.0000 </r>
      </set>
      <set comment="kpoint 19">
       <r>  -10.6824    1.0000 </r>
       <r>   -3.5939    1.0000 </r>
       <r>    1.9679    1.0000 </r>
       <r>    3.1996    1.0000 </r>
       <r>   16.7003    0.0000 </r>
       <r>   21.8696    0.0000 </r>
       <r>   22.2524    0.0000 </r>
       <r>   23.6306    0.0000 </r>
      </set>
      <set comment="kpoint 20">
       <r>  -10.4185    1.0000 </r>
       <r>   -3.9771    1.0000 </r>
       <r>    1.3537    1.0000 </r>
       <r>    3.6592    1.0000 </r>
       <r>   17.3520    0.0000 </r>
       <r>   21.6559    0.0000 </r>
       <r>   21.7183    0.0000 </r>
       <r>   24.9279    0.0000 </r>
      </set>
      <set comment="kpoint 21">
       <r>  -11.5340    1.0000 </r>
       <r>   -2.2651    1.0000 </r>
       <r>    1.2360    1.0000 </r>
       <r>    4.4242    1.0000 </r>
       <r>   18.2734    0.0000 </r>
       <r>   20.8318    0.0000 </r>
       <r>   21.2473    0.0000 </r>
       <r>   23.9313    0.0000 </r>
      </set>
      <set comment="kpoint 22">
       <r>  -12.8885    1.0000 </r>
       <r>   -0.0747    1.0000 </r>
       <r>    2.0226    1.0000 </r>
       <r>    5.2843    1.0000 </r>
       <r>   19.1782    0.0000 </r>
       <r>   19.7195    0.0000 </r>
       <r>   20.1862    0.0000 </r>
       <r>   22.7272    0.0000 </r>
      </set>
      <set comment="kpoint 23">
       <r>  -12.5525    1.0000 </r>
       <r>    0.9267    1.0000 </r>
       <r>    2.6871    1.0000 </r>
       <r>    2.6871    1.0000 </r>
       <r>   14.3717    0.0000 </r>
       <r>   19.2445    0.0000 </r>
       <r>   23.8484    0.0000 </r>
       <r>   23.9278    0.0000 </r>
      </set>
      <set comment="kpoint 24">
       <r>  -11.4551    1.0000 </r>
       <r>   -0.7881    1.0000 </r>
       <r>    1.7546    1.0000 </r>
       <r>    2.2338    1.0000 </r>
       <r>   14.3070    0.0000 </r>
       <r>   19.0698    0.0000 </r>
       <r>   24.6649    0.0000 </r>
       <r>   24.8096    0.0000 </r>
      </set>
      <set comment="kpoint 25">
       <r>  -10.2547    1.0000 </r>
       <r>   -2.3914    1.0000 </r>
       <r>    0.3457    1.0000 </r>
       <r>    2.2286    1.0000 </r>
       <r>   14.9893    0.0000 </r>
       <r>   20.4931    0.0000 </r>
       <r>   24.7314    0.0000 </r>
       <r>   24.8316    0.0000 </r>
      </set>
      <set comment="kpoint 26">
       <r>   -9.6831    1.0000 </r>
       <r>   -3.0117    1.0000 </r>
       <r>   -0.7782    1.0000 </r>
       <r>    2.6683    1.0000 </r>
       <r>   15.8496    0.0000 </r>
       <r>   22.8202    0.0000 </r>
       <r>   23.9510    0.0000 </r>
       <r>   24.9612    0.0000 </r>
      </set>
      <set comment="kpoint 27">
       <r>  -10.3407    1.0000 </r>
       <r>   -2.5040    1.0000 </r>
       <r>   -0.7259    1.0000 </r>
       <r>    3.4691    1.0000 </r>
       <r>   16.9578    0.0000 </r>
       <r>   22.5832    0.0000 </r>
       <r>   23.1830    0.0000 </r>
       <r>   24.6711    0.0000 </r>
      </set>
      <set comment="kpoint 28">
       <r>  -10.6140    1.0000 </r>
       <r>   -1.7539    1.0000 </r>
       <r>    1.6680    1.0000 </r>
       <r>    1.6680    1.0000 </r>
       <r>   13.0534    0.0000 </r>
       <r>   17.9412    0.0000 </r>
       <r>   26.3300    0.0000 </r>
       <r>   26.3850    0.0000 </r>
      </set>
      <set comment="kpoint 29">
       <r>   -9.7376    1.0000 </r>
       <r>   -2.6658    1.0000 </r>
       <r>    0.6672    1.0000 </r>
       <r>    1.5537    1.0000 </r>
       <r>   13.3528    0.0000 </r>
       <r>   18.2896    0.0000 </r>
       <r>   26.6887    0.0000 </r>
       <r>   26.8334    0.0000 </r>
      </set>
      <set comment="kpoint 30">
       <r>   -9.3474    1.0000 </r>
       <r>   -2.5728    1.0000 </r>
       <r>   -1.0307    1.0000 </r>
       <r>    1.9078    1.0000 </r>
       <r>   14.5164    0.0000 </r>
       <r>   20.2114    0.0000 </r>
       <r>   26.1047    0.0000 </r>
       <r>   26.5884    0.0000 </r>
      </set>
      <set comment="kpoint 31">
       <r>   -9.4736    1.0000 </r>
       <r>   -3.1656    1.0000 </r>
       <r>    1.3159    1.0000 </r>
       <r>    1.3159    1.0000 </r>
       <r>   12.5197    0.0000 </r>
       <r>   17.5460    0.0000 </r>
       <r>   27.4183    0.0000 </r>
       <r>   27.4254    0.0000 </r>
      </set>
      <set comment="kpoint 32">
       <r>  -13.8518    1.0000 </r>
       <r>    1.9010    1.0000 </r>
       <r>    3.5089    1.0000 </r>
       <r>    5.2842    1.0000 </r>
       <r>   16.9989    0.0000 </r>
       <r>   20.1261    0.0000 </r>
       <r>   20.6965    0.0000 </r>
       <r>   21.6087    0.0000 </r>
      </set>
      <set comment="kpoint 33">
       <r>  -12.6561    1.0000 </r>
       <r>   -0.6434    1.0000 </r>
       <r>    2.5900    1.0000 </r>
       <r>    4.5871    1.0000 </r>
       <r>   17.7101    0.0000 </r>
       <r>   20.0868    0.0000 </r>
       <r>   21.5979    0.0000 </r>
       <r>   22.4177    0.0000 </r>
      </set>
      <set comment="kpoint 34">
       <r>  -11.2571    1.0000 </r>
       <r>   -3.1644    1.0000 </r>
       <r>    2.3047    1.0000 </r>
       <r>    3.8427    1.0000 </r>
       <r>   18.1440    0.0000 </r>
       <r>   19.6991    0.0000 </r>
       <r>   22.1399    0.0000 </r>
       <r>   23.8786    0.0000 </r>
      </set>
      <set comment="kpoint 35">
       <r>  -10.4693    1.0000 </r>
       <r>   -4.3589    1.0000 </r>
       <r>    2.2806    1.0000 </r>
       <r>    3.5017    1.0000 </r>
       <r>   18.2258    0.0000 </r>
       <r>   19.5516    0.0000 </r>
       <r>   22.2751    0.0000 </r>
       <r>   24.8637    0.0000 </r>
      </set>
      <set comment="kpoint 36">
       <r>  -12.2578    1.0000 </r>
       <r>   -0.0554    1.0000 </r>
       <r>    2.0174    1.0000 </r>
       <r>    3.2167    1.0000 </r>
       <r>   15.6988    0.0000 </r>
       <r>   20.2031    0.0000 </r>
       <r>   22.3617    0.0000 </r>
       <r>   23.8035    0.0000 </r>
      </set>
      <set comment="kpoint 37">
       <r>  -10.9766    1.0000 </r>
       <r>   -1.9428    1.0000 </r>
       <r>    1.1243    1.0000 </r>
       <r>    2.4775    1.0000 </r>
       <r>   16.3982    0.0000 </r>
       <r>   20.8387    0.0000 </r>
       <r>   22.4079    0.0000 </r>
       <r>   24.8035    0.0000 </r>
      </set>
      <set comment="kpoint 38">
       <r>   -9.9766    1.0000 </r>
       <r>   -3.3415    1.0000 </r>
       <r>    0.4669    1.0000 </r>
       <r>    2.3162    1.0000 </r>
       <r>   17.0490    0.0000 </r>
       <r>   21.1870    0.0000 </r>
       <r>   23.6202    0.0000 </r>
       <r>   25.0734    0.0000 </r>
      </set>
      <set comment="kpoint 39">
       <r>  -10.2367    1.0000 </r>
       <r>   -2.9889    1.0000 </r>
       <r>    0.0817    1.0000 </r>
       <r>    2.8485    1.0000 </r>
       <r>   17.7817    0.0000 </r>
       <r>   20.5919    0.0000 </r>
       <r>   23.8044    0.0000 </r>
       <r>   25.0792    0.0000 </r>
      </set>
      <set comment="kpoint 40">
       <r>  -11.4379    1.0000 </r>
       <r>   -1.5667    1.0000 </r>
       <r>    0.6148    1.0000 </r>
       <r>    3.7438    1.0000 </r>
       <r>   18.4294    0.0000 </r>
       <r>   19.7230    0.0000 </r>
       <r>   22.6928    0.0000 </r>
       <r>   23.7092    0.0000 </r>
      </set>
      <set comment="kpoint 41">
       <r>  -10.4062    1.0000 </r>
       <r>   -1.8478    1.0000 </r>
       <r>    1.0257    1.0000 </r>
       <r>    1.3773    1.0000 </r>
       <r>   14.4852    0.0000 </r>
       <r>   19.0845    0.0000 </r>
       <r>   24.7222    0.0000 </r>
       <r>   26.3446    0.0000 </r>
      </set>
      <set comment="kpoint 42">
       <r>   -9.5273    1.0000 </r>
       <r>   -2.4321    1.0000 </r>
       <r>   -0.5058    1.0000 </r>
       <r>    1.2751    1.0000 </r>
       <r>   15.5452    0.0000 </r>
       <r>   20.5633    0.0000 </r>
       <r>   24.2496    0.0000 </r>
       <r>   26.4416    0.0000 </r>
      </set>
      <set comment="kpoint 43">
       <r>   -9.4649    1.0000 </r>
       <r>   -2.2489    1.0000 </r>
       <r>   -1.5661    1.0000 </r>
       <r>    1.8700    1.0000 </r>
       <r>   16.6489    0.0000 </r>
       <r>   22.2772    0.0000 </r>
       <r>   23.8841    0.0000 </r>
       <r>   26.1283    0.0000 </r>
      </set>
      <set comment="kpoint 44">
       <r>   -9.3652    1.0000 </r>
       <r>   -2.8659    1.0000 </r>
       <r>    0.6679    1.0000 </r>
       <r>    0.7181    1.0000 </r>
       <r>   14.0024    0.0000 </r>
       <r>   18.7414    0.0000 </r>
       <r>   26.1858    0.0000 </r>
       <r>   27.1827    0.0000 </r>
      </set>
      <set comment="kpoint 45">
       <r>   -9.9053    1.0000 </r>
       <r>   -2.2134    1.0000 </r>
       <r>   -0.3153    1.0000 </r>
       <r>    1.3565    1.0000 </r>
       <r>   17.5029    0.0000 </r>
       <r>   20.9420    0.0000 </r>
       <r>   22.6175    0.0000 </r>
       <r>   26.1804    0.0000 </r>
      </set>
      <set comment="kpoint 46">
       <r>   -9.3840    1.0000 </r>
       <r>   -2.3951    1.0000 </r>
       <r>   -0.7850    1.0000 </r>
       <r>    0.7947    1.0000 </r>
       <r>   17.9528    0.0000 </r>
       <r>   21.2331    0.0000 </r>
       <r>   23.9535    0.0000 </r>
       <r>   24.5900    0.0000 </r>
      </set>
      <set comment="kpoint 47">
       <r>   -9.1761    1.0000 </r>
       <r>   -2.0445    1.0000 </r>
       <r>   -0.5407    1.0000 </r>
       <r>   -0.2429    1.0000 </r>
       <r>   17.1422    0.0000 </r>
       <r>   21.6778    0.0000 </r>
       <r>   23.1654    0.0000 </r>
       <r>   25.1453    0.0000 </r>
      </set>
     </set>
    </set>
   </array>
  </eigenvalues>
  <separator name="orbital magnetization" >
   <v name="MAGDIPOLOUT">      0.00000000      0.00000000      0.00000000</v>
  </separator>
  <dos>
   <i name="efermi">      6.73335155 </i>
   <total>
    <array>
     <dimension dim="1">gridpoints</dimension>
     <dimension dim="2">spin</dimension>
     <field>energy</field>
     <field>total</field>
     <field>integrated</field>
     <set>
      <set comment="spin 1">
       <r>   -17.7248     0.0000     0.0000 </r>
       <r>   -17.5671     0.0000     0.0000 </r>
       <r>   -17.4094     0.0000     0.0000 </r>
       <r>   -17.2518     0.0000     0.0000 </r>
       <r>   -17.0941     0.0000     0.0000 </r>
       <r>   -16.9364     0.0000     0.0000 </r>
       <r>   -16.7788     0.0000     0.0000 </r>
       <r>   -16.6211     0.0000     0.0000 </r>
       <r>   -16.4634     0.0000     0.0000 </r>
       <r>   -16.3058     0.0000     0.0000 </r>
       <r>   -16.1481     0.0000     0.0000 </r>
       <r>   -15.9904     0.0000     0.0000 </r>
       <r>   -15.8328     0.0000     0.0000 </r>
       <r>   -15.6751     0.0000     0.0000 </r>
       <r>   -15.5174     0.0000     0.0020 </r>
       <r>   -15.3598     0.0000     0.0020 </r>
       <r>   -15.2021     0.0761     0.0300 </r>
       <r>   -15.0444     0.0000     0.0300 </r>
       <r>   -14.8868     0.0000     0.0300 </r>
       <r>   -14.7291     0.0000     0.0540 </r>
       <r>   -14.5714     0.0000     0.1020 </r>
       <r>   -14.4138     0.0000     0.1180 </r>
       <r>   -14.2561     0.0000     0.1180 </r>
       <r>   -14.0984     0.0000     0.1300 </r>
       <r>   -13.9408     0.0853     0.1435 </r>
       <r>   -13.7831     0.0000     0.2260 </r>
       <r>   -13.6254     0.0000     0.2260 </r>
       <r>   -13.4678     0.0000     0.2740 </r>
       <r>   -13.3101     0.0000     0.2740 </r>
       <r>   -13.1524     0.0000     0.3380 </r>
       <r>   -12.9948     0.0000     0.3380 </r>
       <r>   -12.8371     0.0000     0.3620 </r>
       <r>   -12.6794     0.0000     0.3620 </r>
       <r>   -12.5218     0.0761     0.5180 </r>
       <r>   -12.3641     0.0000     0.5180 </r>
       <r>   -12.2064     0.0000     0.5660 </r>
       <r>   -12.0488     0.0000     0.6140 </r>
       <r>   -11.8911     0.0000     0.6620 </r>
       <r>   -11.7334     0.0000     0.6780 </r>
       <r>   -11.5758     0.0000     0.6780 </r>
       <r>   -11.4181     0.6089     0.8220 </r>
       <r>   -11.2604     0.1047     0.8385 </r>
       <r>   -11.1028     0.0000     0.9660 </r>
       <r>   -10.9451     0.6596     1.0700 </r>
       <r>   -10.7874     0.0000     1.1180 </r>
       <r>   -10.6298     0.0000     1.1660 </r>
       <r>   -10.4721     0.0667     1.1885 </r>
       <r>   -10.3144     0.1522     1.3460 </r>
       <r>   -10.1567     0.0000     1.4900 </r>
       <r>    -9.9991     0.0000     1.4900 </r>
       <r>    -9.8414     0.0000     1.6340 </r>
       <r>    -9.6837     0.1287     1.7023 </r>
       <r>    -9.5261     0.3835     1.7905 </r>
       <r>    -9.3684     0.3325     1.9324 </r>
       <r>    -9.2107     0.0000     1.9760 </r>
       <r>    -9.0531     0.0000     2.0000 </r>
       <r>    -8.8954     0.0000     2.0000 </r>
       <r>    -8.7377     0.0000     2.0000 </r>
       <r>    -8.5801     0.0000     2.0000 </r>
       <r>    -8.4224     0.0000     2.0000 </r>
       <r>    -8.2647     0.0000     2.0000 </r>
       <r>    -8.1071     0.0000     2.0000 </r>
       <r>    -7.9494     0.0000     2.0000 </r>
       <r>    -7.7917     0.0000     2.0000 </r>
       <r>    -7.6341     0.0000     2.0000 </r>
       <r>    -7.4764     0.0000     2.0000 </r>
       <r>    -7.3187     0.0000     2.0000 </r>
       <r>    -7.1611     0.0000     2.0000 </r>
       <r>    -7.0034     0.0000     2.0000 </r>
       <r>    -6.8457     0.0000     2.0000 </r>
       <r>    -6.6881     0.0000     2.0000 </r>
       <r>    -6.5304     0.0000     2.0000 </r>
       <r>    -6.3727     0.0000     2.0000 </r>
       <r>    -6.2151     0.0000     2.0000 </r>
       <r>    -6.0574     0.0000     2.0000 </r>
       <r>    -5.8997     0.0000     2.0000 </r>
       <r>    -5.7421     0.0000     2.0000 </r>
       <r>    -5.5844     0.0000     2.0000 </r>
       <r>    -5.4267     0.0000     2.0000 </r>
       <r>    -5.2691     0.0000     2.0000 </r>
       <r>    -5.1114     0.0000     2.0000 </r>
       <r>    -4.9537     0.0000     2.0080 </r>
       <r>    -4.7961     0.0000     2.0080 </r>
       <r>    -4.6384     0.3044     2.0560 </r>
       <r>    -4.4807     0.0000     2.0560 </r>
       <r>    -4.3231     0.3044     2.1040 </r>
       <r>    -4.1654     0.0000     2.1520 </r>
       <r>    -4.0077     0.0000     2.1520 </r>
       <r>    -3.8501     0.0000     2.2000 </r>
       <r>    -3.6924     0.0000     2.2160 </r>
       <r>    -3.5347     0.0000     2.2640 </r>
       <r>    -3.3771     0.0000     2.2640 </r>
       <r>    -3.2194     0.0000     2.3600 </r>
       <r>    -3.0617     0.0000     2.4620 </r>
       <r>    -2.9041     0.0000     2.6060 </r>
       <r>    -2.7464     0.0000     2.6300 </r>
       <r>    -2.5887     0.0000     2.7260 </r>
       <r>    -2.4311     0.3784     2.8337 </r>
       <r>    -2.2734     0.0029     2.9665 </r>
       <r>    -2.1157     0.0000     3.1100 </r>
       <r>    -1.9581     0.0000     3.1340 </r>
       <r>    -1.8004     0.2859     3.3231 </r>
       <r>    -1.6427     0.0000     3.3380 </r>
       <r>    -1.4851     0.0000     3.4340 </r>
       <r>    -1.3274     0.0000     3.4820 </r>
       <r>    -1.1697     0.0000     3.4820 </r>
       <r>    -1.0121     0.1522     3.5060 </r>
       <r>    -0.8544     0.0000     3.5220 </r>
       <r>    -0.6967     0.1522     3.6900 </r>
       <r>    -0.5390     0.1029     3.8022 </r>
       <r>    -0.3814     0.0000     3.9060 </r>
       <r>    -0.2237     0.1522     3.9780 </r>
       <r>    -0.0660     0.1515     4.0019 </r>
       <r>     0.0916     0.6073     4.1458 </r>
       <r>     0.2493     0.3044     4.1940 </r>
       <r>     0.4070     0.0000     4.2420 </r>
       <r>     0.5646     0.0000     4.3380 </r>
       <r>     0.7223     0.1343     4.4792 </r>
       <r>     0.8800     0.0000     4.5300 </r>
       <r>     1.0376     0.3043     4.5900 </r>
       <r>     1.1953     0.0000     4.6860 </r>
       <r>     1.3530     0.2519     4.9657 </r>
       <r>     1.5106     0.0000     5.0820 </r>
       <r>     1.6683     0.0808     5.1427 </r>
       <r>     1.8260     0.0000     5.2020 </r>
       <r>     1.9836     0.3044     5.3700 </r>
       <r>     2.1413     0.0000     5.4420 </r>
       <r>     2.2990     0.3370     5.5911 </r>
       <r>     2.4566     0.0000     5.7940 </r>
       <r>     2.6143     0.6089     5.9860 </r>
       <r>     2.7720     0.0000     6.0580 </r>
       <r>     2.9296     0.0000     6.2020 </r>
       <r>     3.0873     0.0000     6.2020 </r>
       <r>     3.2450     0.3044     6.3460 </r>
       <r>     3.4026     0.0000     6.3940 </r>
       <r>     3.5603     0.0000     6.6100 </r>
       <r>     3.7180     0.0000     6.7180 </r>
       <r>     3.8756     0.6089     6.9580 </r>
       <r>     4.0333     0.1522     6.9820 </r>
       <r>     4.1910     0.0000     7.1260 </r>
       <r>     4.3486     0.3044     7.1980 </r>
       <r>     4.5063     0.3075     7.2945 </r>
       <r>     4.6640     0.0000     7.4540 </r>
       <r>     4.8216     0.0000     7.4860 </r>
       <r>     4.9793     0.0000     7.4860 </r>
       <r>     5.1370     0.4702     7.6081 </r>
       <r>     5.2946     0.4559     7.7579 </r>
       <r>     5.4523     0.0000     7.7740 </r>
       <r>     5.6100     0.0000     7.7740 </r>
       <r>     5.7676     0.0000     7.8220 </r>
       <r>     5.9253     0.0000     7.9380 </r>
       <r>     6.0830     0.0000     7.9380 </r>
       <r>     6.2406     0.0000     7.9380 </r>
       <r>     6.3983     0.0000     7.9380 </r>
       <r>     6.5560     0.0000     7.9940 </r>
       <r>     6.7136     0.0378     8.0000 </r>
       <r>     6.8713     0.0000     8.0000 </r>
       <r>     7.0290     0.0000     8.0000 </r>
       <r>     7.1866     0.0000     8.0000 </r>
       <r>     7.3443     0.0000     8.0000 </r>
       <r>     7.5020     0.0000     8.0000 </r>
       <r>     7.6596     0.0000     8.0000 </r>
       <r>     7.8173     0.0000     8.0000 </r>
       <r>     7.9750     0.0000     8.0000 </r>
       <r>     8.1326     0.0000     8.0000 </r>
       <r>     8.2903     0.0000     8.0000 </r>
       <r>     8.4480     0.0000     8.0000 </r>
       <r>     8.6056     0.0000     8.0000 </r>
       <r>     8.7633     0.0000     8.0000 </r>
       <r>     8.9210     0.0000     8.0000 </r>
       <r>     9.0787     0.0000     8.0000 </r>
       <r>     9.2363     0.0000     8.0000 </r>
       <r>     9.3940     0.0000     8.0000 </r>
       <r>     9.5517     0.0000     8.0000 </r>
       <r>     9.7093     0.0000     8.0000 </r>
       <r>     9.8670     0.0000     8.0000 </r>
       <r>    10.0247     0.0000     8.0000 </r>
       <r>    10.1823     0.0000     8.0000 </r>
       <r>    10.3400     0.0000     8.0000 </r>
       <r>    10.4977     0.0000     8.0000 </r>
       <r>    10.6553     0.0000     8.0000 </r>
       <r>    10.8130     0.0000     8.0000 </r>
       <r>    10.9707     0.0000     8.0000 </r>
       <r>    11.1283     0.0000     8.0000 </r>
       <r>    11.2860     0.0000     8.0000 </r>
       <r>    11.4437     0.0000     8.0000 </r>
       <r>    11.6013     0.0000     8.0000 </r>
       <r>    11.7590     0.0000     8.0000 </r>
       <r>    11.9167     0.0000     8.0000 </r>
       <r>    12.0743     0.0000     8.0000 </r>
       <r>    12.2320     0.0000     8.0000 </r>
       <r>    12.3897     0.0000     8.0000 </r>
       <r>    12.5473     0.0381     8.0060 </r>
       <r>    12.7050     0.0000     8.0060 </r>
       <r>    12.8627     0.0000     8.0060 </r>
       <r>    13.0203     0.0000     8.0060 </r>
       <r>    13.1780     0.0000     8.0180 </r>
       <r>    13.3357     0.0000     8.0180 </r>
       <r>    13.4933     0.0000     8.0660 </r>
       <r>    13.6510     0.0000     8.0660 </r>
       <r>    13.8087     0.0000     8.0660 </r>
       <r>    13.9663     0.0000     8.0660 </r>
       <r>    14.1240     0.0000     8.0900 </r>
       <r>    14.2817     0.0000     8.0900 </r>
       <r>    14.4393     0.0000     8.1500 </r>
       <r>    14.5970     0.0000     8.2220 </r>
       <r>    14.7547     0.0000     8.2220 </r>
       <r>    14.9123     0.0000     8.2220 </r>
       <r>    15.0700     0.0000     8.2700 </r>
       <r>    15.2277     0.0000     8.2700 </r>
       <r>    15.3853     0.0000     8.2700 </r>
       <r>    15.5430     0.1633     8.2957 </r>
       <r>    15.7007     0.2158     8.4000 </r>
       <r>    15.8583     0.3024     8.5217 </r>
       <r>    16.0160     0.0000     8.5220 </r>
       <r>    16.1737     0.0000     8.5220 </r>
       <r>    16.3313     0.0000     8.5700 </r>
       <r>    16.4890     0.0000     8.6660 </r>
       <r>    16.6467     0.0795     8.6785 </r>
       <r>    16.8043     0.0000     8.7620 </r>
       <r>    16.9620     0.1344     8.8432 </r>
       <r>    17.1197     0.0000     8.9900 </r>
       <r>    17.2773     0.0000     9.0140 </r>
       <r>    17.4350     0.0000     9.0680 </r>
       <r>    17.5927     0.0000     9.1700 </r>
       <r>    17.7503     0.0000     9.2820 </r>
       <r>    17.9080     0.0000     9.4100 </r>
       <r>    18.0657     0.1015     9.5820 </r>
       <r>    18.2234     0.0749     9.6898 </r>
       <r>    18.3810     0.3044     9.8700 </r>
       <r>    18.5387     0.0000     9.9580 </r>
       <r>    18.6964     0.4043    10.0537 </r>
       <r>    18.8540     0.1522    10.2060 </r>
       <r>    19.0117     0.0000    10.2060 </r>
       <r>    19.1694     0.0010    10.3522 </r>
       <r>    19.3270     0.0910    10.4823 </r>
       <r>    19.4847     0.4660    10.6375 </r>
       <r>    19.6424     0.2879    10.8014 </r>
       <r>    19.8000     0.2586    11.0608 </r>
       <r>    19.9577     0.0041    11.1646 </r>
       <r>    20.1154     0.6092    11.2881 </r>
       <r>    20.2730     0.0000    11.4800 </r>
       <r>    20.4307     0.0277    11.5324 </r>
       <r>    20.5884     0.7043    11.7350 </r>
       <r>    20.7460     0.0000    11.9120 </r>
       <r>    20.9037     0.0000    12.0680 </r>
       <r>    21.0614     0.0000    12.1640 </r>
       <r>    21.2190     0.9105    12.3076 </r>
       <r>    21.3767     0.3044    12.4520 </r>
       <r>    21.5344     0.0000    12.4520 </r>
       <r>    21.6920     0.4567    12.6680 </r>
       <r>    21.8497     0.0000    12.7320 </r>
       <r>    22.0074     0.0000    12.8280 </r>
       <r>    22.1650     0.9133    12.9720 </r>
       <r>    22.3227     0.0000    13.2120 </r>
       <r>    22.4804     0.0000    13.5000 </r>
       <r>    22.6380     0.3044    13.6200 </r>
       <r>    22.7957     0.0000    13.6920 </r>
       <r>    22.9534     0.0000    13.7400 </r>
       <r>    23.1110     0.0000    13.7400 </r>
       <r>    23.2687     0.1015    13.8040 </r>
       <r>    23.4264     0.0000    13.8040 </r>
       <r>    23.5840     0.3044    13.9000 </r>
       <r>    23.7417     0.3044    14.0920 </r>
       <r>    23.8994     0.9133    14.3920 </r>
       <r>    24.0570     0.1015    14.5640 </r>
       <r>    24.2147     0.0000    14.5640 </r>
       <r>    24.3724     0.0000    14.6680 </r>
       <r>    24.5300     0.3044    14.7640 </r>
       <r>    24.6877     0.4567    14.8840 </r>
       <r>    24.8454     0.6089    15.1720 </r>
       <r>    25.0030     0.0000    15.3160 </r>
       <r>    25.1607     0.1522    15.5320 </r>
       <r>    25.3184     0.0000    15.5320 </r>
       <r>    25.4760     0.0000    15.5320 </r>
       <r>    25.6337     0.0000    15.5320 </r>
       <r>    25.7914     0.0000    15.5320 </r>
       <r>    25.9490     0.0000    15.5320 </r>
       <r>    26.1067     0.1095    15.5493 </r>
       <r>    26.2644     0.0000    15.6760 </r>
       <r>    26.4220     0.0761    15.7480 </r>
       <r>    26.5797     0.0011    15.8442 </r>
       <r>    26.7374     0.0000    15.9160 </r>
       <r>    26.8950     0.0000    15.9640 </r>
       <r>    27.0527     0.0000    15.9640 </r>
       <r>    27.2104     0.1522    15.9880 </r>
       <r>    27.3680     0.0000    15.9880 </r>
       <r>    27.5257     0.0000    16.0000 </r>
       <r>    27.6834     0.0000    16.0000 </r>
       <r>    27.8411     0.0000    16.0000 </r>
       <r>    27.9987     0.0000    16.0000 </r>
       <r>    28.1564     0.0000    16.0000 </r>
       <r>    28.3141     0.0000    16.0000 </r>
       <r>    28.4717     0.0000    16.0000 </r>
       <r>    28.6294     0.0000    16.0000 </r>
       <r>    28.7871     0.0000    16.0000 </r>
       <r>    28.9447     0.0000    16.0000 </r>
       <r>    29.1024     0.0000    16.0000 </r>
       <r>    29.2601     0.0000    16.0000 </r>
       <r>    29.4177     0.0000    16.0000 </r>
       <r>    29.5754     0.0000    16.0000 </r>
      </set>
     </set>
    </array>
   </total>
  </dos>
 </calculation>
 <structure name="finalpos" >
  <crystal>
   <varray name="basis" >
    <v>       2.54412250      -0.00000000      -0.00000000 </v>
    <v>       1.27206125       2.20327471       0.00000000 </v>
    <v>       1.27206125       0.73442490       2.07726732 </v>
   </varray>
   <i name="volume">     11.64391585 </i>
   <varray name="rec_basis" >
    <v>       0.39306283      -0.22693493      -0.16046723 </v>
    <v>       0.00000000       0.45386987      -0.16046723 </v>
    <v>       0.00000000      -0.00000000       0.48140169 </v>
   </varray>
  </crystal>
  <varray name="positions" >
   <v>       0.00000000      -0.00000000      -0.00000000 </v>
   <v>       0.25000000       0.25000000       0.25000000 </v>
  </varray>
 </structure>
</modeling>
