
     Program PWSCF v.7.4.1 starts on 31Jul2026 at 21:48:12 

     This program is part of the open-source Quantum ESPRESSO suite
     for quantum simulation of materials; please cite
         "P. Giannozzi et al., J. Phys.:Condens. Matter 21 395502 (2009);
         "P. Giannozzi et al., J. Phys.:Condens. Matter 29 465901 (2017);
         "P. Giannozzi et al., J. Chem. Phys. 152 154105 (2020);
          URL http://www.quantum-espresso.org", 
     in publications or presentations arising from this work. More details at
     http://www.quantum-espresso.org/quote

     Parallel version (MPI), running on    40 processors

     MPI processes distributed on     1 nodes
     265186 MiB available memory on the printing compute node when the environment starts
 
     Reading input from diamond_pd_scf.in

     Current dimensions of program PWSCF are:
     Max number of different atomic species (ntypx) = 10
     Max number of k-points (npk) =  40000
     Max angular momentum in pseudopotentials (lmaxx) =  4
     file C.pbe-n-kjpaw_psl.1.0.0.UPF: wavefunction(s)  2S 2P renormalized
     file N.pbe-n-kjpaw_psl.1.0.0.UPF: wavefunction(s)  2S renormalized
 
     R & G space division:  proc/nbgrp/npool/nimage =      40
     Subspace diagonalization in iterative solution of the eigenvalue problem:
     one sub-group per band group will be used
     scalapack distributed-memory algorithm (size of sub-group:  6*  6 procs)

 
     Parallelization info
     --------------------
     sticks:   dense  smooth     PW     G-vecs:    dense   smooth      PW
     Min         146     146     36                 8464     8464    1056
     Max         147     147     37                 8471     8471    1063
     Sum        5877    5877   1473               338755   338755   42379
 
     Using Slab Decomposition
 


     bravais-lattice index     =            0
     lattice parameter (alat)  =      20.2515  a.u.
     unit-cell volume          =    8305.5769 (a.u.)^3
     number of atoms/cell      =          215
     number of atomic types    =            2
     number of electrons       =       862.00 (up: 432.00, down: 430.00)
     number of Kohn-Sham states=          862
     kinetic-energy cutoff     =      45.0000  Ry
     charge density cutoff     =     180.0000  Ry
     scf convergence threshold =      1.0E-08
     mixing beta               =       0.7000
     number of iterations used =            8  plain     mixing
     Exchange-correlation= SLA  PW   PBX  PBC
                           (   1   4   3   4   0   0   0)

     celldm(1)=  20.251472  celldm(2)=   0.000000  celldm(3)=   0.000000
     celldm(4)=   0.000000  celldm(5)=   0.000000  celldm(6)=   0.000000

     crystal axes: (cart. coord. in units of alat)
               a(1) = (  -0.707107   0.000000   0.707107 )  
               a(2) = (   0.408248   0.816497   0.408248 )  
               a(3) = (  -0.577350   0.577350  -0.577350 )  

     reciprocal axes: (cart. coord. in units 2 pi/alat)
               b(1) = ( -0.707107  0.000000  0.707107 )  
               b(2) = (  0.408248  0.816497  0.408248 )  
               b(3) = ( -0.577350  0.577350 -0.577350 )  


     PseudoPot. # 1 for C  read from file:
     ../../../pseudos/C.pbe-n-kjpaw_psl.1.0.0.UPF
     MD5 check sum: 5f16ad9a65e90284d1d834d4ab3b0f7d
     Pseudo is Projector augmented-wave + core cor, Zval =  4.0
     Generated using &quot;atomic&quot; code by A. Dal Corso  v.6.3
     Shape of augmentation charge: PSQ
     Using radial grid of 1073 points,  4 beta functions with: 
                l(1) =   0
                l(2) =   0
                l(3) =   1
                l(4) =   1
     Q(r) pseudized with 0 coefficients 


     PseudoPot. # 2 for N  read from file:
     ../../../pseudos/N.pbe-n-kjpaw_psl.1.0.0.UPF
     MD5 check sum: a6186d50559fdcbe4b2d0187dd61a119
     Pseudo is Projector augmented-wave + core cor, Zval =  5.0
     Generated using &quot;atomic&quot; code by A. Dal Corso  v.6.3
     Shape of augmentation charge: PSQ
     Using radial grid of 1085 points,  4 beta functions with: 
                l(1) =   0
                l(2) =   0
                l(3) =   1
                l(4) =   1
     Q(r) pseudized with 0 coefficients 


     atomic species   valence    mass     pseudopotential
     C                 4.00    12.01070     C ( 1.00)
     N                 5.00    14.00670     N ( 1.00)

     Starting magnetic structure 
     atomic species   magnetization
     C               0.000
     N               0.000

     No symmetry found


                                    s                        frac. trans.

      isym =  1     identity                                     

 cryst.   s( 1) = (     1          0          0      )
                  (     0          1          0      )
                  (     0          0          1      )

 cart.    s( 1) = (  1.0000000  0.0000000  0.0000000 )
                  (  0.0000000  1.0000000  0.0000000 )
                  (  0.0000000  0.0000000  1.0000000 )


   Cartesian axes

     site n.     atom                  positions (alat units)
         1        C      tau(   1) = (  -0.0001084   0.0001513   0.0000716  )
         2        C      tau(   2) = (  -0.1925730   0.1927703  -0.1921765  )
         3        C      tau(   3) = (  -0.3849160   0.3850699  -0.3848692  )
         4        C      tau(   4) = (   0.1357380   0.2724319   0.1361346  )
         5        C      tau(   5) = (  -0.0569096   0.4653583  -0.0560052  )
         6        C      tau(   6) = (  -0.2488149   0.6573264  -0.2488700  )
         7        C      tau(   7) = (   0.2720949   0.5444875   0.2721418  )
         8        C      tau(   8) = (   0.0797051   0.7370387   0.0796501  )
         9        C      tau(   9) = (  -0.1128283   0.9291416  -0.1126193  )
        10        C      tau(  10) = (  -0.2357756   0.0001121   0.2357484  )
        11        C      tau(  11) = (  -0.4283078   0.1925369   0.0432320  )
        12        C      tau(  12) = (  -0.6204825   0.3850805  -0.1490298  )
        13        C      tau(  13) = (  -0.0996248   0.2722888   0.3719150  )
        14        C      tau(  14) = (  -0.2950107   0.4647859   0.1822347  )
        15        C      tau(  15) = (  -0.4822829   0.6579144  -0.0122862  )
        16        C      tau(  16) = (   0.0362608   0.5444331   0.5077135  )
        17        C      tau(  17) = (  -0.1569282   0.7368587   0.3130686  )
        18        C      tau(  18) = (  -0.3488245   0.9290965   0.1233878  )
        19        C      tau(  19) = (  -0.4714238  -0.0000265   0.4714302  )
        20        C      tau(  20) = (  -0.6640801   0.1922170   0.2789293  )
        21        C      tau(  21) = (  -0.8561791   0.3850821   0.0865461  )
        22        C      tau(  22) = (  -0.3352488   0.2720048   0.6077605  )
        23        C      tau(  23) = (  -0.5283127   0.4639751   0.4157334  )
        24        C      tau(  24) = (  -0.7188649   0.6568275   0.2225759  )
        25        C      tau(  25) = (  -0.1993188   0.5444631   0.7434064  )
        26        C      tau(  26) = (  -0.3915833   0.7362394   0.5498575  )
        27        C      tau(  27) = (  -0.5840911   0.9293409   0.3585952  )
        28        C      tau(  28) = (  -0.0499439   0.1363627   0.1859318  )
        29        C      tau(  29) = (  -0.2427543   0.3296308  -0.0055779  )
        30        C      tau(  30) = (  -0.4347036   0.5212052  -0.1989281  )
        31        C      tau(  31) = (   0.0860232   0.4084807   0.3219990  )
        32        C      tau(  32) = (  -0.1078353   0.6027354   0.1298556  )
        33        C      tau(  33) = (  -0.2989116   0.7927305  -0.0628899  )
        34        C      tau(  34) = (   0.2222823   0.6805772   0.4580444  )
        35        C      tau(  35) = (   0.0298978   0.8731135   0.2655313  )
        36        C      tau(  36) = (  -0.1626525   1.0652628   0.0733261  )
        37        C      tau(  37) = (  -0.2854332   0.1359048   0.4218449  )
        38        C      tau(  38) = (  -0.4784176   0.3276581   0.2295227  )
        39        C      tau(  39) = (  -0.6692778   0.5213504   0.0375107  )
        40        C      tau(  40) = (  -0.1494000   0.4082771   0.5576781  )
        41        C      tau(  41) = (  -0.3435864   0.5974989   0.3635208  )
        42        C      tau(  42) = (  -0.5318464   0.7933263   0.1726900  )
        43        C      tau(  43) = (  -0.0136178   0.6804780   0.6935358  )
        44        C      tau(  44) = (  -0.2060282   0.8727552   0.5005085  )
        45        C      tau(  45) = (  -0.3982377   1.0655554   0.3087816  )
        46        C      tau(  46) = (  -0.5212686   0.1361527   0.6574544  )
        47        C      tau(  47) = (  -0.7139734   0.3285297   0.4651355  )
        48        C      tau(  48) = (  -0.9059805   0.5211430   0.2724085  )
        49        C      tau(  49) = (  -0.3851938   0.4083330   0.7933871  )
        50        C      tau(  50) = (  -0.5777470   0.6008150   0.6009491  )
        51        C      tau(  51) = (  -0.7698605   0.7931919   0.4084601  )
        52        C      tau(  52) = (  -0.2491257   0.6804796   0.9294171  )
        53        C      tau(  53) = (  -0.4414801   0.8727978   0.7367578  )
        54        C      tau(  54) = (  -0.6339504   1.0654454   0.5445408  )
        55        C      tau(  55) = (  -0.2141842   0.0965113   0.0216916  )
        56        C      tau(  56) = (  -0.4066113   0.2889475  -0.1706354  )
        57        C      tau(  57) = (  -0.5990037   0.4812998  -0.3632416  )
        58        C      tau(  58) = (  -0.0792180   0.3693113   0.1579584  )
        59        C      tau(  59) = (  -0.2712920   0.5630741  -0.0336011  )
        60        C      tau(  60) = (  -0.4628781   0.7535460  -0.2272447  )
        61        C      tau(  61) = (   0.0579599   0.6407454   0.2937353  )
        62        C      tau(  62) = (  -0.1343044   0.8326709   0.1017174  )
        63        C      tau(  63) = (  -0.3269653   1.0253938  -0.0909867  )
        64        C      tau(  64) = (  -0.4499772   0.0959797   0.2573009  )
        65        C      tau(  65) = (  -0.6422350   0.2886953   0.0648431  )
        66        C      tau(  66) = (  -0.8344834   0.4813026  -0.1273298  )
        67        C      tau(  67) = (  -0.3138697   0.3675841   0.3940706  )
        68        C      tau(  68) = (  -0.5037826   0.5586287   0.2033246  )
        69        C      tau(  69) = (  -0.6977981   0.7534318   0.0087386  )
        70        C      tau(  70) = (  -0.1784598   0.6404429   0.5283287  )
        71        C      tau(  71) = (  -0.3699491   0.8326092   0.3345874  )
        72        C      tau(  72) = (  -0.5624935   1.0257002   0.1445259  )
        73        C      tau(  73) = (  -0.6856516   0.0962667   0.4930714  )
        74        C      tau(  74) = (  -0.8779596   0.2887680   0.3006213  )
        75        C      tau(  75) = (  -1.0703544   0.4812161   0.1081884  )
        76        C      tau(  76) = (  -0.5496863   0.3683924   0.6294226  )
        77        C      tau(  77) = (  -0.7418991   0.5609850   0.4367970  )
        78        C      tau(  78) = (  -0.9340346   0.7532840   0.2442033  )
        79        C      tau(  79) = (  -0.4133604   0.6406727   0.7650286  )
        80        C      tau(  80) = (  -0.6057516   0.8330114   0.5725690  )
        81        C      tau(  81) = (  -0.7982254   1.0255856   0.3802658  )
        82        C      tau(  82) = (  -0.0285463   0.2327019  -0.0279167  )
        83        C      tau(  83) = (  -0.2207295   0.4249030  -0.2207834  )
        84        C      tau(  84) = (  -0.4130968   0.6173898  -0.4130122  )
        85        C      tau(  85) = (   0.1080075   0.5046680   0.1079537  )
        86        C      tau(  86) = (  -0.0848896   0.6972730  -0.0842972  )
        87        C      tau(  87) = (  -0.2770116   0.8897324  -0.2776943  )
        88        C      tau(  88) = (   0.2438690   0.7767965   0.2439537  )
        89        C      tau(  89) = (   0.0521203   0.9695932   0.0514375  )
        90        C      tau(  90) = (  -0.1410008   1.1615659  -0.1408424  )
        91        C      tau(  91) = (  -0.2640842   0.2316198   0.2078838  )
        92        C      tau(  92) = (  -0.4562007   0.4251910   0.0154678  )
        93        C      tau(  93) = (  -0.6488086   0.6173205  -0.1775380  )
        94        C      tau(  94) = (  -0.1282892   0.5047556   0.3433793  )
        95        C      tau(  95) = (  -0.5123487   0.8894120  -0.0411145  )
        96        C      tau(  96) = (   0.0084044   0.7767871   0.4796750  )
        97        C      tau(  97) = (  -0.1843484   0.9689982   0.2868858  )
        98        C      tau(  98) = (  -0.3768131   1.1623933   0.0947692  )
        99        C      tau(  99) = (  -0.4997708   0.2320742   0.4434602  )
       100        C      tau( 100) = (  -0.6925246   0.4242010   0.2511648  )
       101        C      tau( 101) = (  -0.8840830   0.6172573   0.0585104  )
       102        C      tau( 102) = (  -0.3637709   0.5039700   0.5799186  )
       103        C      tau( 103) = (  -0.5556315   0.6968424   0.3865491  )
       104        C      tau( 104) = (  -0.7484888   0.8896548   0.1944776  )
       105        C      tau( 105) = (  -0.2276070   0.7765451   0.7149864  )
       106        C      tau( 106) = (  -0.4200135   0.9693563   0.5229529  )
       107        C      tau( 107) = (  -0.6123057   1.1616385   0.3304450  )
       108        C      tau( 108) = (  -0.0732005   0.1164469   0.0449458  )
       109        C      tau( 109) = (  -0.2657257   0.3091850  -0.1471795  )
       110        C      tau( 110) = (  -0.4579461   0.5012115  -0.3400326  )
       111        C      tau( 111) = (   0.0624966   0.3888251   0.1810429  )
       112        C      tau( 112) = (  -0.1300831   0.5816260  -0.0110430  )
       113        C      tau( 113) = (  -0.3215774   0.7742584  -0.2050463  )
       114        C      tau( 114) = (   0.1990774   0.6606321   0.3169908  )
       115        C      tau( 115) = (   0.0074928   0.8541042   0.1240239  )
       116        C      tau( 116) = (  -0.1858351   1.0454118  -0.0678244  )
       117        C      tau( 117) = (  -0.3087828   0.1157862   0.2806884  )
       118        C      tau( 118) = (  -0.5012737   0.3085631   0.0882479  )
       119        C      tau( 119) = (  -0.6931161   0.5012939  -0.1040034  )
       120        C      tau( 120) = (  -0.1727876   0.3882672   0.4167341  )
       121        C      tau( 121) = (  -0.5565315   0.7733105   0.0320376  )
       122        C      tau( 122) = (  -0.0369467   0.6605073   0.5521660  )
       123        C      tau( 123) = (  -0.2293068   0.8527086   0.3592623  )
       124        C      tau( 124) = (  -0.4213594   1.0468677   0.1673467  )
       125        C      tau( 125) = (  -0.5445385   0.1160941   0.5163694  )
       126        C      tau( 126) = (  -0.7372467   0.3083770   0.3239722  )
       127        C      tau( 127) = (  -0.9291365   0.5011816   0.1314133  )
       128        C      tau( 128) = (  -0.4084751   0.3881504   0.6527437  )
       129        C      tau( 129) = (  -0.6008788   0.5806903   0.4599797  )
       130        C      tau( 130) = (  -0.7926403   0.7732007   0.2674293  )
       131        C      tau( 131) = (  -0.2723542   0.6605437   0.7881956  )
       132        C      tau( 132) = (  -0.4646931   0.8527740   0.5953765  )
       133        C      tau( 133) = (  -0.6571724   1.0455076   0.4034898  )
       134        C      tau( 134) = (  -0.1231356   0.2524727   0.2308859  )
       135        C      tau( 135) = (  -0.3162656   0.4466105   0.0397056  )
       136        C      tau( 136) = (  -0.5082642   0.6372095  -0.1543792  )
       137        C      tau( 137) = (   0.0129853   0.5246044   0.3667062  )
       138        C      tau( 138) = (  -0.1703121   0.7198102   0.1746867  )
       139        C      tau( 139) = (  -0.3715182   0.9092736  -0.0179196  )
       140        C      tau( 140) = (   0.1493262   0.7967729   0.5030433  )
       141        C      tau( 141) = (  -0.0432421   0.9891665   0.3104149  )
       142        C      tau( 142) = (  -0.2355705   1.1817506   0.1180432  )
       143        C      tau( 143) = (  -0.3585841   0.2517883   0.4668599  )
       144        C      tau( 144) = (  -0.5522611   0.4433628   0.2747203  )
       145        C      tau( 145) = (  -0.7426577   0.6372641   0.0817596  )
       146        C      tau( 146) = (  -0.2226567   0.5243681   0.6022999  )
       147        C      tau( 147) = (  -0.4148885   0.7160537   0.4077698  )
       148        C      tau( 148) = (  -0.6079246   0.9094880   0.2175623  )
       149        C      tau( 149) = (  -0.0865482   0.7964687   0.7384165  )
       150        C      tau( 150) = (  -0.2789249   0.9889573   0.5459734  )
       151        C      tau( 151) = (  -0.4711716   1.1816602   0.3537682  )
       152        C      tau( 152) = (  -0.5945221   0.2524276   0.7023501  )
       153        C      tau( 153) = (  -0.7868931   0.4449017   0.5098864  )
       154        C      tau( 154) = (  -0.9790152   0.6372635   0.3172155  )
       155        C      tau( 155) = (  -0.4580986   0.5244370   0.8381327  )
       156        C      tau( 156) = (  -0.6507294   0.7170019   0.6457379  )
       157        C      tau( 157) = (  -0.8430104   0.9094553   0.4531873  )
       158        C      tau( 158) = (  -0.3221768   0.7966606   0.9743173  )
       159        C      tau( 159) = (  -0.5143417   0.9893900   0.7817385  )
       160        C      tau( 160) = (  -0.7070083   1.1815388   0.5894519  )
       161        C      tau( 161) = (  -0.2873131   0.2126365   0.0667084  )
       162        C      tau( 162) = (  -0.4794992   0.4051076  -0.1257782  )
       163        C      tau( 163) = (  -0.6721896   0.5974397  -0.3184725  )
       164        C      tau( 164) = (  -0.1528811   0.4862542   0.2030901  )
       165        C      tau( 165) = (  -0.3442225   0.6776125   0.0007763  )
       166        C      tau( 166) = (  -0.5359237   0.8696219  -0.1822668  )
       167        C      tau( 167) = (  -0.0147611   0.7569534   0.3391239  )
       168        C      tau( 168) = (  -0.2075344   0.9490627   0.1460642  )
       169        C      tau( 169) = (  -0.3999452   1.1418666  -0.0463315  )
       170        C      tau( 170) = (  -0.5231108   0.2118675   0.3023332  )
       171        C      tau( 171) = (  -0.7150386   0.4048962   0.1099180  )
       172        C      tau( 172) = (  -0.9075055   0.5972710  -0.0825407  )
       173        C      tau( 173) = (  -0.3871583   0.4834234   0.4398231  )
       174        C      tau( 174) = (  -0.5767488   0.6767798   0.2459095  )
       175        C      tau( 175) = (  -0.7714365   0.8694539   0.0534618  )
       176        C      tau( 176) = (  -0.2508629   0.7565935   0.5735544  )
       177        C      tau( 177) = (  -0.4430933   0.9494828   0.3823936  )
       178        C      tau( 178) = (  -0.6356453   1.1417522   0.1892944  )
       179        C      tau( 179) = (  -0.7587645   0.2125757   0.5381078  )
       180        C      tau( 180) = (  -0.9508764   0.4048690   0.3453549  )
       181        C      tau( 181) = (  -1.1434437   0.5973879   0.1530504  )
       182        C      tau( 182) = (  -0.6226719   0.4847484   0.6741077  )
       183        C      tau( 183) = (  -0.8148796   0.6771724   0.4815877  )
       184        C      tau( 184) = (  -1.0072936   0.8697798   0.2887865  )
       185        C      tau( 185) = (  -0.4863444   0.7568055   0.8098862  )
       186        C      tau( 186) = (  -0.6786952   0.9493248   0.6175026  )
       187        C      tau( 187) = (  -0.8713048   1.1416738   0.4251553  )
       188        C      tau( 188) = (  -0.1017368   0.3491754   0.0170127  )
       189        C      tau( 189) = (  -0.2934507   0.5406522  -0.1760803  )
       190        C      tau( 190) = (  -0.4862549   0.7336102  -0.3682379  )
       191        C      tau( 191) = (   0.0352209   0.6204013   0.1525913  )
       192        C      tau( 192) = (  -0.1578110   0.8132150  -0.0395081  )
       193        C      tau( 193) = (  -0.3501207   1.0057437  -0.2322792  )
       194        C      tau( 194) = (   0.1708896   0.8930602   0.2889066  )
       195        C      tau( 195) = (  -0.0214309   1.0854972   0.0964107  )
       196        C      tau( 196) = (  -0.2140165   1.2777814  -0.0960253  )
       197        C      tau( 197) = (  -0.3370943   0.3466456   0.2529840  )
       198        C      tau( 198) = (  -0.5272084   0.5414293   0.0610164  )
       199        C      tau( 199) = (  -0.7216407   0.7334091  -0.1323792  )
       200        C      tau( 200) = (  -0.2019635   0.6203470   0.3862613  )
       201        C      tau( 201) = (  -0.3969540   0.8216820   0.1975805  )
       202        C      tau( 202) = (  -0.5856983   1.0056082   0.0034941  )
       203        C      tau( 203) = (  -0.0649081   0.8927592   0.5243534  )
       204        C      tau( 204) = (  -0.2571667   1.0853233   0.3320257  )
       205        C      tau( 205) = (  -0.4496625   1.2781547   0.1395302  )
       206        C      tau( 206) = (  -0.5729994   0.3481663   0.4885200  )
       207        C      tau( 207) = (  -0.7648208   0.5409048   0.2957094  )
       208        C      tau( 208) = (  -0.9573081   0.7333335   0.1033247  )
       209        C      tau( 209) = (  -0.4366163   0.6205405   0.6239138  )
       210        C      tau( 210) = (  -0.6288323   0.8130945   0.4315425  )
       211        C      tau( 211) = (  -0.8216123   1.0056699   0.2391807  )
       212        C      tau( 212) = (  -0.3005931   0.8926792   0.7600396  )
       213        C      tau( 213) = (  -0.4928743   1.0854351   0.5679187  )
       214        C      tau( 214) = (  -0.6853662   1.2777481   0.3753325  )
       215        N      tau( 215) = (  -0.3694159   0.5697782   0.2311646  )

   Crystallographic axes

     site n.     atom                  positions (cryst. coord.)
         1        C      tau(   1) = (  0.0001273  0.0001086  0.0001086  )
         2        C      tau(   2) = (  0.0002804  0.0003229  0.3334313  )
         3        C      tau(   3) = (  0.0000331  0.0001448  0.6667559  )
         4        C      tau(   4) = (  0.0002804  0.3334313  0.0003229  )
         5        C      tau(   5) = (  0.0006395  0.3338661  0.3338661  )
         6        C      tau(   6) = ( -0.0000389  0.3335258  0.6668461  )
         7        C      tau(   7) = (  0.0000331  0.6667559  0.0001448  )
         8        C      tau(   8) = ( -0.0000389  0.6668461  0.3335258  )
         9        C      tau(   9) = (  0.0001478  0.6666024  0.6666024  )
        10        C      tau(  10) = (  0.3334178  0.0000804  0.0000804  )
        11        C      tau(  11) = (  0.3334290 -0.0000008  0.3334849  )
        12        C      tau(  12) = (  0.3333674  0.0002649  0.6666044  )
        13        C      tau(  13) = (  0.3334290  0.3334849 -0.0000008  )
        14        C      tau(  14) = (  0.3374635  0.3334555  0.3334555  )
        15        C      tau(  15) = (  0.3323379  0.3352779  0.6653867  )
        16        C      tau(  16) = (  0.3333674  0.6666044  0.0002649  )
        17        C      tau(  17) = (  0.3323379  0.6653867  0.3352779  )
        18        C      tau(  18) = (  0.3339045  0.6665700  0.6665700  )
        19        C      tau(  19) = (  0.6666984 -0.0000190 -0.0000190  )
        20        C      tau(  20) = (  0.6668083 -0.0002927  0.3333434  )
        21        C      tau(  21) = (  0.6666074  0.0002168  0.6666751  )
        22        C      tau(  22) = (  0.6668083  0.3333434 -0.0002927  )
        23        C      tau(  23) = (  0.6675414  0.3328738  0.3328738  )
        24        C      tau(  24) = (  0.6656992  0.3336883  0.6657521  )
        25        C      tau(  25) = (  0.6666074  0.6666751  0.0002168  )
        26        C      tau(  26) = (  0.6656992  0.6657521  0.3336883  )
        27        C      tau(  27) = (  0.6665799  0.6667454  0.6667453  )
        28        C      tau(  28) = (  0.1667893  0.1668565  0.0002164  )
        29        C      tau(  29) = (  0.1677091  0.1677612  0.3336871  )
        30        C      tau(  30) = (  0.1667184  0.1668832  0.6667454  )
        31        C      tau(  31) = (  0.1668601  0.5000975  0.0002647  )
        32        C      tau(  32) = (  0.1680729  0.5011211  0.3352760  )
        33        C      tau(  33) = (  0.1668926  0.4995569  0.6665694  )
        34        C      tau(  34) = (  0.1667090  0.8334311  0.0001446  )
        35        C      tau(  35) = (  0.1666180  0.8335026  0.3335262  )
        36        C      tau(  36) = (  0.1668621  0.8333161  0.6666023  )
        37        C      tau(  37) = (  0.5001211  0.1666557 -0.0002927  )
        38        C      tau(  38) = (  0.5005894  0.1659208  0.3328730  )
        39        C      tau(  39) = (  0.4997750  0.1677630  0.6657528  )
        40        C      tau(  40) = (  0.4999798  0.5000357 -0.0000005  )
        41        C      tau(  41) = (  0.5000003  0.4959939  0.3334570  )
        42        C      tau(  42) = (  0.4981825  0.5011233  0.6653862  )
        43        C      tau(  43) = (  0.5000331  0.8331833  0.0003233  )
        44        C      tau(  44) = (  0.4995969  0.8328227  0.3338672  )
        45        C      tau(  45) = (  0.4999382  0.8335020  0.6668462  )
        46        C      tau(  46) = (  0.8334830  0.1667658 -0.0000191  )
        47        C      tau(  47) = (  0.8337559  0.1666557  0.3333433  )
        48        C      tau(  48) = (  0.8332468  0.1668568  0.6666750  )
        49        C      tau(  49) = (  0.8333825  0.5000467  0.0000807  )
        50        C      tau(  50) = (  0.8334640  0.5000356  0.3334849  )
        51        C      tau(  51) = (  0.8331985  0.5000973  0.6666042  )
        52        C      tau(  52) = (  0.8333556  0.8333371  0.0001087  )
        53        C      tau(  53) = (  0.8331400  0.8331830  0.3334314  )
        54        C      tau(  54) = (  0.8333191  0.8334312  0.6667559  )
        55        C      tau(  55) = (  0.1667893  0.0002164  0.1668565  )
        56        C      tau(  56) = (  0.1668601  0.0002647  0.5000975  )
        57        C      tau(  57) = (  0.1667090  0.0001446  0.8334311  )
        58        C      tau(  58) = (  0.1677091  0.3336871  0.1677612  )
        59        C      tau(  59) = (  0.1680729  0.3352760  0.5011211  )
        60        C      tau(  60) = (  0.1666180  0.3335262  0.8335026  )
        61        C      tau(  61) = (  0.1667184  0.6667454  0.1668832  )
        62        C      tau(  62) = (  0.1668926  0.6665694  0.4995569  )
        63        C      tau(  63) = (  0.1668621  0.6666023  0.8333161  )
        64        C      tau(  64) = (  0.5001211 -0.0002927  0.1666557  )
        65        C      tau(  65) = (  0.4999798 -0.0000005  0.5000357  )
        66        C      tau(  66) = (  0.5000331  0.0003233  0.8331833  )
        67        C      tau(  67) = (  0.5005894  0.3328730  0.1659208  )
        68        C      tau(  68) = (  0.5000003  0.3334570  0.4959939  )
        69        C      tau(  69) = (  0.4995969  0.3338672  0.8328227  )
        70        C      tau(  70) = (  0.4997750  0.6657528  0.1677630  )
        71        C      tau(  71) = (  0.4981825  0.6653862  0.5011233  )
        72        C      tau(  72) = (  0.4999382  0.6668462  0.8335020  )
        73        C      tau(  73) = (  0.8334830 -0.0000191  0.1667658  )
        74        C      tau(  74) = (  0.8333825  0.0000807  0.5000467  )
        75        C      tau(  75) = (  0.8333556  0.0001087  0.8333371  )
        76        C      tau(  76) = (  0.8337559  0.3333434  0.1666557  )
        77        C      tau(  77) = (  0.8334640  0.3334849  0.5000356  )
        78        C      tau(  78) = (  0.8331400  0.3334314  0.8331830  )
        79        C      tau(  79) = (  0.8332468  0.6666750  0.1668568  )
        80        C      tau(  80) = (  0.8331985  0.6666042  0.5000973  )
        81        C      tau(  81) = (  0.8333191  0.6667559  0.8334312  )
        82        C      tau(  82) = (  0.0004452  0.1669494  0.1669494  )
        83        C      tau(  83) = ( -0.0000381  0.1666850  0.5002255  )
        84        C      tau(  84) = (  0.0000599  0.1668391  0.8334044  )
        85        C      tau(  85) = ( -0.0000381  0.5002255  0.1666850  )
        86        C      tau(  86) = (  0.0004188  0.5002508  0.5002508  )
        87        C      tau(  87) = ( -0.0004828  0.5000057  0.8339468  )
        88        C      tau(  88) = (  0.0000599  0.8334044  0.1668391  )
        89        C      tau(  89) = ( -0.0004828  0.8339468  0.5000057  )
        90        C      tau(  90) = (  0.0001120  0.8333526  0.8333526  )
        91        C      tau(  91) = (  0.3337317  0.1661730  0.1661730  )
        92        C      tau(  92) = (  0.3335200  0.1672385  0.4999414  )
        93        C      tau(  93) = (  0.3332386  0.1666855  0.8335016  )
        94        C      tau(  94) = (  0.3335200  0.4999414  0.1672385  )
        95        C      tau(  95) = (  0.3332129  0.5002514  0.8330444  )
        96        C      tau(  96) = (  0.3332386  0.8335016  0.1666855  )
        97        C      tau(  97) = (  0.3332129  0.8330444  0.5002514  )
        98        C      tau(  98) = (  0.3334590  0.8339462  0.8339462  )
        99        C      tau(  99) = (  0.6669650  0.1664990  0.1664990  )
       100        C      tau( 100) = (  0.6672892  0.1661743  0.4997317  )
       101        C      tau( 101) = (  0.6665142  0.1669499  0.8330182  )
       102        C      tau( 102) = (  0.6672892  0.4997317  0.1661743  )
       103        C      tau( 103) = (  0.6662223  0.4999419  0.4999419  )
       104        C      tau( 104) = (  0.6667779  0.5002260  0.8335009  )
       105        C      tau( 105) = (  0.6665142  0.8330182  0.1669499  )
       106        C      tau( 106) = (  0.6667779  0.8335009  0.5002260  )
       107        C      tau( 107) = (  0.6666254  0.8334047  0.8334047  )
       108        C      tau( 108) = (  0.0835421  0.0835435  0.0835435  )
       109        C      tau( 109) = (  0.0838249  0.0838807  0.4168990  )
       110        C      tau( 110) = (  0.0833774  0.0834640  0.7500878  )
       111        C      tau( 111) = (  0.0838249  0.4168990  0.0838807  )
       112        C      tau( 112) = (  0.0841740  0.4172811  0.4172811  )
       113        C      tau( 113) = (  0.0823999  0.4171861  0.7510646  )
       114        C      tau( 114) = (  0.0833774  0.7500878  0.0834640  )
       115        C      tau( 115) = (  0.0823999  0.7510646  0.4171861  )
       116        C      tau( 116) = (  0.0834462  0.7500191  0.7500191  )
       117        C      tau( 117) = (  0.4168191  0.0830695  0.0830695  )
       118        C      tau( 118) = (  0.4168548  0.0833236  0.4166095  )
       119        C      tau( 119) = (  0.4165656  0.0838821  0.7496394  )
       120        C      tau( 120) = (  0.4168548  0.4166095  0.0833236  )
       121        C      tau( 121) = (  0.4161812  0.4172817  0.7492877  )
       122        C      tau( 122) = (  0.4165656  0.7496394  0.0838821  )
       123        C      tau( 123) = (  0.4161812  0.7492877  0.4172817  )
       124        C      tau( 124) = (  0.4162780  0.7510637  0.7510637  )
       125        C      tau( 125) = (  0.7501752  0.0832904  0.0832904  )
       126        C      tau( 126) = (  0.7503951  0.0830702  0.4166457  )
       127        C      tau( 127) = (  0.7499220  0.0835439  0.7499230  )
       128        C      tau( 128) = (  0.7503950  0.4166457  0.0830702  )
       129        C      tau( 129) = (  0.7501403  0.4166099  0.4166099  )
       130        C      tau( 130) = (  0.7495824  0.4168992  0.7496384  )
       131        C      tau( 131) = (  0.7499220  0.7499230  0.0835439  )
       132        C      tau( 132) = (  0.7495824  0.7496384  0.4168992  )
       133        C      tau( 133) = (  0.7500014  0.7500879  0.7500879  )
       134        C      tau( 134) = (  0.2503310  0.2501319  0.0835555  )
       135        C      tau( 135) = (  0.2517096  0.2517508  0.4175226  )
       136        C      tau( 136) = (  0.2502345  0.2497563  0.7504705  )
       137        C      tau( 137) = (  0.2501185  0.5833460  0.0836655  )
       138        C      tau( 138) = (  0.2439510  0.5895085  0.4130569  )
       139        C      tau( 139) = (  0.2500320  0.5834315  0.7498113  )
       140        C      tau( 140) = (  0.2501158  0.9168911  0.0833714  )
       141        C      tau( 141) = (  0.2500732  0.9167239  0.4168433  )
       142        C      tau( 142) = (  0.2500426  0.9169150  0.7501385  )
       143        C      tau( 143) = (  0.5836770  0.2497877  0.0828570  )
       144        C      tau( 144) = (  0.5847642  0.2486987  0.4162139  )
       145        C      tau( 145) = (  0.5829511  0.2505134  0.7494943  )
       146        C      tau( 146) = (  0.5833324  0.5831335  0.0835570  )
       147        C      tau( 147) = (  0.5817073  0.5817491  0.4175238  )
       148        C      tau( 148) = (  0.5837074  0.5832291  0.7504689  )
       149        C      tau( 149) = (  0.5833382  0.9164380  0.0834851  )
       150        C      tau( 150) = (  0.5832912  0.9165023  0.4167942  )
       151        C      tau( 151) = (  0.5833205  0.9168918  0.7500147  )
       152        C      tau( 152) = (  0.9170272  0.2501269  0.0834846  )
       153        C      tau( 153) = (  0.9169616  0.2501732  0.4167940  )
       154        C      tau( 154) = (  0.9165735  0.2501449  0.7500145  )
       155        C      tau( 155) = (  0.9165740  0.5833493  0.0833710  )
       156        C      tau( 156) = (  0.9167408  0.5833918  0.4168431  )
       157        C      tau( 157) = (  0.9165502  0.5834225  0.7501387  )
       158        C      tau( 158) = (  0.9167598  0.9167059  0.0834388  )
       159        C      tau( 159) = (  0.9164671  0.9169979  0.4168430  )
       160        C      tau( 160) = (  0.9167358  0.9167302  0.7500330  )
       161        C      tau( 161) = (  0.2503310  0.0835555  0.2501319  )
       162        C      tau( 162) = (  0.2501185  0.0836655  0.5833460  )
       163        C      tau( 163) = (  0.2501158  0.0833714  0.9168911  )
       164        C      tau( 164) = (  0.2517096  0.4175226  0.2517508  )
       165        C      tau( 165) = (  0.2439510  0.4130569  0.5895085  )
       166        C      tau( 166) = (  0.2500732  0.4168433  0.9167239  )
       167        C      tau( 167) = (  0.2502345  0.7504705  0.2497563  )
       168        C      tau( 168) = (  0.2500320  0.7498113  0.5834315  )
       169        C      tau( 169) = (  0.2500426  0.7501385  0.9169150  )
       170        C      tau( 170) = (  0.5836771  0.0828570  0.2497877  )
       171        C      tau( 171) = (  0.5833324  0.0835570  0.5831335  )
       172        C      tau( 172) = (  0.5833382  0.0834851  0.9164380  )
       173        C      tau( 173) = (  0.5847642  0.4162139  0.2486987  )
       174        C      tau( 174) = (  0.5817073  0.4175238  0.5817491  )
       175        C      tau( 175) = (  0.5832912  0.4167942  0.9165023  )
       176        C      tau( 176) = (  0.5829511  0.7494943  0.2505134  )
       177        C      tau( 177) = (  0.5837074  0.7504689  0.5832291  )
       178        C      tau( 178) = (  0.5833205  0.7500147  0.9168918  )
       179        C      tau( 179) = (  0.9170272  0.0834846  0.2501269  )
       180        C      tau( 180) = (  0.9165740  0.0833710  0.5833493  )
       181        C      tau( 181) = (  0.9167598  0.0834388  0.9167059  )
       182        C      tau( 182) = (  0.9169616  0.4167940  0.2501732  )
       183        C      tau( 183) = (  0.9167408  0.4168431  0.5833918  )
       184        C      tau( 184) = (  0.9164671  0.4168430  0.9169979  )
       185        C      tau( 185) = (  0.9165735  0.7500145  0.2501449  )
       186        C      tau( 186) = (  0.9165502  0.7501387  0.5834225  )
       187        C      tau( 187) = (  0.9167358  0.7500330  0.9167302  )
       188        C      tau( 188) = (  0.0839685  0.2505120  0.2505120  )
       189        C      tau( 189) = (  0.0829934  0.2497554  0.5832296  )
       190        C      tau( 190) = (  0.0834506  0.2501450  0.9168917  )
       191        C      tau( 191) = (  0.0829934  0.5832295  0.2497554  )
       192        C      tau( 192) = (  0.0836528  0.5834321  0.5834321  )
       193        C      tau( 193) = (  0.0833265  0.5834225  0.9169152  )
       194        C      tau( 194) = (  0.0834506  0.9168917  0.2501450  )
       195        C      tau( 195) = (  0.0833265  0.9169152  0.5834225  )
       196        C      tau( 196) = (  0.0834324  0.9167301  0.9167301  )
       197        C      tau( 197) = (  0.4172483  0.2486971  0.2486971  )
       198        C      tau( 198) = (  0.4159377  0.2517531  0.5817504  )
       199        C      tau( 199) = (  0.4166708  0.2501738  0.9165026  )
       200        C      tau( 200) = (  0.4159377  0.5817504  0.2517531  )
       201        C      tau( 201) = (  0.4203993  0.5895067  0.5895067  )
       202        C      tau( 202) = (  0.4166219  0.5833918  0.9167238  )
       203        C      tau( 203) = (  0.4166708  0.9165026  0.2501738  )
       204        C      tau( 204) = (  0.4166219  0.9167238  0.5833918  )
       205        C      tau( 205) = (  0.4166222  0.9169980  0.9169980  )
       206        C      tau( 206) = (  0.7506076  0.2497881  0.2497881  )
       207        C      tau( 207) = (  0.7499081  0.2501330  0.5831331  )
       208        C      tau( 208) = (  0.7499806  0.2501270  0.9164378  )
       209        C      tau( 209) = (  0.7499081  0.5831331  0.2501330  )
       210        C      tau( 210) = (  0.7497982  0.5833456  0.5833456  )
       211        C      tau( 211) = (  0.7500939  0.5833494  0.9168908  )
       212        C      tau( 212) = (  0.7499806  0.9164378  0.2501270  )
       213        C      tau( 213) = (  0.7500939  0.9168908  0.5833494  )
       214        C      tau( 214) = (  0.7500273  0.9167062  0.9167062  )
       215        N      tau( 215) = (  0.4246745  0.4087811  0.4087811  )

     number of k points=     1
                       cart. coord. in units 2pi/alat
        k(    1) = (   0.0000000   0.0000000   0.0000000), wk =   1.0000000

                       cryst. coord.
        k(    1) = (   0.0000000   0.0000000   0.0000000), wk =   1.0000000

     Dense  grid:   338755 G-vectors     FFT dimensions: (  90,  90,  90)

     Dynamical RAM for                 wfc:      13.92 MB

     Dynamical RAM for     wfc (w. buffer):      41.75 MB

     Dynamical RAM for           str. fact:       0.26 MB

     Dynamical RAM for           local pot:       0.00 MB

     Dynamical RAM for          nlocal pot:      27.77 MB

     Dynamical RAM for                qrad:       0.62 MB

     Dynamical RAM for          rho,v,vnew:       1.89 MB

     Dynamical RAM for               rhoin:       0.63 MB

     Dynamical RAM for            rho*nmix:       4.14 MB

     Dynamical RAM for           G-vectors:       0.55 MB

     Dynamical RAM for          h,s,v(r/c):       3.77 MB

     Dynamical RAM for          <psi|beta>:      22.62 MB

     Dynamical RAM for                 psi:      27.83 MB

     Dynamical RAM for                hpsi:      27.83 MB

     Dynamical RAM for                spsi:      27.83 MB

     Dynamical RAM for      wfcinit/wfcrot:      44.85 MB

     Dynamical RAM for           addusdens:      33.35 MB

     Dynamical RAM for          addusforce:      88.76 MB

     Dynamical RAM for         addusstress:       6.66 MB

     Estimated static dynamical RAM per process >      74.96 MB

     Estimated max dynamical RAM per process >     188.98 MB

     Estimated total dynamical RAM >       7.38 GB

     Check: negative core charge=   -0.000075
     Generating pointlists ...
     new r_m :   0.0568 (alat units)  1.1501 (a.u.) for type    1
     new r_m :   0.0568 (alat units)  1.1501 (a.u.) for type    2

     Initial potential from superposition of free atoms

     starting charge     860.9911, renormalised to     862.0000
     Starting wfcs are random
     Checking if some PAW data can be deallocated... 
       PAW data deallocated on   39 nodes for type:  2

     total cpu time spent up to now is        5.5 secs

     per-process dynamical memory:   183.8 Mb

     Self-consistent Calculation

     iteration #  1     ecut=    45.00 Ry     beta= 0.70
     Davidson diagonalization with overlap

---- Real-time Memory Report at c_bands before calling an iterative solver
           355 MiB given to the printing process from OS
           179 MiB allocation reported by mallinfo(arena+hblkhd)
        258367 MiB available memory on the node where the printing process lives
------------------
     ethr =  1.00E-02,  avg # of iterations =  9.0

     total cpu time spent up to now is       60.8 secs

     total energy              =   -3970.30187051 Ry
     estimated scf accuracy    <      12.59419244 Ry

     total magnetization       =     2.00 Bohr mag/cell
     absolute magnetization    =     2.17 Bohr mag/cell

     iteration #  2     ecut=    45.00 Ry     beta= 0.70
     Davidson diagonalization with overlap

---- Real-time Memory Report at c_bands before calling an iterative solver
           536 MiB given to the printing process from OS
           170 MiB allocation reported by mallinfo(arena+hblkhd)
        256811 MiB available memory on the node where the printing process lives
------------------
     ethr =  1.46E-03,  avg # of iterations =  2.5

     total cpu time spent up to now is       75.4 secs

     total energy              =   -3970.81410412 Ry
     estimated scf accuracy    <       0.99073351 Ry

     total magnetization       =     2.00 Bohr mag/cell
     absolute magnetization    =     2.12 Bohr mag/cell

     iteration #  3     ecut=    45.00 Ry     beta= 0.70
     Davidson diagonalization with overlap

---- Real-time Memory Report at c_bands before calling an iterative solver
           581 MiB given to the printing process from OS
           193 MiB allocation reported by mallinfo(arena+hblkhd)
        256766 MiB available memory on the node where the printing process lives
------------------
     ethr =  1.15E-04,  avg # of iterations = 10.0

     total cpu time spent up to now is      106.2 secs

     total energy              =   -3970.16208508 Ry
     estimated scf accuracy    <       6.76211111 Ry

     total magnetization       =     2.00 Bohr mag/cell
     absolute magnetization    =     2.18 Bohr mag/cell

     iteration #  4     ecut=    45.00 Ry     beta= 0.70
     Davidson diagonalization with overlap

---- Real-time Memory Report at c_bands before calling an iterative solver
           597 MiB given to the printing process from OS
           193 MiB allocation reported by mallinfo(arena+hblkhd)
        256704 MiB available memory on the node where the printing process lives
------------------
     ethr =  1.15E-04,  avg # of iterations =  9.0

     total cpu time spent up to now is      128.7 secs

     total energy              =   -3971.33163826 Ry
     estimated scf accuracy    <       0.10057365 Ry

     total magnetization       =     2.00 Bohr mag/cell
     absolute magnetization    =     2.15 Bohr mag/cell

     iteration #  5     ecut=    45.00 Ry     beta= 0.70
     Davidson diagonalization with overlap

---- Real-time Memory Report at c_bands before calling an iterative solver
           604 MiB given to the printing process from OS
           193 MiB allocation reported by mallinfo(arena+hblkhd)
        256700 MiB available memory on the node where the printing process lives
------------------
     ethr =  1.17E-05,  avg # of iterations =  5.0

     total cpu time spent up to now is      145.1 secs

     total energy              =   -3971.34562726 Ry
     estimated scf accuracy    <       0.02404786 Ry

     total magnetization       =     2.00 Bohr mag/cell
     absolute magnetization    =     2.17 Bohr mag/cell

     iteration #  6     ecut=    45.00 Ry     beta= 0.70
     Davidson diagonalization with overlap

---- Real-time Memory Report at c_bands before calling an iterative solver
           629 MiB given to the printing process from OS
           193 MiB allocation reported by mallinfo(arena+hblkhd)
        256700 MiB available memory on the node where the printing process lives
------------------
     c_bands:  1 eigenvalues not converged
     ethr =  2.79E-06,  avg # of iterations = 20.0

     total cpu time spent up to now is      169.6 secs

     total energy              =   -3971.34982371 Ry
     estimated scf accuracy    <       0.00539893 Ry

     total magnetization       =     2.00 Bohr mag/cell
     absolute magnetization    =     2.19 Bohr mag/cell

     iteration #  7     ecut=    45.00 Ry     beta= 0.70
     Davidson diagonalization with overlap

---- Real-time Memory Report at c_bands before calling an iterative solver
           681 MiB given to the printing process from OS
           193 MiB allocation reported by mallinfo(arena+hblkhd)
        256713 MiB available memory on the node where the printing process lives
------------------
     ethr =  6.26E-07,  avg # of iterations =  3.5

     total cpu time spent up to now is      184.8 secs

     total energy              =   -3971.35097994 Ry
     estimated scf accuracy    <       0.00056946 Ry

     total magnetization       =     2.00 Bohr mag/cell
     absolute magnetization    =     2.21 Bohr mag/cell

     iteration #  8     ecut=    45.00 Ry     beta= 0.70
     Davidson diagonalization with overlap

---- Real-time Memory Report at c_bands before calling an iterative solver
           682 MiB given to the printing process from OS
           193 MiB allocation reported by mallinfo(arena+hblkhd)
        256717 MiB available memory on the node where the printing process lives
------------------
     ethr =  6.61E-08,  avg # of iterations =  2.5

     total cpu time spent up to now is      199.7 secs

     total energy              =   -3971.35114136 Ry
     estimated scf accuracy    <       0.00032230 Ry

     total magnetization       =     2.00 Bohr mag/cell
     absolute magnetization    =     2.22 Bohr mag/cell

     iteration #  9     ecut=    45.00 Ry     beta= 0.70
     Davidson diagonalization with overlap

---- Real-time Memory Report at c_bands before calling an iterative solver
           684 MiB given to the printing process from OS
           193 MiB allocation reported by mallinfo(arena+hblkhd)
        256679 MiB available memory on the node where the printing process lives
------------------
     ethr =  3.74E-08,  avg # of iterations =  2.0

     total cpu time spent up to now is      214.3 secs

     total energy              =   -3971.35121669 Ry
     estimated scf accuracy    <       0.00005855 Ry

     total magnetization       =     2.00 Bohr mag/cell
     absolute magnetization    =     2.23 Bohr mag/cell

     iteration # 10     ecut=    45.00 Ry     beta= 0.70
     Davidson diagonalization with overlap

---- Real-time Memory Report at c_bands before calling an iterative solver
           684 MiB given to the printing process from OS
           193 MiB allocation reported by mallinfo(arena+hblkhd)
        256679 MiB available memory on the node where the printing process lives
------------------
     ethr =  6.79E-09,  avg # of iterations =  2.0

     total cpu time spent up to now is      228.9 secs

     total energy              =   -3971.35123334 Ry
     estimated scf accuracy    <       0.00000798 Ry

     total magnetization       =     2.00 Bohr mag/cell
     absolute magnetization    =     2.24 Bohr mag/cell

     iteration # 11     ecut=    45.00 Ry     beta= 0.70
     Davidson diagonalization with overlap

---- Real-time Memory Report at c_bands before calling an iterative solver
           684 MiB given to the printing process from OS
           193 MiB allocation reported by mallinfo(arena+hblkhd)
        256661 MiB available memory on the node where the printing process lives
------------------
     ethr =  9.26E-10,  avg # of iterations =  3.0

     total cpu time spent up to now is      244.4 secs

     total energy              =   -3971.35123580 Ry
     estimated scf accuracy    <       0.00000351 Ry

     total magnetization       =     2.00 Bohr mag/cell
     absolute magnetization    =     2.24 Bohr mag/cell

     iteration # 12     ecut=    45.00 Ry     beta= 0.70
     Davidson diagonalization with overlap

---- Real-time Memory Report at c_bands before calling an iterative solver
           685 MiB given to the printing process from OS
           193 MiB allocation reported by mallinfo(arena+hblkhd)
        256661 MiB available memory on the node where the printing process lives
------------------
     ethr =  4.07E-10,  avg # of iterations =  2.0

     total cpu time spent up to now is      259.0 secs

     total energy              =   -3971.35123664 Ry
     estimated scf accuracy    <       0.00000084 Ry

     total magnetization       =     2.00 Bohr mag/cell
     absolute magnetization    =     2.24 Bohr mag/cell

     iteration # 13     ecut=    45.00 Ry     beta= 0.70
     Davidson diagonalization with overlap

---- Real-time Memory Report at c_bands before calling an iterative solver
           686 MiB given to the printing process from OS
           193 MiB allocation reported by mallinfo(arena+hblkhd)
        256662 MiB available memory on the node where the printing process lives
------------------
     ethr =  9.74E-11,  avg # of iterations =  2.0

     total cpu time spent up to now is      273.6 secs

     total energy              =   -3971.35123687 Ry
     estimated scf accuracy    <       0.00000014 Ry

     total magnetization       =     2.00 Bohr mag/cell
     absolute magnetization    =     2.24 Bohr mag/cell

     iteration # 14     ecut=    45.00 Ry     beta= 0.70
     Davidson diagonalization with overlap

---- Real-time Memory Report at c_bands before calling an iterative solver
           686 MiB given to the printing process from OS
           193 MiB allocation reported by mallinfo(arena+hblkhd)
        256662 MiB available memory on the node where the printing process lives
------------------
     ethr =  1.62E-11,  avg # of iterations =  2.5

     total cpu time spent up to now is      288.6 secs

     total energy              =   -3971.35123691 Ry
     estimated scf accuracy    <       0.00000003 Ry

     total magnetization       =     2.00 Bohr mag/cell
     absolute magnetization    =     2.24 Bohr mag/cell

     iteration # 15     ecut=    45.00 Ry     beta= 0.70
     Davidson diagonalization with overlap

---- Real-time Memory Report at c_bands before calling an iterative solver
           687 MiB given to the printing process from OS
           193 MiB allocation reported by mallinfo(arena+hblkhd)
        256658 MiB available memory on the node where the printing process lives
------------------
     ethr =  3.12E-12,  avg # of iterations =  2.5
 
     Magnetic moment per site  (integrated on atomic sphere of radius R)
     atom   1 (R=0.057)  charge=  1.8165  magn= -0.0000
     atom   2 (R=0.057)  charge=  1.8154  magn= -0.0001
     atom   3 (R=0.057)  charge=  1.8178  magn= -0.0001
     atom   4 (R=0.057)  charge=  1.8154  magn= -0.0001
     atom   5 (R=0.057)  charge=  1.8141  magn= -0.0007
     atom   6 (R=0.057)  charge=  1.8159  magn= -0.0010
     atom   7 (R=0.057)  charge=  1.8178  magn= -0.0001
     atom   8 (R=0.057)  charge=  1.8159  magn= -0.0010
     atom   9 (R=0.057)  charge=  1.8162  magn= -0.0004
     atom  10 (R=0.057)  charge=  1.8214  magn=  0.0013
     atom  11 (R=0.057)  charge=  1.8176  magn= -0.0001
     atom  12 (R=0.057)  charge=  1.8173  magn= -0.0001
     atom  13 (R=0.057)  charge=  1.8176  magn= -0.0001
     atom  14 (R=0.057)  charge=  1.7879  magn=  0.0007
     atom  15 (R=0.057)  charge=  1.8122  magn= -0.0029
     atom  16 (R=0.057)  charge=  1.8173  magn= -0.0001
     atom  17 (R=0.057)  charge=  1.8122  magn= -0.0029
     atom  18 (R=0.057)  charge=  1.8229  magn= -0.0071
     atom  19 (R=0.057)  charge=  1.8160  magn=  0.0000
     atom  20 (R=0.057)  charge=  1.8176  magn= -0.0000
     atom  21 (R=0.057)  charge=  1.8172  magn= -0.0001
     atom  22 (R=0.057)  charge=  1.8176  magn= -0.0000
     atom  23 (R=0.057)  charge=  1.8170  magn= -0.0001
     atom  24 (R=0.057)  charge=  1.8092  magn= -0.0002
     atom  25 (R=0.057)  charge=  1.8172  magn= -0.0001
     atom  26 (R=0.057)  charge=  1.8092  magn= -0.0002
     atom  27 (R=0.057)  charge=  1.8167  magn= -0.0010
     atom  28 (R=0.057)  charge=  1.8170  magn= -0.0001
     atom  29 (R=0.057)  charge=  1.8089  magn= -0.0002
     atom  30 (R=0.057)  charge=  1.8166  magn= -0.0010
     atom  31 (R=0.057)  charge=  1.8171  magn= -0.0001
     atom  32 (R=0.057)  charge=  1.8120  magn= -0.0029
     atom  33 (R=0.057)  charge=  1.8230  magn= -0.0071
     atom  34 (R=0.057)  charge=  1.8178  magn= -0.0001
     atom  35 (R=0.057)  charge=  1.8159  magn= -0.0010
     atom  36 (R=0.057)  charge=  1.8161  magn= -0.0004
     atom  37 (R=0.057)  charge=  1.8177  magn= -0.0000
     atom  38 (R=0.057)  charge=  1.8171  magn= -0.0001
     atom  39 (R=0.057)  charge=  1.8091  magn= -0.0002
     atom  40 (R=0.057)  charge=  1.8177  magn= -0.0001
     atom  41 (R=0.057)  charge=  1.7880  magn=  0.0007
     atom  42 (R=0.057)  charge=  1.8124  magn= -0.0029
     atom  43 (R=0.057)  charge=  1.8156  magn= -0.0001
     atom  44 (R=0.057)  charge=  1.8142  magn= -0.0007
     atom  45 (R=0.057)  charge=  1.8159  magn= -0.0010
     atom  46 (R=0.057)  charge=  1.8160  magn=  0.0000
     atom  47 (R=0.057)  charge=  1.8174  magn= -0.0000
     atom  48 (R=0.057)  charge=  1.8173  magn= -0.0001
     atom  49 (R=0.057)  charge=  1.8214  magn=  0.0013
     atom  50 (R=0.057)  charge=  1.8176  magn= -0.0001
     atom  51 (R=0.057)  charge=  1.8175  magn= -0.0001
     atom  52 (R=0.057)  charge=  1.8165  magn= -0.0000
     atom  53 (R=0.057)  charge=  1.8159  magn= -0.0001
     atom  54 (R=0.057)  charge=  1.8179  magn= -0.0001
     atom  55 (R=0.057)  charge=  1.8170  magn= -0.0001
     atom  56 (R=0.057)  charge=  1.8171  magn= -0.0001
     atom  57 (R=0.057)  charge=  1.8178  magn= -0.0001
     atom  58 (R=0.057)  charge=  1.8089  magn= -0.0002
     atom  59 (R=0.057)  charge=  1.8120  magn= -0.0029
     atom  60 (R=0.057)  charge=  1.8159  magn= -0.0010
     atom  61 (R=0.057)  charge=  1.8166  magn= -0.0010
     atom  62 (R=0.057)  charge=  1.8230  magn= -0.0071
     atom  63 (R=0.057)  charge=  1.8161  magn= -0.0004
     atom  64 (R=0.057)  charge=  1.8177  magn= -0.0000
     atom  65 (R=0.057)  charge=  1.8177  magn= -0.0001
     atom  66 (R=0.057)  charge=  1.8156  magn= -0.0001
     atom  67 (R=0.057)  charge=  1.8171  magn= -0.0001
     atom  68 (R=0.057)  charge=  1.7880  magn=  0.0007
     atom  69 (R=0.057)  charge=  1.8142  magn= -0.0007
     atom  70 (R=0.057)  charge=  1.8091  magn= -0.0002
     atom  71 (R=0.057)  charge=  1.8124  magn= -0.0029
     atom  72 (R=0.057)  charge=  1.8159  magn= -0.0010
     atom  73 (R=0.057)  charge=  1.8160  magn=  0.0000
     atom  74 (R=0.057)  charge=  1.8214  magn=  0.0013
     atom  75 (R=0.057)  charge=  1.8165  magn= -0.0000
     atom  76 (R=0.057)  charge=  1.8174  magn= -0.0000
     atom  77 (R=0.057)  charge=  1.8176  magn= -0.0001
     atom  78 (R=0.057)  charge=  1.8159  magn= -0.0001
     atom  79 (R=0.057)  charge=  1.8173  magn= -0.0001
     atom  80 (R=0.057)  charge=  1.8175  magn= -0.0001
     atom  81 (R=0.057)  charge=  1.8179  magn= -0.0001
     atom  82 (R=0.057)  charge=  1.8153  magn=  0.0001
     atom  83 (R=0.057)  charge=  1.8199  magn=  0.0031
     atom  84 (R=0.057)  charge=  1.8168  magn= -0.0000
     atom  85 (R=0.057)  charge=  1.8199  magn=  0.0031
     atom  86 (R=0.057)  charge=  1.8167  magn= -0.0009
     atom  87 (R=0.057)  charge=  1.8204  magn=  0.0018
     atom  88 (R=0.057)  charge=  1.8168  magn= -0.0000
     atom  89 (R=0.057)  charge=  1.8204  magn=  0.0018
     atom  90 (R=0.057)  charge=  1.8173  magn= -0.0001
     atom  91 (R=0.057)  charge=  1.8211  magn=  0.0002
     atom  92 (R=0.057)  charge=  1.8193  magn= -0.0005
     atom  93 (R=0.057)  charge=  1.8200  magn=  0.0031
     atom  94 (R=0.057)  charge=  1.8193  magn= -0.0005
     atom  95 (R=0.057)  charge=  1.8169  magn= -0.0009
     atom  96 (R=0.057)  charge=  1.8200  magn=  0.0031
     atom  97 (R=0.057)  charge=  1.8169  magn= -0.0009
     atom  98 (R=0.057)  charge=  1.8204  magn=  0.0018
     atom  99 (R=0.057)  charge=  1.8167  magn=  0.0000
     atom 100 (R=0.057)  charge=  1.8211  magn=  0.0002
     atom 101 (R=0.057)  charge=  1.8156  magn=  0.0001
     atom 102 (R=0.057)  charge=  1.8211  magn=  0.0002
     atom 103 (R=0.057)  charge=  1.8196  magn= -0.0005
     atom 104 (R=0.057)  charge=  1.8197  magn=  0.0031
     atom 105 (R=0.057)  charge=  1.8156  magn=  0.0001
     atom 106 (R=0.057)  charge=  1.8197  magn=  0.0031
     atom 107 (R=0.057)  charge=  1.8168  magn= -0.0000
     atom 108 (R=0.057)  charge=  1.8145  magn=  0.0002
     atom 109 (R=0.057)  charge=  1.8111  magn=  0.0002
     atom 110 (R=0.057)  charge=  1.8143  magn=  0.0011
     atom 111 (R=0.057)  charge=  1.8111  magn=  0.0002
     atom 112 (R=0.057)  charge=  1.8132  magn=  0.0057
     atom 113 (R=0.057)  charge=  1.8139  magn=  0.0164
     atom 114 (R=0.057)  charge=  1.8143  magn=  0.0011
     atom 115 (R=0.057)  charge=  1.8139  magn=  0.0164
     atom 116 (R=0.057)  charge=  1.8134  magn=  0.0002
     atom 117 (R=0.057)  charge=  1.8165  magn=  0.0002
     atom 118 (R=0.057)  charge=  1.8140  magn=  0.0008
     atom 119 (R=0.057)  charge=  1.8112  magn=  0.0002
     atom 120 (R=0.057)  charge=  1.8140  magn=  0.0008
     atom 121 (R=0.057)  charge=  1.8133  magn=  0.0057
     atom 122 (R=0.057)  charge=  1.8112  magn=  0.0002
     atom 123 (R=0.057)  charge=  1.8133  magn=  0.0057
     atom 124 (R=0.057)  charge=  1.8139  magn=  0.0164
     atom 125 (R=0.057)  charge=  1.8147  magn=  0.0001
     atom 126 (R=0.057)  charge=  1.8165  magn=  0.0002
     atom 127 (R=0.057)  charge=  1.8145  magn=  0.0002
     atom 128 (R=0.057)  charge=  1.8165  magn=  0.0002
     atom 129 (R=0.057)  charge=  1.8140  magn=  0.0008
     atom 130 (R=0.057)  charge=  1.8112  magn=  0.0002
     atom 131 (R=0.057)  charge=  1.8145  magn=  0.0002
     atom 132 (R=0.057)  charge=  1.8112  magn=  0.0002
     atom 133 (R=0.057)  charge=  1.8143  magn=  0.0011
     atom 134 (R=0.057)  charge=  1.8133  magn=  0.0002
     atom 135 (R=0.057)  charge=  1.8061  magn=  0.0036
     atom 136 (R=0.057)  charge=  1.8106  magn=  0.0174
     atom 137 (R=0.057)  charge=  1.8139  magn=  0.0008
     atom 138 (R=0.057)  charge=  1.8133  magn=  0.2419
     atom 139 (R=0.057)  charge=  1.8130  magn=  0.0068
     atom 140 (R=0.057)  charge=  1.8149  magn=  0.0016
     atom 141 (R=0.057)  charge=  1.8140  magn=  0.0015
     atom 142 (R=0.057)  charge=  1.8132  magn=  0.0002
     atom 143 (R=0.057)  charge=  1.8165  magn=  0.0000
     atom 144 (R=0.057)  charge=  1.8216  magn=  0.0002
     atom 145 (R=0.057)  charge=  1.8139  magn=  0.0003
     atom 146 (R=0.057)  charge=  1.8133  magn=  0.0002
     atom 147 (R=0.057)  charge=  1.8064  magn=  0.0036
     atom 148 (R=0.057)  charge=  1.8106  magn=  0.0174
     atom 149 (R=0.057)  charge=  1.8148  magn=  0.0001
     atom 150 (R=0.057)  charge=  1.8134  magn=  0.0001
     atom 151 (R=0.057)  charge=  1.8145  magn=  0.0011
     atom 152 (R=0.057)  charge=  1.8147  magn=  0.0001
     atom 153 (R=0.057)  charge=  1.8134  magn=  0.0001
     atom 154 (R=0.057)  charge=  1.8145  magn=  0.0011
     atom 155 (R=0.057)  charge=  1.8149  magn=  0.0016
     atom 156 (R=0.057)  charge=  1.8140  magn=  0.0015
     atom 157 (R=0.057)  charge=  1.8132  magn=  0.0002
     atom 158 (R=0.057)  charge=  1.8143  magn=  0.0005
     atom 159 (R=0.057)  charge=  1.8151  magn=  0.0012
     atom 160 (R=0.057)  charge=  1.8142  magn=  0.0001
     atom 161 (R=0.057)  charge=  1.8133  magn=  0.0002
     atom 162 (R=0.057)  charge=  1.8139  magn=  0.0008
     atom 163 (R=0.057)  charge=  1.8149  magn=  0.0016
     atom 164 (R=0.057)  charge=  1.8061  magn=  0.0036
     atom 165 (R=0.057)  charge=  1.8133  magn=  0.2419
     atom 166 (R=0.057)  charge=  1.8140  magn=  0.0015
     atom 167 (R=0.057)  charge=  1.8106  magn=  0.0174
     atom 168 (R=0.057)  charge=  1.8130  magn=  0.0068
     atom 169 (R=0.057)  charge=  1.8132  magn=  0.0002
     atom 170 (R=0.057)  charge=  1.8165  magn=  0.0000
     atom 171 (R=0.057)  charge=  1.8133  magn=  0.0002
     atom 172 (R=0.057)  charge=  1.8148  magn=  0.0001
     atom 173 (R=0.057)  charge=  1.8216  magn=  0.0002
     atom 174 (R=0.057)  charge=  1.8064  magn=  0.0036
     atom 175 (R=0.057)  charge=  1.8134  magn=  0.0001
     atom 176 (R=0.057)  charge=  1.8139  magn=  0.0003
     atom 177 (R=0.057)  charge=  1.8106  magn=  0.0174
     atom 178 (R=0.057)  charge=  1.8145  magn=  0.0011
     atom 179 (R=0.057)  charge=  1.8147  magn=  0.0001
     atom 180 (R=0.057)  charge=  1.8149  magn=  0.0016
     atom 181 (R=0.057)  charge=  1.8143  magn=  0.0005
     atom 182 (R=0.057)  charge=  1.8134  magn=  0.0001
     atom 183 (R=0.057)  charge=  1.8140  magn=  0.0015
     atom 184 (R=0.057)  charge=  1.8151  magn=  0.0012
     atom 185 (R=0.057)  charge=  1.8145  magn=  0.0011
     atom 186 (R=0.057)  charge=  1.8132  magn=  0.0002
     atom 187 (R=0.057)  charge=  1.8142  magn=  0.0001
     atom 188 (R=0.057)  charge=  1.8137  magn=  0.0003
     atom 189 (R=0.057)  charge=  1.8106  magn=  0.0174
     atom 190 (R=0.057)  charge=  1.8145  magn=  0.0011
     atom 191 (R=0.057)  charge=  1.8106  magn=  0.0174
     atom 192 (R=0.057)  charge=  1.8130  magn=  0.0068
     atom 193 (R=0.057)  charge=  1.8132  magn=  0.0002
     atom 194 (R=0.057)  charge=  1.8145  magn=  0.0011
     atom 195 (R=0.057)  charge=  1.8132  magn=  0.0002
     atom 196 (R=0.057)  charge=  1.8142  magn=  0.0001
     atom 197 (R=0.057)  charge=  1.8216  magn=  0.0002
     atom 198 (R=0.057)  charge=  1.8064  magn=  0.0036
     atom 199 (R=0.057)  charge=  1.8134  magn=  0.0001
     atom 200 (R=0.057)  charge=  1.8064  magn=  0.0036
     atom 201 (R=0.057)  charge=  1.8134  magn=  0.2419
     atom 202 (R=0.057)  charge=  1.8140  magn=  0.0015
     atom 203 (R=0.057)  charge=  1.8134  magn=  0.0001
     atom 204 (R=0.057)  charge=  1.8140  magn=  0.0015
     atom 205 (R=0.057)  charge=  1.8151  magn=  0.0012
     atom 206 (R=0.057)  charge=  1.8165  magn=  0.0000
     atom 207 (R=0.057)  charge=  1.8133  magn=  0.0002
     atom 208 (R=0.057)  charge=  1.8148  magn=  0.0001
     atom 209 (R=0.057)  charge=  1.8133  magn=  0.0002
     atom 210 (R=0.057)  charge=  1.8139  magn=  0.0008
     atom 211 (R=0.057)  charge=  1.8149  magn=  0.0016
     atom 212 (R=0.057)  charge=  1.8148  magn=  0.0001
     atom 213 (R=0.057)  charge=  1.8149  magn=  0.0016
     atom 214 (R=0.057)  charge=  1.8143  magn=  0.0005
     atom 215 (R=0.057)  charge=  2.9037  magn= -0.0003

     total cpu time spent up to now is      303.5 secs

     End of self-consistent calculation

 ------ SPIN UP ------------


          k = 0.0000 0.0000 0.0000 ( 42379 PWs)   bands (ev):

    -8.2910  -7.4661  -7.2842  -7.2842  -7.2407  -7.2407  -7.1560  -6.6269
    -6.2845  -6.2845  -6.2758  -6.2758  -6.2628  -6.2378  -6.2378  -6.2255
    -6.1820  -6.1820  -6.0106  -5.5155  -5.2603  -5.2547  -5.2547  -5.2311
    -5.2296  -5.2296  -5.0685  -4.4586  -4.2687  -4.2687  -4.2478  -4.2478
    -4.1906  -3.8685  -3.3802  -3.3802  -3.3731  -3.3729  -3.3729  -3.3589
    -3.3573  -3.3573  -3.3453  -3.3387  -3.3387  -3.3327  -3.3327  -3.3313
    -3.3046  -3.3046  -3.2933  -3.2896  -3.2896  -3.2658  -3.2051  -3.2051
    -3.0292  -2.8322  -2.6113  -2.6113  -2.5809  -2.5799  -2.5799  -2.5663
    -2.5614  -2.5614  -2.5567  -2.5496  -2.5496  -2.5293  -2.5241  -2.5241
    -2.5060  -2.5060  -2.4766  -2.4701  -2.4701  -2.4326  -2.3305  -2.3305
    -1.6558  -1.0703  -0.9058  -0.9058  -0.8697  -0.8697  -0.8613  -0.8587
    -0.8587  -0.8478  -0.8058  -0.8058  -0.4543   0.3456   0.3976   0.3976
     0.4195   0.4195   0.4574   0.6766   0.8547   0.8547   0.8913   0.9010
     0.9010   0.9091   0.9092   0.9123   0.9124   0.9313   0.9314   0.9385
     0.9385   0.9601   0.9946   1.0063   1.0063   1.0331   1.0361   1.0361
     1.0549   1.0549   1.0929   1.1150   1.1150   1.1216   1.1363   1.1375
     1.1376   1.1422   1.1449   1.1450   1.1583   1.1702   1.1702   1.1908
     1.1909   1.1947   1.2020   1.2020   1.2034   1.2034   1.2176   1.4354
     1.5463   1.5463   1.9371   2.1954   2.1968   2.1968   2.2414   2.2429
     2.2429   2.2495   2.2711   2.2711   2.3964   2.3964   3.3602   3.7217
     3.7217   3.7333   3.7915   3.7982   3.8007   3.8007   3.8063   3.8064
     3.8066   3.8138   3.8249   3.8249   3.8252   3.8444   3.8444   3.9655
     3.9656   3.9724   3.9962   4.3557   4.3557   4.3776   4.4505   4.4550
     4.4573   4.4573   4.4609   4.4609   4.4712   4.4712   4.4725   4.4825
     4.4825   4.4869   4.4927   4.4928   4.5080   4.5160   4.5161   4.5174
     4.7155   4.7156   5.2549   5.2550   5.2643   5.3168   5.3168   5.3170
     5.3200   5.3274   5.3274   5.3389   5.3389   5.3451   5.3575   5.3576
     5.4109   5.4109   5.4134   5.4257   5.4318   5.4646   5.4646   5.5284
     5.5438   5.5438   5.6089   5.7452   5.7452   5.8264   5.8416   5.8417
     5.8537   5.8571   5.8571   5.8630   5.8648   5.8648   5.8718   5.8822
     5.8889   5.8889   5.9080   5.9080   5.9092   5.9185   5.9347   5.9347
     5.9406   5.9662   5.9662   6.0080   6.0080   6.2996   6.3384   6.3384
     6.8489   6.8489   6.9074   6.9280   6.9382   6.9382   7.0377   7.3767
     7.3768   7.4522   7.4568   7.4569   7.4711   7.4725   7.4725   7.4990
     7.5534   7.5535   7.7239   7.7239   7.8370   7.8625   7.8657   7.8676
     7.8676   7.8723   7.8724   7.9005   7.9283   7.9284   7.9336   8.0724
     8.0725   8.0944   8.1189   8.1229   8.1229   8.1382   8.1415   8.1415
     8.1433   8.1434   8.1511   8.1523   8.1577   8.1578   8.1880   8.1880
     8.2007   8.2007   8.2041   8.2099   8.2099   8.2155   8.2691   8.2692
     8.2947   8.3217   8.3297   8.3331   8.3332   8.3358   8.3399   8.3400
     8.3401   8.3401   8.3502   8.3504   8.3555   8.3555   8.3601   8.3602
     8.3609   8.3641   8.3641   8.3747   8.3750   8.3750   8.3813   8.3885
     8.3885   8.3930   8.4125   8.4126   8.4239   8.4307   8.4307   8.4487
     8.4487   8.4811   8.4811   8.4812   8.5035   8.5335   8.5336   8.5391
     8.5498   8.6363   8.6363   8.9119   8.9187   8.9187   9.0934   9.0934
     9.1569   9.1569   9.1573   9.1649   9.1929   9.1949   9.1949   9.1982
     9.2153   9.2153   9.2242   9.2243   9.2261   9.2325   9.2325   9.2545
     9.2939   9.2940   9.3576  10.0244  10.1364  10.1366  10.4612  10.5246
    10.5247  10.5754  10.5755  10.5769  10.5954  10.5991  10.5992  10.6023
    10.6711  10.6711  10.6810  10.7705  10.7706  10.8282  10.8326  10.8326
    10.8384  10.8385  10.8436  10.8436  10.8531  10.8701  10.8702  10.8967
    10.8986  10.8986  10.9042  10.9289  10.9289  11.4980  11.5188  11.5189
    11.7435  11.7435  11.7553  11.7795  11.7807  11.7807  11.8049  11.8437
    11.8437  11.8446  12.9220  13.0093  13.0095  13.8791  15.0287  15.0288
    17.3019  17.3019  17.3189  17.3545  17.3545  17.3779  17.8726  17.9417
    17.9417  17.9562  17.9562  18.0176  18.0833  18.0834  18.1371  18.1861
    18.1861  18.2029  18.8108  18.8110  18.8335  19.3920  19.4747  19.4747
    19.4883  19.5207  19.5207  19.5338  19.5339  19.5458  19.5508  19.5508
    19.5904  20.0167  20.1892  20.1892  20.2187  20.2218  20.2218  20.2278
    20.2284  20.2284  20.2358  20.2358  20.2491  20.2575  20.2576  20.2626
    20.2870  20.2871  20.2878  20.3314  20.3314  20.3451  20.3713  20.3714
    20.3715  20.6464  20.6739  20.6739  20.7105  20.7145  20.7291  20.7292
    20.7351  20.7375  20.7375  20.7503  20.7503  20.7690  20.7855  20.7855
    20.8109  20.8133  20.8133  20.8282  20.8282  20.8313  20.8337  20.8548
    20.8564  20.8564  20.8675  20.8675  20.8732  20.8732  20.8952  20.8952
    20.9042  20.9153  20.9153  20.9296  20.9489  21.0113  21.0197  21.0197
    21.0742  21.0742  21.0874  21.2027  21.2924  21.2924  21.3098  21.3346
    21.3346  21.3388  21.3429  21.3430  21.3472  21.3555  21.3555  21.3724
    21.3725  21.3838  21.3953  21.3954  21.4067  21.4096  21.4096  21.4131
    21.4251  21.4252  21.4365  21.4366  21.4371  21.4485  21.4485  21.4634
    21.4635  21.4676  21.4749  21.4961  21.4962  21.5191  21.6074  21.6249
    21.6249  21.6440  21.6559  21.6559  21.6589  21.6795  21.6828  21.6828
    21.6917  21.6917  21.7160  21.7497  21.7497  21.7669  21.7936  21.8173
    21.8173  21.9701  21.9716  21.9716  21.9789  21.9789  22.1165  22.1166
    22.1215  22.1704  22.1704  22.1920  22.1983  22.1984  22.2009  22.3258
    22.3398  22.3399  22.4003  22.4590  22.4591  22.4748  22.4855  22.4855
    22.6650  22.6677  22.6677  22.7989  22.9569  22.9570  22.9712  23.1035
    23.1036  23.1145  23.1213  23.1213  23.1298  23.1298  23.1405  23.1451
    23.1451  23.1471  23.1598  23.1863  23.2048  23.2048  23.2108  23.2658
    23.2948  23.2949  23.3474  23.3474  23.4252  23.4438  23.4439  23.7856
    23.7920  23.7920  23.7970  23.8083  23.8177  23.8178  23.8339  23.8339
    23.8491  23.8510  23.8511  23.8590  23.8612  23.8612  23.8894  23.9016
    23.9568  23.9618  23.9618  24.0991  24.0991  24.1808  24.1808  24.2299
    24.2347  24.2347  24.2505  24.2818  24.2821  24.2822  24.2824  24.2824
    24.2995  24.3406  24.3406  24.3407  24.3819  24.3820  24.3919  24.3919
    24.3979  24.3979  24.4040  24.4247  24.4550  24.4776  24.4776  24.4777
    24.4833  24.4833  24.4911  24.5069  24.5164  24.5164  24.5230  24.5466
    24.5466  24.5619  24.5619  24.5908  24.6185  24.6280  24.6281  24.7419
    24.7420  24.8605  24.8606  25.4663  25.4977  25.4977  25.6034  25.7697
    25.7864  25.7864  25.8012  25.8012  25.9974  26.0074  26.0097  26.0098
    26.0627  26.0628  26.0922  26.1161  26.1341  26.1341  26.2107  26.2746
    26.2746  26.4421  26.5859  26.5859  26.5911  26.6314  26.6456  26.6456
    26.6457  26.6776  26.6776  26.6882  26.6882  26.7020  26.7506  26.7506
    26.7580  26.7639  26.7841  26.7841  26.8295  26.8295  26.8402  26.9260
    26.9260  27.0709  27.0710  27.0951  27.0992  27.1099  27.1099  27.1151
    27.1299  27.1304  27.1305  27.1333  27.1333  27.1602  27.1602  27.1814
    27.1935  27.2205  27.2206  27.2494  27.2510  27.2511  27.2607  27.2607
    27.2737  27.2819  27.2819  27.2820  27.2951  27.3057  27.3057  27.3125
    27.3125  27.3127  27.3232  27.3420  27.3421  27.3604  27.3662  27.3663
    27.3671  27.3771  27.3772  27.3833  27.3901  27.3901  27.4158  27.4275
    27.4462  27.4463  27.4554  27.4691  27.4691  27.4944  27.4945  27.5251
    27.5251  27.5255  27.5450  27.5552  27.5556  27.5556  27.5712  27.5887
    27.5887  27.5941  27.5941  27.5994  27.6144  27.6144  27.6244  27.6609
    27.6610  27.6789  27.7111  27.7111  27.7297  27.8022  27.8022  27.8843
    27.9003  27.9072  27.9072  27.9666  28.0363  28.0364  28.0739  28.0739
    28.1176  28.1448  28.1448  28.2785  28.2785  28.2914  28.3248  28.3514
    28.3560  28.3560  28.5039  28.5255  28.5334  28.5335  29.7109  29.7915
    29.7915  29.8734  29.9286  29.9287  29.9741  30.0579

     occupation numbers 
     1.0000   1.0000   1.0000   1.0000   1.0000   1.0000   1.0000   1.0000
     1.0000   1.0000   1.0000   1.0000   1.0000   1.0000   1.0000   1.0000
     1.0000   1.0000   1.0000   1.0000   1.0000   1.0000   1.0000   1.0000
     1.0000   1.0000   1.0000   1.0000   1.0000   1.0000   1.0000   1.0000
     1.0000   1.0000   1.0000   1.0000   1.0000   1.0000   1.0000   1.0000
     1.0000   1.0000   1.0000   1.0000   1.0000   1.0000   1.0000   1.0000
     1.0000   1.0000   1.0000   1.0000   1.0000   1.0000   1.0000   1.0000
     1.0000   1.0000   1.0000   1.0000   1.0000   1.0000   1.0000   1.0000
     1.0000   1.0000   1.0000   1.0000   1.0000   1.0000   1.0000   1.0000
     1.0000   1.0000   1.0000   1.0000   1.0000   1.0000   1.0000   1.0000
     1.0000   1.0000   1.0000   1.0000   1.0000   1.0000   1.0000   1.0000
     1.0000   1.0000   1.0000   1.0000   1.0000   1.0000   1.0000   1.0000
     1.0000   1.0000   1.0000   1.0000   1.0000   1.0000   1.0000   1.0000
     1.0000   1.0000   1.0000   1.0000   1.0000   1.0000   1.0000   1.0000
     1.0000   1.0000   1.0000   1.0000   1.0000   1.0000   1.0000   1.0000
     1.0000   1.0000   1.0000   1.0000   1.0000   1.0000   1.0000   1.0000
     1.0000   1.0000   1.0000   1.0000   1.0000   1.0000   1.0000   1.0000
     1.0000   1.0000   1.0000   1.0000   1.0000   1.0000   1.0000   1.0000
     1.0000   1.0000   1.0000   1.0000   1.0000   1.0000   1.0000   1.0000
     1.0000   1.0000   1.0000   1.0000   1.0000   1.0000   1.0000   1.0000
     1.0000   1.0000   1.0000   1.0000   1.0000   1.0000   1.0000   1.0000
     1.0000   1.0000   1.0000   1.0000   1.0000   1.0000   1.0000   1.0000
     1.0000   1.0000   1.0000   1.0000   1.0000   1.0000   1.0000   1.0000
     1.0000   1.0000   1.0000   1.0000   1.0000   1.0000   1.0000   1.0000
     1.0000   1.0000   1.0000   1.0000   1.0000   1.0000   1.0000   1.0000
     1.0000   1.0000   1.0000   1.0000   1.0000   1.0000   1.0000   1.0000
     1.0000   1.0000   1.0000   1.0000   1.0000   1.0000   1.0000   1.0000
     1.0000   1.0000   1.0000   1.0000   1.0000   1.0000   1.0000   1.0000
     1.0000   1.0000   1.0000   1.0000   1.0000   1.0000   1.0000   1.0000
     1.0000   1.0000   1.0000   1.0000   1.0000   1.0000   1.0000   1.0000
     1.0000   1.0000   1.0000   1.0000   1.0000   1.0000   1.0000   1.0000
     1.0000   1.0000   1.0000   1.0000   1.0000   1.0000   1.0000   1.0000
     1.0000   1.0000   1.0000   1.0000   1.0000   1.0000   1.0000   1.0000
     1.0000   1.0000   1.0000   1.0000   1.0000   1.0000   1.0000   1.0000
     1.0000   1.0000   1.0000   1.0000   1.0000   1.0000   1.0000   1.0000
     1.0000   1.0000   1.0000   1.0000   1.0000   1.0000   1.0000   1.0000
     1.0000   1.0000   1.0000   1.0000   1.0000   1.0000   1.0000   1.0000
     1.0000   1.0000   1.0000   1.0000   1.0000   1.0000   1.0000   1.0000
     1.0000   1.0000   1.0000   1.0000   1.0000   1.0000   1.0000   1.0000
     1.0000   1.0000   1.0000   1.0000   1.0000   1.0000   1.0000   1.0000
     1.0000   1.0000   1.0000   1.0000   1.0000   1.0000   1.0000   1.0000
     1.0000   1.0000   1.0000   1.0000   1.0000   1.0000   1.0000   1.0000
     1.0000   1.0000   1.0000   1.0000   1.0000   1.0000   1.0000   1.0000
     1.0000   1.0000   1.0000   1.0000   1.0000   1.0000   1.0000   1.0000
     1.0000   1.0000   1.0000   1.0000   1.0000   1.0000   1.0000   1.0000
     1.0000   1.0000   1.0000   1.0000   1.0000   1.0000   1.0000   1.0000
     1.0000   1.0000   1.0000   1.0000   1.0000   1.0000   1.0000   1.0000
     1.0000   1.0000   1.0000   1.0000   1.0000   1.0000   1.0000   1.0000
     1.0000   1.0000   1.0000   1.0000   1.0000   1.0000   1.0000   1.0000
     1.0000   1.0000   1.0000   1.0000   1.0000   1.0000   1.0000   1.0000
     1.0000   1.0000   1.0000   1.0000   1.0000   1.0000   1.0000   1.0000
     1.0000   1.0000   1.0000   1.0000   1.0000   1.0000   1.0000   1.0000
     1.0000   1.0000   1.0000   1.0000   1.0000   1.0000   1.0000   1.0000
     1.0000   1.0000   1.0000   1.0000   1.0000   1.0000   1.0000   1.0000
     0.0000   0.0000   0.0000   0.0000   0.0000   0.0000   0.0000   0.0000
     0.0000   0.0000   0.0000   0.0000   0.0000   0.0000   0.0000   0.0000
     0.0000   0.0000   0.0000   0.0000   0.0000   0.0000   0.0000   0.0000
     0.0000   0.0000   0.0000   0.0000   0.0000   0.0000   0.0000   0.0000
     0.0000   0.0000   0.0000   0.0000   0.0000   0.0000   0.0000   0.0000
     0.0000   0.0000   0.0000   0.0000   0.0000   0.0000   0.0000   0.0000
     0.0000   0.0000   0.0000   0.0000   0.0000   0.0000   0.0000   0.0000
     0.0000   0.0000   0.0000   0.0000   0.0000   0.0000   0.0000   0.0000
     0.0000   0.0000   0.0000   0.0000   0.0000   0.0000   0.0000   0.0000
     0.0000   0.0000   0.0000   0.0000   0.0000   0.0000   0.0000   0.0000
     0.0000   0.0000   0.0000   0.0000   0.0000   0.0000   0.0000   0.0000
     0.0000   0.0000   0.0000   0.0000   0.0000   0.0000   0.0000   0.0000
     0.0000   0.0000   0.0000   0.0000   0.0000   0.0000   0.0000   0.0000
     0.0000   0.0000   0.0000   0.0000   0.0000   0.0000   0.0000   0.0000
     0.0000   0.0000   0.0000   0.0000   0.0000   0.0000   0.0000   0.0000
     0.0000   0.0000   0.0000   0.0000   0.0000   0.0000   0.0000   0.0000
     0.0000   0.0000   0.0000   0.0000   0.0000   0.0000   0.0000   0.0000
     0.0000   0.0000   0.0000   0.0000   0.0000   0.0000   0.0000   0.0000
     0.0000   0.0000   0.0000   0.0000   0.0000   0.0000   0.0000   0.0000
     0.0000   0.0000   0.0000   0.0000   0.0000   0.0000   0.0000   0.0000
     0.0000   0.0000   0.0000   0.0000   0.0000   0.0000   0.0000   0.0000
     0.0000   0.0000   0.0000   0.0000   0.0000   0.0000   0.0000   0.0000
     0.0000   0.0000   0.0000   0.0000   0.0000   0.0000   0.0000   0.0000
     0.0000   0.0000   0.0000   0.0000   0.0000   0.0000   0.0000   0.0000
     0.0000   0.0000   0.0000   0.0000   0.0000   0.0000   0.0000   0.0000
     0.0000   0.0000   0.0000   0.0000   0.0000   0.0000   0.0000   0.0000
     0.0000   0.0000   0.0000   0.0000   0.0000   0.0000   0.0000   0.0000
     0.0000   0.0000   0.0000   0.0000   0.0000   0.0000   0.0000   0.0000
     0.0000   0.0000   0.0000   0.0000   0.0000   0.0000   0.0000   0.0000
     0.0000   0.0000   0.0000   0.0000   0.0000   0.0000   0.0000   0.0000
     0.0000   0.0000   0.0000   0.0000   0.0000   0.0000   0.0000   0.0000
     0.0000   0.0000   0.0000   0.0000   0.0000   0.0000   0.0000   0.0000
     0.0000   0.0000   0.0000   0.0000   0.0000   0.0000   0.0000   0.0000
     0.0000   0.0000   0.0000   0.0000   0.0000   0.0000   0.0000   0.0000
     0.0000   0.0000   0.0000   0.0000   0.0000   0.0000   0.0000   0.0000
     0.0000   0.0000   0.0000   0.0000   0.0000   0.0000   0.0000   0.0000
     0.0000   0.0000   0.0000   0.0000   0.0000   0.0000   0.0000   0.0000
     0.0000   0.0000   0.0000   0.0000   0.0000   0.0000   0.0000   0.0000
     0.0000   0.0000   0.0000   0.0000   0.0000   0.0000   0.0000   0.0000
     0.0000   0.0000   0.0000   0.0000   0.0000   0.0000   0.0000   0.0000
     0.0000   0.0000   0.0000   0.0000   0.0000   0.0000   0.0000   0.0000
     0.0000   0.0000   0.0000   0.0000   0.0000   0.0000   0.0000   0.0000
     0.0000   0.0000   0.0000   0.0000   0.0000   0.0000   0.0000   0.0000
     0.0000   0.0000   0.0000   0.0000   0.0000   0.0000   0.0000   0.0000
     0.0000   0.0000   0.0000   0.0000   0.0000   0.0000   0.0000   0.0000
     0.0000   0.0000   0.0000   0.0000   0.0000   0.0000   0.0000   0.0000
     0.0000   0.0000   0.0000   0.0000   0.0000   0.0000   0.0000   0.0000
     0.0000   0.0000   0.0000   0.0000   0.0000   0.0000   0.0000   0.0000
     0.0000   0.0000   0.0000   0.0000   0.0000   0.0000   0.0000   0.0000
     0.0000   0.0000   0.0000   0.0000   0.0000   0.0000   0.0000   0.0000
     0.0000   0.0000   0.0000   0.0000   0.0000   0.0000   0.0000   0.0000
     0.0000   0.0000   0.0000   0.0000   0.0000   0.0000   0.0000   0.0000
     0.0000   0.0000   0.0000   0.0000   0.0000   0.0000   0.0000   0.0000
     0.0000   0.0000   0.0000   0.0000   0.0000   0.0000

 ------ SPIN DOWN ----------


          k = 0.0000 0.0000 0.0000 ( 42379 PWs)   bands (ev):

    -8.2859  -7.4630  -7.2816  -7.2816  -7.2337  -7.2337  -7.1448  -6.6235
    -6.2823  -6.2823  -6.2736  -6.2736  -6.2584  -6.2314  -6.2314  -6.2223
    -6.1660  -6.1660  -5.9887  -5.5108  -5.2556  -5.2484  -5.2484  -5.2245
    -5.2147  -5.2147  -5.0452  -4.4470  -4.2633  -4.2633  -4.2382  -4.2382
    -4.1829  -3.8562  -3.3770  -3.3770  -3.3723  -3.3701  -3.3701  -3.3557
    -3.3535  -3.3535  -3.3439  -3.3363  -3.3363  -3.3289  -3.3287  -3.3287
    -3.2928  -3.2927  -3.2826  -3.2793  -3.2793  -3.2628  -3.1800  -3.1800
    -3.0170  -2.8288  -2.6094  -2.6094  -2.5785  -2.5755  -2.5755  -2.5640
    -2.5576  -2.5576  -2.5485  -2.5430  -2.5430  -2.5214  -2.5190  -2.5189
    -2.5020  -2.5020  -2.4653  -2.4574  -2.4574  -2.4231  -2.2671  -2.2671
    -1.5967  -1.0626  -0.9018  -0.9018  -0.8602  -0.8602  -0.8570  -0.8524
    -0.8524  -0.8418  -0.7748  -0.7748  -0.3953   0.3578   0.4011   0.4011
     0.4267   0.4267   0.4637   0.6959   0.8576   0.8576   0.8916   0.9027
     0.9027   0.9119   0.9119   0.9143   0.9145   0.9360   0.9360   0.9413
     0.9413   0.9670   1.0057   1.0152   1.0152   1.0393   1.0447   1.0447
     1.0758   1.0758   1.0962   1.1185   1.1185   1.1279   1.1390   1.1416
     1.1416   1.1449   1.1509   1.1510   1.1678   1.1750   1.1750   1.1972
     1.1973   1.2017   1.2082   1.2083   1.2235   1.2235   1.2508   1.4512
     1.5963   1.5963   1.9582   2.2026   2.2027   2.2119   2.2441   2.2468
     2.2468   2.2598   2.2769   2.2769   2.4558   2.4558   3.4272   3.7274
     3.7275   3.7437   3.7932   3.8044   3.8044   3.8068   3.8098   3.8099
     3.8138   3.8166   3.8298   3.8299   3.8329   3.8552   3.8552   3.9803
     3.9803   3.9838   4.0157   4.3620   4.3620   4.3978   4.4513   4.4586
     4.4596   4.4596   4.4671   4.4672   4.4751   4.4751   4.4761   4.4880
     4.4880   4.5000   4.5000   4.5000   4.5189   4.5280   4.5285   4.5285
     4.7736   4.7736   5.2594   5.2595   5.2782   5.3181   5.3181   5.3203
     5.3214   5.3300   5.3300   5.3430   5.3430   5.3474   5.3609   5.3609
     5.4175   5.4175   5.4236   5.4333   5.4392   5.4779   5.4779   5.5313
     5.5539   5.5539   5.6442   5.7506   5.7506   5.8381   5.8436   5.8436
     5.8588   5.8606   5.8606   5.8682   5.8725   5.8726   5.8789   5.8901
     5.8935   5.8935   5.9188   5.9211   5.9211   5.9235   5.9464   5.9464
     5.9624   5.9824   5.9824   6.0216   6.0216   6.3223   6.3814   6.3814
     6.8555   6.8555   6.9169   6.9363   6.9552   6.9552   7.1122   7.3886
     7.3886   7.4596   7.4596   7.4611   7.4761   7.4804   7.4804   7.5138
     7.5685   7.5685   7.7284   7.7284   7.8497   7.8711   7.8711   7.8712
     7.8847   7.8848   7.8867   7.9104   7.9382   7.9383   7.9471   8.0820
     8.0820   8.0972   8.1216   8.1251   8.1251   8.1406   8.1432   8.1432
     8.1463   8.1464   8.1535   8.1573   8.1605   8.1606   8.1940   8.1940
     8.2088   8.2088   8.2094   8.2199   8.2199   8.2204   8.2747   8.2747
     8.3023   8.3308   8.3348   8.3351   8.3352   8.3389   8.3422   8.3422
     8.3435   8.3436   8.3541   8.3541   8.3596   8.3596   8.3645   8.3645
     8.3646   8.3694   8.3694   8.3806   8.3806   8.3813   8.3976   8.3998
     8.3999   8.4006   8.4220   8.4220   8.4308   8.4398   8.4398   8.4546
     8.4546   8.4935   8.4935   8.5051   8.5222   8.5452   8.5554   8.5554
     8.5633   8.6767   8.6767   8.9236   8.9372   8.9373   9.0991   9.0992
     9.1594   9.1594   9.1602   9.1670   9.1990   9.1990   9.2001   9.2072
     9.2223   9.2223   9.2335   9.2390   9.2390   9.2518   9.2518   9.2602
     9.3224   9.3224   9.3941  10.0414  10.2052  10.2053  10.5375  10.5375
    10.5775  10.5776  10.5830  10.5875  10.5985  10.6137  10.6137  10.6314
    10.6764  10.6765  10.6894  10.7750  10.7751  10.8352  10.8366  10.8366
    10.8444  10.8444  10.8568  10.8569  10.8585  10.8833  10.8834  10.9091
    10.9134  10.9135  10.9244  10.9363  10.9364  11.5109  11.5480  11.5481
    11.7510  11.7511  11.7573  11.7843  11.7858  11.7858  11.8191  11.8612
    11.8612  12.1672  13.0301  13.0471  13.0473  14.3911  16.2396  16.2396
    17.3059  17.3059  17.3295  17.3656  17.3657  17.3872  17.8778  17.9499
    17.9499  17.9626  17.9627  18.0261  18.0884  18.0884  18.1632  18.2036
    18.2036  18.2128  18.8302  18.8304  18.8439  19.4003  19.4780  19.4780
    19.4911  19.5304  19.5305  19.5396  19.5396  19.5499  19.5561  19.5561
    19.5968  20.0211  20.1919  20.1919  20.2205  20.2248  20.2248  20.2300
    20.2322  20.2323  20.2438  20.2438  20.2555  20.2632  20.2633  20.2658
    20.2944  20.2962  20.2963  20.3386  20.3387  20.3527  20.3794  20.3795
    20.3795  20.6510  20.6796  20.6796  20.7124  20.7164  20.7312  20.7313
    20.7382  20.7395  20.7395  20.7529  20.7529  20.7710  20.7890  20.7891
    20.8149  20.8168  20.8168  20.8321  20.8321  20.8357  20.8430  20.8586
    20.8691  20.8691  20.8796  20.8796  20.8850  20.8850  20.9025  20.9025
    20.9076  20.9221  20.9221  20.9423  20.9561  21.0232  21.0260  21.0260
    21.0824  21.0824  21.0936  21.2071  21.2975  21.2975  21.3139  21.3382
    21.3383  21.3442  21.3464  21.3464  21.3490  21.3621  21.3621  21.3775
    21.3776  21.3882  21.4020  21.4021  21.4142  21.4143  21.4148  21.4183
    21.4345  21.4345  21.4413  21.4414  21.4440  21.4671  21.4671  21.4714
    21.4715  21.4802  21.4918  21.5216  21.5216  21.5471  21.6137  21.6371
    21.6371  21.6461  21.6604  21.6604  21.6609  21.6884  21.6910  21.6910
    21.7007  21.7008  21.7285  21.7542  21.7542  21.7733  21.8155  21.8377
    21.8377  21.9774  21.9877  21.9877  22.0054  22.0054  22.1193  22.1194
    22.1243  22.1848  22.1849  22.2035  22.2065  22.2076  22.2076  22.3375
    22.3497  22.3498  22.4146  22.4672  22.4673  22.4839  22.4893  22.4893
    22.6839  22.7113  22.7113  22.8651  22.9760  22.9761  22.9942  23.1093
    23.1094  23.1167  23.1240  23.1240  23.1350  23.1351  23.1467  23.1477
    23.1477  23.1523  23.1663  23.1975  23.2212  23.2212  23.2343  23.2930
    23.3432  23.3433  23.3680  23.3681  23.4416  23.4775  23.4775  23.7886
    23.7963  23.7963  23.8032  23.8114  23.8220  23.8220  23.8368  23.8368
    23.8566  23.8641  23.8642  23.8690  23.8691  23.8849  23.8959  23.9201
    23.9691  23.9832  23.9832  24.1141  24.1141  24.1983  24.1984  24.2360
    24.2394  24.2394  24.2542  24.2854  24.2855  24.2868  24.2868  24.2881
    24.3053  24.3462  24.3463  24.3474  24.3902  24.3902  24.4041  24.4042
    24.4085  24.4178  24.4178  24.4326  24.4597  24.4800  24.4888  24.4888
    24.5060  24.5060  24.5089  24.5118  24.5199  24.5199  24.5285  24.5576
    24.5576  24.5818  24.5818  24.6151  24.6480  24.6575  24.6575  24.8646
    24.8646  24.9282  24.9282  25.5178  25.5435  25.5435  25.6324  25.7757
    25.8010  25.8010  25.8135  25.8135  26.0016  26.0110  26.0157  26.0157
    26.0710  26.0710  26.1104  26.1285  26.1532  26.1533  26.2296  26.3035
    26.3035  26.4569  26.5923  26.5923  26.6051  26.6397  26.6505  26.6513
    26.6513  26.6838  26.6838  26.6970  26.6971  26.7140  26.7604  26.7604
    26.7641  26.7776  26.7896  26.7896  26.8427  26.8427  26.8447  26.9521
    26.9521  27.0766  27.0767  27.1021  27.1029  27.1130  27.1130  27.1204
    27.1327  27.1342  27.1342  27.1370  27.1371  27.1652  27.1652  27.1918
    27.1979  27.2251  27.2251  27.2556  27.2571  27.2572  27.2646  27.2646
    27.2779  27.2877  27.2902  27.2902  27.3016  27.3144  27.3145  27.3175
    27.3176  27.3274  27.3277  27.3582  27.3583  27.3669  27.3716  27.3717
    27.3719  27.3829  27.3830  27.3917  27.3975  27.3975  27.4295  27.4458
    27.4555  27.4555  27.4638  27.4821  27.4821  27.5084  27.5085  27.5327
    27.5328  27.5332  27.5504  27.5605  27.5605  27.5613  27.5771  27.5964
    27.5965  27.6011  27.6011  27.6029  27.6200  27.6200  27.6341  27.6949
    27.6950  27.7417  27.7417  27.7436  27.7704  27.8563  27.8563  27.8936
    27.9156  27.9326  27.9326  27.9925  28.0556  28.0556  28.1094  28.1095
    28.1323  28.1718  28.1718  28.3129  28.3207  28.3208  28.3332  28.4010
    28.4077  28.4077  28.5727  28.6409  28.6409  28.6571  29.7433  29.8077
    29.8077  29.9175  29.9532  29.9534  30.0017  30.0659

     occupation numbers 
     1.0000   1.0000   1.0000   1.0000   1.0000   1.0000   1.0000   1.0000
     1.0000   1.0000   1.0000   1.0000   1.0000   1.0000   1.0000   1.0000
     1.0000   1.0000   1.0000   1.0000   1.0000   1.0000   1.0000   1.0000
     1.0000   1.0000   1.0000   1.0000   1.0000   1.0000   1.0000   1.0000
     1.0000   1.0000   1.0000   1.0000   1.0000   1.0000   1.0000   1.0000
     1.0000   1.0000   1.0000   1.0000   1.0000   1.0000   1.0000   1.0000
     1.0000   1.0000   1.0000   1.0000   1.0000   1.0000   1.0000   1.0000
     1.0000   1.0000   1.0000   1.0000   1.0000   1.0000   1.0000   1.0000
     1.0000   1.0000   1.0000   1.0000   1.0000   1.0000   1.0000   1.0000
     1.0000   1.0000   1.0000   1.0000   1.0000   1.0000   1.0000   1.0000
     1.0000   1.0000   1.0000   1.0000   1.0000   1.0000   1.0000   1.0000
     1.0000   1.0000   1.0000   1.0000   1.0000   1.0000   1.0000   1.0000
     1.0000   1.0000   1.0000   1.0000   1.0000   1.0000   1.0000   1.0000
     1.0000   1.0000   1.0000   1.0000   1.0000   1.0000   1.0000   1.0000
     1.0000   1.0000   1.0000   1.0000   1.0000   1.0000   1.0000   1.0000
     1.0000   1.0000   1.0000   1.0000   1.0000   1.0000   1.0000   1.0000
     1.0000   1.0000   1.0000   1.0000   1.0000   1.0000   1.0000   1.0000
     1.0000   1.0000   1.0000   1.0000   1.0000   1.0000   1.0000   1.0000
     1.0000   1.0000   1.0000   1.0000   1.0000   1.0000   1.0000   1.0000
     1.0000   1.0000   1.0000   1.0000   1.0000   1.0000   1.0000   1.0000
     1.0000   1.0000   1.0000   1.0000   1.0000   1.0000   1.0000   1.0000
     1.0000   1.0000   1.0000   1.0000   1.0000   1.0000   1.0000   1.0000
     1.0000   1.0000   1.0000   1.0000   1.0000   1.0000   1.0000   1.0000
     1.0000   1.0000   1.0000   1.0000   1.0000   1.0000   1.0000   1.0000
     1.0000   1.0000   1.0000   1.0000   1.0000   1.0000   1.0000   1.0000
     1.0000   1.0000   1.0000   1.0000   1.0000   1.0000   1.0000   1.0000
     1.0000   1.0000   1.0000   1.0000   1.0000   1.0000   1.0000   1.0000
     1.0000   1.0000   1.0000   1.0000   1.0000   1.0000   1.0000   1.0000
     1.0000   1.0000   1.0000   1.0000   1.0000   1.0000   1.0000   1.0000
     1.0000   1.0000   1.0000   1.0000   1.0000   1.0000   1.0000   1.0000
     1.0000   1.0000   1.0000   1.0000   1.0000   1.0000   1.0000   1.0000
     1.0000   1.0000   1.0000   1.0000   1.0000   1.0000   1.0000   1.0000
     1.0000   1.0000   1.0000   1.0000   1.0000   1.0000   1.0000   1.0000
     1.0000   1.0000   1.0000   1.0000   1.0000   1.0000   1.0000   1.0000
     1.0000   1.0000   1.0000   1.0000   1.0000   1.0000   1.0000   1.0000
     1.0000   1.0000   1.0000   1.0000   1.0000   1.0000   1.0000   1.0000
     1.0000   1.0000   1.0000   1.0000   1.0000   1.0000   1.0000   1.0000
     1.0000   1.0000   1.0000   1.0000   1.0000   1.0000   1.0000   1.0000
     1.0000   1.0000   1.0000   1.0000   1.0000   1.0000   1.0000   1.0000
     1.0000   1.0000   1.0000   1.0000   1.0000   1.0000   1.0000   1.0000
     1.0000   1.0000   1.0000   1.0000   1.0000   1.0000   1.0000   1.0000
     1.0000   1.0000   1.0000   1.0000   1.0000   1.0000   1.0000   1.0000
     1.0000   1.0000   1.0000   1.0000   1.0000   1.0000   1.0000   1.0000
     1.0000   1.0000   1.0000   1.0000   1.0000   1.0000   1.0000   1.0000
     1.0000   1.0000   1.0000   1.0000   1.0000   1.0000   1.0000   1.0000
     1.0000   1.0000   1.0000   1.0000   1.0000   1.0000   1.0000   1.0000
     1.0000   1.0000   1.0000   1.0000   1.0000   1.0000   1.0000   1.0000
     1.0000   1.0000   1.0000   1.0000   1.0000   1.0000   1.0000   1.0000
     1.0000   1.0000   1.0000   1.0000   1.0000   1.0000   1.0000   1.0000
     1.0000   1.0000   1.0000   1.0000   1.0000   1.0000   1.0000   1.0000
     1.0000   1.0000   1.0000   1.0000   1.0000   1.0000   1.0000   1.0000
     1.0000   1.0000   1.0000   1.0000   1.0000   1.0000   1.0000   1.0000
     1.0000   1.0000   1.0000   1.0000   1.0000   1.0000   1.0000   1.0000
     1.0000   1.0000   1.0000   1.0000   1.0000   1.0000   0.0000   0.0000
     0.0000   0.0000   0.0000   0.0000   0.0000   0.0000   0.0000   0.0000
     0.0000   0.0000   0.0000   0.0000   0.0000   0.0000   0.0000   0.0000
     0.0000   0.0000   0.0000   0.0000   0.0000   0.0000   0.0000   0.0000
     0.0000   0.0000   0.0000   0.0000   0.0000   0.0000   0.0000   0.0000
     0.0000   0.0000   0.0000   0.0000   0.0000   0.0000   0.0000   0.0000
     0.0000   0.0000   0.0000   0.0000   0.0000   0.0000   0.0000   0.0000
     0.0000   0.0000   0.0000   0.0000   0.0000   0.0000   0.0000   0.0000
     0.0000   0.0000   0.0000   0.0000   0.0000   0.0000   0.0000   0.0000
     0.0000   0.0000   0.0000   0.0000   0.0000   0.0000   0.0000   0.0000
     0.0000   0.0000   0.0000   0.0000   0.0000   0.0000   0.0000   0.0000
     0.0000   0.0000   0.0000   0.0000   0.0000   0.0000   0.0000   0.0000
     0.0000   0.0000   0.0000   0.0000   0.0000   0.0000   0.0000   0.0000
     0.0000   0.0000   0.0000   0.0000   0.0000   0.0000   0.0000   0.0000
     0.0000   0.0000   0.0000   0.0000   0.0000   0.0000   0.0000   0.0000
     0.0000   0.0000   0.0000   0.0000   0.0000   0.0000   0.0000   0.0000
     0.0000   0.0000   0.0000   0.0000   0.0000   0.0000   0.0000   0.0000
     0.0000   0.0000   0.0000   0.0000   0.0000   0.0000   0.0000   0.0000
     0.0000   0.0000   0.0000   0.0000   0.0000   0.0000   0.0000   0.0000
     0.0000   0.0000   0.0000   0.0000   0.0000   0.0000   0.0000   0.0000
     0.0000   0.0000   0.0000   0.0000   0.0000   0.0000   0.0000   0.0000
     0.0000   0.0000   0.0000   0.0000   0.0000   0.0000   0.0000   0.0000
     0.0000   0.0000   0.0000   0.0000   0.0000   0.0000   0.0000   0.0000
     0.0000   0.0000   0.0000   0.0000   0.0000   0.0000   0.0000   0.0000
     0.0000   0.0000   0.0000   0.0000   0.0000   0.0000   0.0000   0.0000
     0.0000   0.0000   0.0000   0.0000   0.0000   0.0000   0.0000   0.0000
     0.0000   0.0000   0.0000   0.0000   0.0000   0.0000   0.0000   0.0000
     0.0000   0.0000   0.0000   0.0000   0.0000   0.0000   0.0000   0.0000
     0.0000   0.0000   0.0000   0.0000   0.0000   0.0000   0.0000   0.0000
     0.0000   0.0000   0.0000   0.0000   0.0000   0.0000   0.0000   0.0000
     0.0000   0.0000   0.0000   0.0000   0.0000   0.0000   0.0000   0.0000
     0.0000   0.0000   0.0000   0.0000   0.0000   0.0000   0.0000   0.0000
     0.0000   0.0000   0.0000   0.0000   0.0000   0.0000   0.0000   0.0000
     0.0000   0.0000   0.0000   0.0000   0.0000   0.0000   0.0000   0.0000
     0.0000   0.0000   0.0000   0.0000   0.0000   0.0000   0.0000   0.0000
     0.0000   0.0000   0.0000   0.0000   0.0000   0.0000   0.0000   0.0000
     0.0000   0.0000   0.0000   0.0000   0.0000   0.0000   0.0000   0.0000
     0.0000   0.0000   0.0000   0.0000   0.0000   0.0000   0.0000   0.0000
     0.0000   0.0000   0.0000   0.0000   0.0000   0.0000   0.0000   0.0000
     0.0000   0.0000   0.0000   0.0000   0.0000   0.0000   0.0000   0.0000
     0.0000   0.0000   0.0000   0.0000   0.0000   0.0000   0.0000   0.0000
     0.0000   0.0000   0.0000   0.0000   0.0000   0.0000   0.0000   0.0000
     0.0000   0.0000   0.0000   0.0000   0.0000   0.0000   0.0000   0.0000
     0.0000   0.0000   0.0000   0.0000   0.0000   0.0000   0.0000   0.0000
     0.0000   0.0000   0.0000   0.0000   0.0000   0.0000   0.0000   0.0000
     0.0000   0.0000   0.0000   0.0000   0.0000   0.0000   0.0000   0.0000
     0.0000   0.0000   0.0000   0.0000   0.0000   0.0000   0.0000   0.0000
     0.0000   0.0000   0.0000   0.0000   0.0000   0.0000   0.0000   0.0000
     0.0000   0.0000   0.0000   0.0000   0.0000   0.0000   0.0000   0.0000
     0.0000   0.0000   0.0000   0.0000   0.0000   0.0000   0.0000   0.0000
     0.0000   0.0000   0.0000   0.0000   0.0000   0.0000   0.0000   0.0000
     0.0000   0.0000   0.0000   0.0000   0.0000   0.0000   0.0000   0.0000
     0.0000   0.0000   0.0000   0.0000   0.0000   0.0000   0.0000   0.0000
     0.0000   0.0000   0.0000   0.0000   0.0000   0.0000   0.0000   0.0000
     0.0000   0.0000   0.0000   0.0000   0.0000   0.0000

     highest occupied, lowest unoccupied level (ev):    15.02875264   16.23956663

!    total energy              =   -3971.35123692 Ry
     total all-electron energy =    -16414.166840 Ry
     estimated scf accuracy    <          5.7E-09 Ry

     The total energy is the sum of the following terms:
     one-electron contribution =     886.11195519 Ry
     hartree contribution      =     217.97908132 Ry
     xc contribution           =   -1009.04668199 Ry
     ewald contribution        =   -2739.62613687 Ry
     one-center paw contrib.   =   -1326.76945457 Ry
      -> PAW hartree energy AE =      53.83475721 Ry
      -> PAW hartree energy PS =     -53.78581481 Ry
      -> PAW xc energy AE      =     -63.25348074 Ry
      -> PAW xc energy PS      =      26.22917130 Ry
      -> total E_H with PAW    =     218.02802373 Ry
      -> total E_XC with PAW   =   -1046.07099142 Ry

     total magnetization       =     2.00 Bohr mag/cell
     absolute magnetization    =     2.24 Bohr mag/cell

     convergence has been achieved in  15 iterations

     Forces acting on atoms (cartesian axes, Ry/au):

     atom    1 type  1   force =     0.00008385    0.00011946   -0.00011286
     atom    2 type  1   force =    -0.00010562   -0.00008202    0.00003692
     atom    3 type  1   force =    -0.00001623    0.00019631   -0.00002029
     atom    4 type  1   force =    -0.00001948   -0.00006115    0.00012297
     atom    5 type  1   force =    -0.00014405   -0.00015439    0.00018160
     atom    6 type  1   force =     0.00005608    0.00013607    0.00035918
     atom    7 type  1   force =    -0.00002708    0.00019356   -0.00003103
     atom    8 type  1   force =    -0.00037944    0.00003044   -0.00007622
     atom    9 type  1   force =    -0.00008392    0.00016039    0.00004508
     atom   10 type  1   force =    -0.00003283    0.00004555    0.00002171
     atom   11 type  1   force =    -0.00004310   -0.00005783    0.00002949
     atom   12 type  1   force =     0.00006186    0.00002805   -0.00011582
     atom   13 type  1   force =    -0.00001617   -0.00005139    0.00005636
     atom   14 type  1   force =     0.00005259   -0.00011421   -0.00002486
     atom   15 type  1   force =    -0.00007314    0.00001906   -0.00002743
     atom   16 type  1   force =     0.00010769    0.00003912   -0.00006997
     atom   17 type  1   force =     0.00002039    0.00004170    0.00006479
     atom   18 type  1   force =     0.00015535    0.00025292   -0.00021665
     atom   19 type  1   force =    -0.00009901   -0.00012621    0.00012967
     atom   20 type  1   force =     0.00010681   -0.00005028    0.00014217
     atom   21 type  1   force =     0.00003333   -0.00007852   -0.00008570
     atom   22 type  1   force =    -0.00012318   -0.00010609   -0.00008777
     atom   23 type  1   force =     0.00007787    0.00002748   -0.00008459
     atom   24 type  1   force =     0.00022559   -0.00006302   -0.00003006
     atom   25 type  1   force =     0.00010278   -0.00006171   -0.00001627
     atom   26 type  1   force =     0.00005048   -0.00010556   -0.00020521
     atom   27 type  1   force =     0.00027919   -0.00013357   -0.00024681
     atom   28 type  1   force =     0.00008082    0.00001793    0.00009068
     atom   29 type  1   force =    -0.00003996    0.00015666    0.00015260
     atom   30 type  1   force =     0.00014371    0.00025145    0.00026021
     atom   31 type  1   force =     0.00009029    0.00008748    0.00000125
     atom   32 type  1   force =     0.00005160   -0.00003537   -0.00004270
     atom   33 type  1   force =     0.00013331    0.00033174   -0.00014504
     atom   34 type  1   force =     0.00001866    0.00008519   -0.00018835
     atom   35 type  1   force =    -0.00035941   -0.00001579   -0.00014073
     atom   36 type  1   force =    -0.00001123   -0.00001173   -0.00019066
     atom   37 type  1   force =    -0.00016051    0.00001305    0.00006738
     atom   38 type  1   force =     0.00005375    0.00010273    0.00001777
     atom   39 type  1   force =     0.00018280    0.00006631    0.00013258
     atom   40 type  1   force =    -0.00000508   -0.00008543    0.00000804
     atom   41 type  1   force =     0.00000383   -0.00000501    0.00012140
     atom   42 type  1   force =    -0.00006330    0.00000024   -0.00003174
     atom   43 type  1   force =     0.00000943   -0.00013448    0.00001134
     atom   44 type  1   force =    -0.00010389   -0.00026139    0.00003638
     atom   45 type  1   force =     0.00021183   -0.00027415   -0.00019725
     atom   46 type  1   force =    -0.00008088   -0.00018468    0.00005899
     atom   47 type  1   force =     0.00012712   -0.00012263    0.00004774
     atom   48 type  1   force =    -0.00002094    0.00005950    0.00011185
     atom   49 type  1   force =    -0.00002312   -0.00002277   -0.00005073
     atom   50 type  1   force =    -0.00004860   -0.00006925    0.00002094
     atom   51 type  1   force =     0.00001715    0.00011515    0.00001918
     atom   52 type  1   force =     0.00006056    0.00016563   -0.00004761
     atom   53 type  1   force =    -0.00010887   -0.00009136    0.00003182
     atom   54 type  1   force =     0.00001774    0.00007880   -0.00017521
     atom   55 type  1   force =    -0.00009006   -0.00002351   -0.00008008
     atom   56 type  1   force =    -0.00001927    0.00006093   -0.00010825
     atom   57 type  1   force =     0.00016354    0.00012031   -0.00004363
     atom   58 type  1   force =    -0.00018622    0.00012122    0.00000623
     atom   59 type  1   force =     0.00005178   -0.00003605   -0.00004286
     atom   60 type  1   force =     0.00013003    0.00010301    0.00034875
     atom   61 type  1   force =    -0.00030813    0.00014194   -0.00019153
     atom   62 type  1   force =     0.00006675    0.00031491   -0.00021123
     atom   63 type  1   force =     0.00018760    0.00003656    0.00000825
     atom   64 type  1   force =    -0.00007314    0.00003433    0.00015483
     atom   65 type  1   force =     0.00001223   -0.00008123    0.00002537
     atom   66 type  1   force =     0.00002104   -0.00013165    0.00002286
     atom   67 type  1   force =    -0.00003994    0.00007996   -0.00007588
     atom   68 type  1   force =    -0.00011673   -0.00003422    0.00000089
     atom   69 type  1   force =     0.00002331   -0.00023051    0.00016359
     atom   70 type  1   force =    -0.00013919   -0.00001180   -0.00018951
     atom   71 type  1   force =     0.00002893    0.00002268    0.00006028
     atom   72 type  1   force =     0.00026221   -0.00026192   -0.00014679
     atom   73 type  1   force =    -0.00001608   -0.00016898    0.00012384
     atom   74 type  1   force =     0.00005396   -0.00000396    0.00002629
     atom   75 type  1   force =     0.00000897    0.00015310   -0.00009921
     atom   76 type  1   force =    -0.00001386   -0.00015682   -0.00009321
     atom   77 type  1   force =    -0.00000540   -0.00005878    0.00006410
     atom   78 type  1   force =    -0.00001249   -0.00006791    0.00012820
     atom   79 type  1   force =    -0.00012334    0.00003462    0.00000953
     atom   80 type  1   force =    -0.00004526    0.00009996   -0.00004325
     atom   81 type  1   force =     0.00015216    0.00011135   -0.00004075
     atom   82 type  1   force =     0.00013777   -0.00038419   -0.00004454
     atom   83 type  1   force =     0.00004332    0.00001736    0.00022505
     atom   84 type  1   force =     0.00006422    0.00010364    0.00015834
     atom   85 type  1   force =    -0.00022153   -0.00004683   -0.00003973
     atom   86 type  1   force =    -0.00006491    0.00004284    0.00005460
     atom   87 type  1   force =     0.00010222    0.00018006    0.00020036
     atom   88 type  1   force =    -0.00017643    0.00004524   -0.00008230
     atom   89 type  1   force =    -0.00023412    0.00009838   -0.00013594
     atom   90 type  1   force =     0.00019260    0.00049619   -0.00031294
     atom   91 type  1   force =    -0.00001983    0.00010841   -0.00000649
     atom   92 type  1   force =     0.00005387    0.00010074    0.00007147
     atom   93 type  1   force =     0.00003632    0.00002947    0.00022780
     atom   94 type  1   force =    -0.00009149    0.00006554   -0.00007414
     atom   95 type  1   force =     0.00008904   -0.00003588    0.00003494
     atom   96 type  1   force =    -0.00022704   -0.00003447   -0.00003578
     atom   97 type  1   force =    -0.00002290   -0.00006315   -0.00007710
     atom   98 type  1   force =     0.00021263   -0.00009398   -0.00018985
     atom   99 type  1   force =    -0.00005480   -0.00014527    0.00008994
     atom  100 type  1   force =     0.00010618    0.00005444   -0.00000944
     atom  101 type  1   force =    -0.00037422   -0.00015018    0.00000959
     atom  102 type  1   force =    -0.00000063    0.00002849   -0.00011622
     atom  103 type  1   force =     0.00010218   -0.00003184   -0.00009453
     atom  104 type  1   force =     0.00010994   -0.00020306   -0.00007343
     atom  105 type  1   force =     0.00001539   -0.00005564    0.00039923
     atom  106 type  1   force =     0.00012228   -0.00019995   -0.00006097
     atom  107 type  1   force =     0.00013493   -0.00009533   -0.00011185
     atom  108 type  1   force =     0.00008711   -0.00024732   -0.00002709
     atom  109 type  1   force =    -0.00002468    0.00009325    0.00014772
     atom  110 type  1   force =     0.00012945    0.00026337    0.00018076
     atom  111 type  1   force =    -0.00016620    0.00005891    0.00000625
     atom  112 type  1   force =    -0.00016004    0.00000378    0.00015910
     atom  113 type  1   force =     0.00012270    0.00021846    0.00025324
     atom  114 type  1   force =    -0.00023389    0.00017519   -0.00018264
     atom  115 type  1   force =    -0.00029412    0.00011739   -0.00016345
     atom  116 type  1   force =     0.00012005    0.00032662   -0.00019929
     atom  117 type  1   force =    -0.00004694    0.00010647    0.00002109
     atom  118 type  1   force =     0.00000947    0.00004032    0.00000660
     atom  119 type  1   force =     0.00009097    0.00002818    0.00013575
     atom  120 type  1   force =    -0.00001571    0.00003415   -0.00001842
     atom  121 type  1   force =     0.00013082   -0.00011732    0.00013135
     atom  122 type  1   force =    -0.00013594   -0.00002692   -0.00009112
     atom  123 type  1   force =    -0.00009623   -0.00017250   -0.00009565
     atom  124 type  1   force =     0.00023698   -0.00011734   -0.00020839
     atom  125 type  1   force =    -0.00009726   -0.00025519    0.00015919
     atom  126 type  1   force =     0.00010795    0.00004173   -0.00000934
     atom  127 type  1   force =    -0.00024783   -0.00009498   -0.00000433
     atom  128 type  1   force =     0.00000233    0.00001611   -0.00011492
     atom  129 type  1   force =     0.00002599    0.00001626   -0.00002993
     atom  130 type  1   force =     0.00014149   -0.00007663   -0.00003078
     atom  131 type  1   force =     0.00001953   -0.00003004    0.00026299
     atom  132 type  1   force =     0.00005203   -0.00009837   -0.00012029
     atom  133 type  1   force =     0.00025080   -0.00003974   -0.00024117
     atom  134 type  1   force =    -0.00005000    0.00012856    0.00000844
     atom  135 type  1   force =     0.00001522    0.00017805    0.00015332
     atom  136 type  1   force =     0.00005986    0.00012316    0.00035294
     atom  137 type  1   force =    -0.00000191    0.00015537   -0.00010251
     atom  138 type  1   force =    -0.00008457    0.00000665   -0.00003743
     atom  139 type  1   force =     0.00011664    0.00005962    0.00000182
     atom  140 type  1   force =    -0.00015562   -0.00004648   -0.00005770
     atom  141 type  1   force =    -0.00012264   -0.00003000   -0.00007361
     atom  142 type  1   force =     0.00008753   -0.00005817   -0.00020217
     atom  143 type  1   force =    -0.00012796    0.00004012   -0.00005791
     atom  144 type  1   force =     0.00001309    0.00007634   -0.00005631
     atom  145 type  1   force =    -0.00015673   -0.00016056    0.00007912
     atom  146 type  1   force =    -0.00000632    0.00002796   -0.00012000
     atom  147 type  1   force =     0.00010712   -0.00006407   -0.00018868
     atom  148 type  1   force =     0.00020060   -0.00024339   -0.00017210
     atom  149 type  1   force =     0.00005203   -0.00007637    0.00033767
     atom  150 type  1   force =     0.00001072   -0.00023160    0.00004538
     atom  151 type  1   force =     0.00008839   -0.00028776   -0.00015094
     atom  152 type  1   force =     0.00014744   -0.00030791    0.00000172
     atom  153 type  1   force =    -0.00002889   -0.00010647    0.00021305
     atom  154 type  1   force =    -0.00003495    0.00006931    0.00032513
     atom  155 type  1   force =    -0.00016582    0.00001374    0.00000354
     atom  156 type  1   force =    -0.00013953    0.00003586    0.00000903
     atom  157 type  1   force =     0.00001046    0.00019802    0.00013546
     atom  158 type  1   force =    -0.00004318    0.00001454   -0.00002289
     atom  159 type  1   force =    -0.00018844   -0.00000870   -0.00005002
     atom  160 type  1   force =     0.00015272    0.00038225   -0.00024472
     atom  161 type  1   force =    -0.00003993    0.00013100    0.00001852
     atom  162 type  1   force =     0.00006290    0.00017107   -0.00003777
     atom  163 type  1   force =     0.00006255    0.00000646    0.00016051
     atom  164 type  1   force =    -0.00019046    0.00012820   -0.00005229
     atom  165 type  1   force =     0.00003250    0.00003449    0.00007843
     atom  166 type  1   force =     0.00007511    0.00001789    0.00012410
     atom  167 type  1   force =    -0.00037031    0.00001872   -0.00007707
     atom  168 type  1   force =    -0.00001250    0.00002818   -0.00012726
     atom  169 type  1   force =     0.00021265   -0.00002783   -0.00007707
     atom  170 type  1   force =     0.00004317    0.00008163    0.00011325
     atom  171 type  1   force =     0.00010968    0.00005615   -0.00000390
     atom  172 type  1   force =    -0.00030855   -0.00016383   -0.00002290
     atom  173 type  1   force =     0.00003719    0.00008212   -0.00003225
     atom  174 type  1   force =     0.00020156   -0.00004110   -0.00009426
     atom  175 type  1   force =     0.00001078   -0.00023159    0.00004548
     atom  176 type  1   force =    -0.00004353   -0.00013309    0.00019231
     atom  177 type  1   force =     0.00023034   -0.00023614   -0.00014240
     atom  178 type  1   force =     0.00021697   -0.00025655   -0.00002232
     atom  179 type  1   force =     0.00007515   -0.00032551   -0.00007059
     atom  180 type  1   force =    -0.00001140    0.00005120    0.00015794
     atom  181 type  1   force =     0.00001763    0.00002928    0.00003792
     atom  182 type  1   force =    -0.00018268   -0.00014382    0.00005915
     atom  183 type  1   force =    -0.00002132    0.00006457    0.00012728
     atom  184 type  1   force =     0.00004526    0.00004802    0.00018365
     atom  185 type  1   force =    -0.00033316   -0.00000305    0.00002692
     atom  186 type  1   force =    -0.00017799    0.00015235   -0.00005302
     atom  187 type  1   force =     0.00015199    0.00038210   -0.00024544
     atom  188 type  1   force =    -0.00001610   -0.00021569    0.00006843
     atom  189 type  1   force =     0.00010591    0.00010757    0.00034760
     atom  190 type  1   force =     0.00012501   -0.00000744    0.00031432
     atom  191 type  1   force =    -0.00036011   -0.00000547   -0.00011820
     atom  192 type  1   force =    -0.00004200    0.00012129    0.00001255
     atom  193 type  1   force =     0.00016215    0.00012679    0.00012924
     atom  194 type  1   force =    -0.00029992   -0.00011053   -0.00011070
     atom  195 type  1   force =    -0.00015082    0.00005090   -0.00018367
     atom  196 type  1   force =     0.00013803    0.00038420   -0.00023124
     atom  197 type  1   force =     0.00003203    0.00007022   -0.00004895
     atom  198 type  1   force =     0.00014580    0.00011427    0.00013340
     atom  199 type  1   force =    -0.00003762   -0.00011196    0.00021878
     atom  200 type  1   force =    -0.00015234    0.00004193   -0.00016471
     atom  201 type  1   force =     0.00006408   -0.00003754   -0.00005447
     atom  202 type  1   force =     0.00010975   -0.00007691   -0.00000553
     atom  203 type  1   force =    -0.00018721   -0.00014813    0.00006920
     atom  204 type  1   force =     0.00002650   -0.00009700   -0.00008867
     atom  205 type  1   force =     0.00010202   -0.00015004   -0.00006563
     atom  206 type  1   force =     0.00010282   -0.00006250   -0.00008762
     atom  207 type  1   force =     0.00011861    0.00005145   -0.00001910
     atom  208 type  1   force =    -0.00032066   -0.00009840    0.00004884
     atom  209 type  1   force =     0.00000980    0.00002505   -0.00012795
     atom  210 type  1   force =     0.00009067    0.00012257   -0.00012039
     atom  211 type  1   force =     0.00012272   -0.00011587   -0.00002643
     atom  212 type  1   force =    -0.00003341   -0.00002874    0.00033612
     atom  213 type  1   force =     0.00005647   -0.00013188   -0.00009266
     atom  214 type  1   force =     0.00003922   -0.00002654   -0.00003274
     atom  215 type  2   force =    -0.00004478   -0.00012497    0.00007496
     The non-local contrib.  to forces
     atom    1 type  1   force =     0.00217725    0.00251303   -0.00278697
     atom    2 type  1   force =     0.00459710    0.00126968   -0.00224984
     atom    3 type  1   force =     0.00318475    0.00403275   -0.00686246
     atom    4 type  1   force =     0.00201757    0.00064457   -0.00482960
     atom    5 type  1   force =     0.01823730   -0.02877844   -0.01125436
     atom    6 type  1   force =     0.01176096   -0.00462177   -0.02260827
     atom    7 type  1   force =     0.00580651    0.00466987   -0.00424055
     atom    8 type  1   force =     0.02338624   -0.00180016   -0.01098080
     atom    9 type  1   force =     0.01427344    0.02812654   -0.02109759
     atom   10 type  1   force =    -0.00106190    0.00397895    0.00009564
     atom   11 type  1   force =     0.00482533   -0.00009056    0.00822961
     atom   12 type  1   force =    -0.00240176    0.00643426   -0.00259288
     atom   13 type  1   force =    -0.00783620   -0.00316254   -0.00443060
     atom   14 type  1   force =    -0.10233626    0.15742202    0.06414034
     atom   15 type  1   force =    -0.11197270   -0.03722496   -0.02441221
     atom   16 type  1   force =     0.00093359    0.00724364    0.00074167
     atom   17 type  1   force =     0.02928683   -0.00294973    0.11684475
     atom   18 type  1   force =     0.02841193    0.09845444   -0.05229961
     atom   19 type  1   force =    -0.00112832    0.00169506    0.00071757
     atom   20 type  1   force =     0.00024321    0.00050473    0.00667157
     atom   21 type  1   force =    -0.00174157    0.00304652    0.00318316
     atom   22 type  1   force =    -0.00659295   -0.00115437   -0.00016436
     atom   23 type  1   force =    -0.00400017   -0.00251075    0.00460957
     atom   24 type  1   force =    -0.01142743    0.00055123    0.00426157
     atom   25 type  1   force =    -0.00385972    0.00253245    0.00106436
     atom   26 type  1   force =    -0.00459663    0.00220879    0.01109232
     atom   27 type  1   force =    -0.01813729    0.00566073    0.01676400
     atom   28 type  1   force =    -0.00253705   -0.00106465   -0.00384945
     atom   29 type  1   force =     0.00005770   -0.01047648   -0.00623242
     atom   30 type  1   force =    -0.00954062   -0.01779607   -0.01528785
     atom   31 type  1   force =     0.00286850    0.00195484   -0.00647793
     atom   32 type  1   force =     0.06488491   -0.10020184   -0.01602904
     atom   33 type  1   force =     0.03245672    0.08739438   -0.06742153
     atom   34 type  1   force =     0.00501699    0.00683964   -0.00128380
     atom   35 type  1   force =     0.01720281    0.01511334    0.01211758
     atom   36 type  1   force =     0.01283646    0.03207971   -0.01570282
     atom   37 type  1   force =    -0.00633640   -0.00184035   -0.00110741
     atom   38 type  1   force =    -0.00271396   -0.00600289   -0.00016898
     atom   39 type  1   force =    -0.00884322   -0.00646951   -0.00533411
     atom   40 type  1   force =    -0.00938186    0.00105872    0.00133323
     atom   41 type  1   force =    -0.03342252   -0.03087917   -0.19309014
     atom   42 type  1   force =    -0.11920937   -0.01749073    0.00255741
     atom   43 type  1   force =     0.00038530    0.00511366    0.00126351
     atom   44 type  1   force =     0.00583741    0.00511465    0.03502980
     atom   45 type  1   force =     0.00205105    0.02192934    0.01364958
     atom   46 type  1   force =    -0.00037995   -0.00035648   -0.00207689
     atom   47 type  1   force =     0.00256095   -0.00584787   -0.00199512
     atom   48 type  1   force =     0.00021313   -0.00230305   -0.00411442
     atom   49 type  1   force =     0.00002267    0.00097676   -0.00398571
     atom   50 type  1   force =     0.00710219   -0.00635702   -0.00031928
     atom   51 type  1   force =    -0.00149542    0.00391419   -0.00601978
     atom   52 type  1   force =     0.00165851    0.00391816   -0.00086761
     atom   53 type  1   force =     0.00373561    0.00359895    0.00093461
     atom   54 type  1   force =     0.00158586    0.00837736   -0.00092451
     atom   55 type  1   force =     0.00391727    0.00050118    0.00260472
     atom   56 type  1   force =     0.00591396    0.00269236   -0.00343262
     atom   57 type  1   force =    -0.00022156    0.00556793   -0.00652246
     atom   58 type  1   force =     0.00852450   -0.00842084    0.00223509
     atom   59 type  1   force =     0.04104603   -0.10598846   -0.03986991
     atom   60 type  1   force =    -0.01484203    0.00733871   -0.01992721
     atom   61 type  1   force =     0.01877150   -0.01092500    0.01302476
     atom   62 type  1   force =     0.04582343    0.09063597   -0.05405315
     atom   63 type  1   force =     0.00806019    0.03092164   -0.02047960
     atom   64 type  1   force =     0.00132833    0.00001966    0.00655666
     atom   65 type  1   force =    -0.00181321    0.00289564    0.00890183
     atom   66 type  1   force =    -0.00242218    0.00443275   -0.00154326
     atom   67 type  1   force =     0.00150130   -0.00498021    0.00404662
     atom   68 type  1   force =     0.19389212    0.02427671    0.03422468
     atom   69 type  1   force =    -0.03506815   -0.00481079   -0.00587419
     atom   70 type  1   force =     0.00645360   -0.00275813    0.00996126
     atom   71 type  1   force =    -0.00176926    0.01100492    0.11999668
     atom   72 type  1   force =    -0.01836905    0.01697438   -0.00677065
     atom   73 type  1   force =     0.00209070    0.00024323    0.00039420
     atom   74 type  1   force =     0.00364188    0.00185465   -0.00036632
     atom   75 type  1   force =    -0.00003276    0.00350728   -0.00255896
     atom   76 type  1   force =     0.00338949   -0.00564645   -0.00116647
     atom   77 type  1   force =     0.00201180   -0.00759274   -0.00541051
     atom   78 type  1   force =    -0.00164889    0.00229217   -0.00445101
     atom   79 type  1   force =     0.00454506   -0.00125108    0.00021820
     atom   80 type  1   force =     0.00488162    0.00546158    0.00035827
     atom   81 type  1   force =    -0.00103068    0.00774247   -0.00354148
     atom   82 type  1   force =     0.00398994   -0.00506623   -0.00276099
     atom   83 type  1   force =     0.01394870   -0.02309171   -0.00636608
     atom   84 type  1   force =    -0.00072164    0.00011480   -0.00761584
     atom   85 type  1   force =     0.01202460   -0.02355669   -0.00828892
     atom   86 type  1   force =     0.02393802   -0.00506097   -0.02270966
     atom   87 type  1   force =     0.00980212    0.02501861   -0.01423487
     atom   88 type  1   force =     0.00734983    0.00207401    0.00045626
     atom   89 type  1   force =     0.00821069    0.02463137   -0.01582485
     atom   90 type  1   force =     0.00472540    0.01225615   -0.00769861
     atom   91 type  1   force =     0.00518208   -0.00664711   -0.00356980
     atom   92 type  1   force =    -0.00683204   -0.01474914   -0.00200529
     atom   93 type  1   force =    -0.02724513   -0.00456669   -0.00220570
     atom   94 type  1   force =     0.00522878   -0.01182208    0.01005552
     atom   95 type  1   force =    -0.02309798    0.01608283   -0.01796617
     atom   96 type  1   force =     0.00244022    0.00263602    0.02747736
     atom   97 type  1   force =     0.01300156    0.02484148    0.01813299
     atom   98 type  1   force =     0.01029098    0.02371021   -0.01604397
     atom   99 type  1   force =    -0.00107179   -0.00276721    0.00174336
     atom  100 type  1   force =    -0.00888698   -0.00032352   -0.00213582
     atom  101 type  1   force =    -0.00681114   -0.00020352   -0.00166734
     atom  102 type  1   force =     0.00189671    0.00229301    0.00864789
     atom  103 type  1   force =    -0.01050129   -0.00475388    0.01165495
     atom  104 type  1   force =    -0.02667215   -0.00616331   -0.00437898
     atom  105 type  1   force =     0.00147281    0.00180680    0.00661627
     atom  106 type  1   force =     0.00494340    0.00150857    0.02723697
     atom  107 type  1   force =    -0.00317136    0.00680333    0.00152091
     atom  108 type  1   force =     0.00382634   -0.00287367   -0.00312974
     atom  109 type  1   force =     0.00611876   -0.00810452    0.00247977
     atom  110 type  1   force =    -0.00114108    0.00067060   -0.01417613
     atom  111 type  1   force =    -0.00032403   -0.00966729   -0.00396324
     atom  112 type  1   force =     0.04290106   -0.00764979   -0.04104292
     atom  113 type  1   force =    -0.01701749   -0.02323185   -0.06501163
     atom  114 type  1   force =     0.01357872    0.00424300    0.00054493
     atom  115 type  1   force =     0.06814182   -0.00256838    0.02014784
     atom  116 type  1   force =     0.00530258    0.01375372   -0.00863906
     atom  117 type  1   force =    -0.00578797   -0.00118392    0.00607554
     atom  118 type  1   force =    -0.00195209   -0.00573442    0.00629895
     atom  119 type  1   force =    -0.00960189   -0.00105563    0.00406592
     atom  120 type  1   force =    -0.00482328   -0.00642983    0.00342766
     atom  121 type  1   force =    -0.04041608    0.02980251   -0.03263966
     atom  122 type  1   force =    -0.00397566    0.00031033    0.00969205
     atom  123 type  1   force =     0.02352724    0.04531647    0.03130144
     atom  124 type  1   force =    -0.04284476    0.04732869    0.03136131
     atom  125 type  1   force =    -0.00108599   -0.00280222    0.00176584
     atom  126 type  1   force =     0.00387934   -0.00552719    0.00508323
     atom  127 type  1   force =    -0.00515391    0.00116146   -0.00223542
     atom  128 type  1   force =    -0.00352404   -0.00732393   -0.00232088
     atom  129 type  1   force =    -0.00107628   -0.00812119    0.00304705
     atom  130 type  1   force =    -0.00764761   -0.00638279   -0.00322901
     atom  131 type  1   force =     0.00175007    0.00283672    0.00466890
     atom  132 type  1   force =     0.00442234   -0.00345410    0.00884105
     atom  133 type  1   force =    -0.00559303    0.01286013    0.00247327
     atom  134 type  1   force =    -0.00017689   -0.00550562   -0.00269221
     atom  135 type  1   force =    -0.00569355   -0.05397854    0.01636594
     atom  136 type  1   force =     0.00213760   -0.00694256   -0.06284386
     atom  137 type  1   force =     0.00222945   -0.00410146    0.00361356
     atom  138 type  1   force =     0.37415120    0.03823774    0.07227201
     atom  139 type  1   force =    -0.03424144    0.03694902   -0.03621280
     atom  140 type  1   force =     0.00914180    0.00289709   -0.00211617
     atom  141 type  1   force =     0.01415782    0.00921512    0.00794908
     atom  142 type  1   force =     0.00023574    0.01187109    0.00160240
     atom  143 type  1   force =    -0.00682254   -0.00675176    0.00312501
     atom  144 type  1   force =    -0.00398009   -0.04870203    0.03459288
     atom  145 type  1   force =    -0.01406151   -0.00639722    0.00091844
     atom  146 type  1   force =    -0.00239445    0.00058109    0.00563627
     atom  147 type  1   force =    -0.01290371   -0.03426384    0.04332187
     atom  148 type  1   force =    -0.02070206    0.05546221    0.02237769
     atom  149 type  1   force =    -0.00206043    0.00171331    0.00732363
     atom  150 type  1   force =     0.00159988    0.00685902    0.00969405
     atom  151 type  1   force =    -0.00960234    0.01283365    0.00526743
     atom  152 type  1   force =     0.00098480   -0.00658055   -0.00402985
     atom  153 type  1   force =     0.00635547   -0.00613692   -0.00806552
     atom  154 type  1   force =    -0.00385818   -0.00285478   -0.01617320
     atom  155 type  1   force =     0.00833209    0.00514271    0.00093183
     atom  156 type  1   force =     0.01779015   -0.00070491   -0.00560222
     atom  157 type  1   force =     0.00365413    0.00256422   -0.01111479
     atom  158 type  1   force =     0.00464892    0.00111488    0.00043630
     atom  159 type  1   force =     0.01391559   -0.00336574    0.00619283
     atom  160 type  1   force =     0.00125118    0.00611849   -0.00414632
     atom  161 type  1   force =     0.00390754   -0.00451504    0.00139250
     atom  162 type  1   force =    -0.00247989   -0.00524575   -0.00109608
     atom  163 type  1   force =     0.00163400    0.00107503   -0.00962412
     atom  164 type  1   force =    -0.00333728   -0.05340562    0.01872134
     atom  165 type  1   force =    -0.06851817   -0.06917259   -0.37039579
     atom  166 type  1   force =    -0.00948970    0.00347810   -0.01569780
     atom  167 type  1   force =     0.06274373    0.00776358   -0.00223785
     atom  168 type  1   force =     0.02549059    0.05144132    0.02351783
     atom  169 type  1   force =    -0.00434808    0.01075963   -0.00298099
     atom  170 type  1   force =    -0.00163931   -0.00549432    0.00830852
     atom  171 type  1   force =    -0.00568111   -0.00021680    0.00235033
     atom  172 type  1   force =    -0.00757667    0.00037480    0.00180738
     atom  173 type  1   force =    -0.02223795   -0.05313207    0.01633431
     atom  174 type  1   force =    -0.03437643   -0.03947401    0.02184996
     atom  175 type  1   force =    -0.01098828    0.00380519   -0.00289365
     atom  176 type  1   force =     0.00021376   -0.00293351    0.01519293
     atom  177 type  1   force =    -0.03540190    0.05189520    0.00767708
     atom  178 type  1   force =    -0.00841610    0.01312176    0.00645378
     atom  179 type  1   force =     0.00549295   -0.00548655    0.00047897
     atom  180 type  1   force =    -0.00187926    0.00266506   -0.00927986
     atom  181 type  1   force =    -0.00055359   -0.00014779   -0.00476692
     atom  182 type  1   force =     0.00946326   -0.00538283   -0.00495793
     atom  183 type  1   force =     0.00611794   -0.00353719   -0.01727484
     atom  184 type  1   force =    -0.00482422   -0.00791340   -0.01254810
     atom  185 type  1   force =     0.01627197    0.00203006    0.00395840
     atom  186 type  1   force =     0.01029769    0.00417665   -0.00447097
     atom  187 type  1   force =     0.00262145    0.00645100   -0.00277564
     atom  188 type  1   force =     0.00452326   -0.01473264   -0.00094848
     atom  189 type  1   force =    -0.01702383    0.00167938   -0.06089692
     atom  190 type  1   force =    -0.00231642   -0.00354982   -0.01632546
     atom  191 type  1   force =     0.05827258    0.01995019    0.01439997
     atom  192 type  1   force =     0.04360576    0.00194787   -0.04407601
     atom  193 type  1   force =    -0.00232716    0.00525272   -0.01050593
     atom  194 type  1   force =     0.01662769    0.00104721    0.00261975
     atom  195 type  1   force =     0.00890117    0.00797673    0.00072195
     atom  196 type  1   force =     0.00302212    0.00531833   -0.00431271
     atom  197 type  1   force =    -0.02778909   -0.03798617    0.03700660
     atom  198 type  1   force =    -0.03364837   -0.04143724    0.01917875
     atom  199 type  1   force =    -0.01004818    0.00122546   -0.00640650
     atom  200 type  1   force =    -0.00982497   -0.03565533    0.04300020
     atom  201 type  1   force =    -0.20279565    0.29762065    0.13058119
     atom  202 type  1   force =    -0.01302866    0.01314984   -0.00248756
     atom  203 type  1   force =     0.00564720    0.00503362    0.00928832
     atom  204 type  1   force =    -0.00105524    0.01605394    0.00948490
     atom  205 type  1   force =    -0.01051844    0.00760965    0.00867239
     atom  206 type  1   force =    -0.00006279   -0.00979016    0.00243819
     atom  207 type  1   force =    -0.00444277   -0.00359865   -0.00227245
     atom  208 type  1   force =    -0.00620014   -0.00335553   -0.00330658
     atom  209 type  1   force =     0.00292856   -0.00181017    0.00509858
     atom  210 type  1   force =    -0.00390263   -0.00134770    0.00423007
     atom  211 type  1   force =    -0.00144950    0.00953629    0.00191705
     atom  212 type  1   force =     0.00382509   -0.00092283    0.00671946
     atom  213 type  1   force =    -0.00415157    0.00888115   -0.00078485
     atom  214 type  1   force =    -0.00212625    0.00415494    0.00111853
     atom  215 type  2   force =    -0.41225035   -1.06795325    0.67138214
     The ionic contribution  to forces
     atom    1 type  1   force =    -0.02219491   -0.00282806    0.02288122
     atom    2 type  1   force =    -0.10379532    0.03729333    0.02525788
     atom    3 type  1   force =    -0.03933139   -0.02220480    0.06452053
     atom    4 type  1   force =    -0.03629368    0.05367192    0.09275941
     atom    5 type  1   force =    -0.21390002    0.21028699    0.16287589
     atom    6 type  1   force =    -0.02323597    0.02706277    0.27931264
     atom    7 type  1   force =    -0.05856644   -0.02687198    0.04528547
     atom    8 type  1   force =    -0.27836871   -0.03484267    0.02417994
     atom    9 type  1   force =    -0.14399285   -0.17907675    0.18744424
     atom   10 type  1   force =     0.02631418   -0.03648386   -0.01746164
     atom   11 type  1   force =    -0.05323998   -0.00791884   -0.12489518
     atom   12 type  1   force =     0.03868469   -0.06017138    0.02473460
     atom   13 type  1   force =     0.12166763    0.03452087    0.05001261
     atom   14 type  1   force =     0.86395415    0.40967802   -0.96335861
     atom   15 type  1   force =     0.56464839    0.21623721    0.91574421
     atom   16 type  1   force =    -0.00873860   -0.07167820   -0.02268869
     atom   17 type  1   force =    -0.92438085   -0.14506128   -0.57328356
     atom   18 type  1   force =     0.37970446   -1.08475935   -0.11649740
     atom   19 type  1   force =     0.02765059   -0.02921869   -0.02056083
     atom   20 type  1   force =    -0.03557303   -0.03329294   -0.09344819
     atom   21 type  1   force =     0.05703869   -0.02014976   -0.04712114
     atom   22 type  1   force =     0.09760608   -0.00097830    0.03973097
     atom   23 type  1   force =    -0.07329850    0.13819657    0.03976639
     atom   24 type  1   force =     0.28976189    0.11280802   -0.02585640
     atom   25 type  1   force =     0.05215410   -0.02133497   -0.05200569
     atom   26 type  1   force =     0.00681380    0.04415304   -0.30880457
     atom   27 type  1   force =     0.15562981   -0.16166132   -0.11640447
     atom   28 type  1   force =     0.02501273    0.05289864    0.04949940
     atom   29 type  1   force =    -0.08577286    0.29735131    0.03742411
     atom   30 type  1   force =     0.06344937    0.09014742    0.22756015
     atom   31 type  1   force =    -0.03296159   -0.00528516    0.06798049
     atom   32 type  1   force =    -1.06828172    0.24833798   -0.03591311
     atom   33 type  1   force =     0.04227450   -0.16260928    1.14311917
     atom   34 type  1   force =    -0.04482718   -0.06453814   -0.00609854
     atom   35 type  1   force =    -0.25401322   -0.10160928   -0.06694387
     atom   36 type  1   force =    -0.11239786   -0.26558267    0.06936521
     atom   37 type  1   force =     0.10182651   -0.01266601    0.02381688
     atom   38 type  1   force =    -0.01986054   -0.00803577   -0.15978865
     atom   39 type  1   force =     0.28261743    0.13193194    0.00034355
     atom   40 type  1   force =     0.13583898   -0.00424361   -0.00299039
     atom   41 type  1   force =     0.56544622    1.22491086    0.15003813
     atom   42 type  1   force =     0.87214521   -0.62381596   -0.23179267
     atom   43 type  1   force =     0.01083245   -0.07550516   -0.08366369
     atom   44 type  1   force =    -0.08936685   -0.13051137   -0.30263572
     atom   45 type  1   force =     0.07839253   -0.25107454   -0.10044310
     atom   46 type  1   force =     0.01125713    0.01572615    0.04082374
     atom   47 type  1   force =    -0.07156272    0.06528982    0.04122425
     atom   48 type  1   force =     0.03139368    0.05015339    0.04886476
     atom   49 type  1   force =     0.00932196    0.01022460    0.04620897
     atom   50 type  1   force =    -0.09194171    0.09820610    0.01984887
     atom   51 type  1   force =     0.02891669   -0.03301314    0.06167241
     atom   52 type  1   force =    -0.01328107   -0.02723771   -0.01048379
     atom   53 type  1   force =    -0.07702701   -0.03596827   -0.07493872
     atom   54 type  1   force =    -0.01973381   -0.07580352   -0.00868370
     atom   55 type  1   force =    -0.05983702    0.03231070   -0.03535036
     atom   56 type  1   force =    -0.06573340   -0.01323697    0.03520869
     atom   57 type  1   force =     0.01985413   -0.04884382    0.05858277
     atom   58 type  1   force =    -0.10889295    0.29174134    0.01430383
     atom   59 type  1   force =    -0.05419631    0.49439705    0.97817197
     atom   60 type  1   force =     0.08171525   -0.02014800    0.26878495
     atom   61 type  1   force =    -0.24048645    0.01640026   -0.07637582
     atom   62 type  1   force =    -1.07089591   -0.43270931    0.02994962
     atom   63 type  1   force =    -0.00799716   -0.24025075    0.17376581
     atom   64 type  1   force =    -0.01723855   -0.04155601   -0.09524819
     atom   65 type  1   force =     0.00778949   -0.03531364   -0.13104004
     atom   66 type  1   force =     0.09937794   -0.05402039    0.00488170
     atom   67 type  1   force =     0.15654555    0.03476759    0.01661744
     atom   68 type  1   force =    -0.41829344    0.98621554   -0.83370090
     atom   69 type  1   force =     0.32218774   -0.03065152    0.10891930
     atom   70 type  1   force =    -0.02334893    0.05769200   -0.30562264
     atom   71 type  1   force =     0.39713911   -0.73907218   -0.70680029
     atom   72 type  1   force =     0.15899113   -0.23151807   -0.01984410
     atom   73 type  1   force =    -0.04304099    0.00255119   -0.01347437
     atom   74 type  1   force =    -0.04703104   -0.00344887   -0.01014390
     atom   75 type  1   force =     0.01622435   -0.02007851    0.01902161
     atom   76 type  1   force =    -0.05748064    0.06870667    0.05530631
     atom   77 type  1   force =    -0.04505784    0.10958204    0.06673274
     atom   78 type  1   force =     0.07907115    0.00190755    0.08115931
     atom   79 type  1   force =    -0.05839096    0.02836803   -0.04091989
     atom   80 type  1   force =    -0.05130080   -0.05247719   -0.01854502
     atom   81 type  1   force =     0.02573818   -0.06477014    0.03678827
     atom   82 type  1   force =    -0.07604734    0.10667905    0.05016275
     atom   83 type  1   force =    -0.04106094    0.08368823    0.16741091
     atom   84 type  1   force =     0.01790821    0.01756413    0.09865586
     atom   85 type  1   force =    -0.18352315    0.04912077    0.02494838
     atom   86 type  1   force =    -0.31992424    0.00959780    0.31759569
     atom   87 type  1   force =     0.01104425   -0.01729742    0.18589175
     atom   88 type  1   force =    -0.09946243   -0.01091477   -0.01871480
     atom   89 type  1   force =    -0.17618315   -0.06272646   -0.00133558
     atom   90 type  1   force =    -0.03607687   -0.09354747    0.05877541
     atom   91 type  1   force =     0.09746014    0.05429011   -0.11063315
     atom   92 type  1   force =     0.10331637    0.24787064   -0.07907890
     atom   93 type  1   force =     0.11667444    0.01278124    0.15163211
     atom   94 type  1   force =     0.02134812    0.22798206   -0.16104739
     atom   95 type  1   force =     0.26781862   -0.25470442    0.25837614
     atom   96 type  1   force =    -0.14697223   -0.05119013   -0.11201456
     atom   97 type  1   force =    -0.18329484   -0.36416313   -0.19273797
     atom   98 type  1   force =     0.06767256   -0.17238160   -0.02584569
     atom   99 type  1   force =     0.00091231    0.00244479   -0.00150536
     atom  100 type  1   force =    -0.04140344    0.11689513   -0.09657858
     atom  101 type  1   force =     0.13711090    0.01097787    0.02874893
     atom  102 type  1   force =     0.06508046    0.14273246    0.00990519
     atom  103 type  1   force =     0.12822388    0.18004855   -0.17191138
     atom  104 type  1   force =     0.15995030   -0.10525320   -0.00964506
     atom  105 type  1   force =    -0.02659348   -0.02874347   -0.13495537
     atom  106 type  1   force =     0.03875155   -0.13466093   -0.13084395
     atom  107 type  1   force =     0.05343360   -0.07967537   -0.03410106
     atom  108 type  1   force =    -0.01584703    0.03216379    0.00804275
     atom  109 type  1   force =    -0.03565401    0.09360205    0.13556707
     atom  110 type  1   force =     0.00984311   -0.00224941    0.10725755
     atom  111 type  1   force =    -0.15477234    0.06469896    0.01644886
     atom  112 type  1   force =    -0.54804811    0.28904969    0.47791252
     atom  113 type  1   force =     0.02252669   -0.03501783    0.37839725
     atom  114 type  1   force =    -0.10337875   -0.02972163   -0.00596434
     atom  115 type  1   force =    -0.35867908   -0.12751351   -0.00280828
     atom  116 type  1   force =    -0.08570031   -0.22219801    0.13961472
     atom  117 type  1   force =     0.00004994   -0.02344290    0.00563836
     atom  118 type  1   force =     0.01919818    0.07945236   -0.16169399
     atom  119 type  1   force =     0.11510735    0.02579532    0.12051703
     atom  120 type  1   force =     0.13889201    0.10849480   -0.04199993
     atom  121 type  1   force =     0.64998877   -0.24971735    0.35697564
     atom  122 type  1   force =    -0.11985923   -0.03121728   -0.11444962
     atom  123 type  1   force =    -0.26932238   -0.47277966   -0.56233565
     atom  124 type  1   force =     0.13802217   -0.35094480   -0.05286835
     atom  125 type  1   force =    -0.01334220   -0.03475219    0.02177454
     atom  126 type  1   force =    -0.01643904   -0.01589669    0.00711495
     atom  127 type  1   force =     0.03564068    0.00906736    0.00279573
     atom  128 type  1   force =    -0.00363471   -0.01279006    0.01991917
     atom  129 type  1   force =    -0.01679663    0.17852729   -0.02652139
     atom  130 type  1   force =     0.15146548   -0.07305463   -0.01459617
     atom  131 type  1   force =    -0.00383386   -0.00051087   -0.03667877
     atom  132 type  1   force =     0.03572901   -0.10113690   -0.13033258
     atom  133 type  1   force =     0.04430130   -0.09618974   -0.02096178
     atom  134 type  1   force =     0.06643791    0.13190312   -0.02627176
     atom  135 type  1   force =     0.25205226    0.71688984    0.06863758
     atom  136 type  1   force =     0.14344102    0.07316104    0.38512856
     atom  137 type  1   force =    -0.12934662    0.04447321   -0.06706720
     atom  138 type  1   force =    -3.71574868   -0.46938136   -0.65202523
     atom  139 type  1   force =     0.22949777   -0.63393801    0.52549355
     atom  140 type  1   force =    -0.04472339   -0.03177013   -0.05640702
     atom  141 type  1   force =    -0.16031204   -0.09987541   -0.08032439
     atom  142 type  1   force =     0.01049550   -0.17224624    0.04285240
     atom  143 type  1   force =     0.04719819   -0.04045768    0.04234435
     atom  144 type  1   force =    -0.19221990    0.07139739   -0.10362357
     atom  145 type  1   force =     0.21789072    0.06075059    0.01392609
     atom  146 type  1   force =     0.08392918    0.08423190   -0.09149894
     atom  147 type  1   force =     0.42748349    0.23795305   -0.58538915
     atom  148 type  1   force =     0.27700474   -0.29146958   -0.11277679
     atom  149 type  1   force =    -0.02524424   -0.05043392   -0.04039160
     atom  150 type  1   force =     0.00035669   -0.11768321   -0.16688438
     atom  151 type  1   force =     0.05543869   -0.08255659   -0.03391216
     atom  152 type  1   force =    -0.04858875    0.01385354    0.04724086
     atom  153 type  1   force =    -0.08387571    0.11291050    0.14782472
     atom  154 type  1   force =     0.01914088    0.01691928    0.10172865
     atom  155 type  1   force =    -0.06711327    0.02992747    0.02767092
     atom  156 type  1   force =    -0.19696246    0.00082486    0.05697048
     atom  157 type  1   force =    -0.01802119   -0.09388636    0.14980183
     atom  158 type  1   force =    -0.03584062   -0.02060054    0.00534606
     atom  159 type  1   force =    -0.04065101   -0.06342158    0.03533316
     atom  160 type  1   force =    -0.03188833   -0.05496456    0.03153050
     atom  161 type  1   force =    -0.00366939    0.11489231   -0.09637924
     atom  162 type  1   force =     0.05096823    0.08822506    0.11324740
     atom  163 type  1   force =     0.06100342   -0.00611654    0.04931994
     atom  164 type  1   force =    -0.22844011    0.60030300   -0.41185400
     atom  165 type  1   force =     0.63776204    0.58695708    3.70148589
     atom  166 type  1   force =     0.09698416   -0.03744515    0.17697159
     atom  167 type  1   force =    -0.38725754   -0.05560801   -0.14557038
     atom  168 type  1   force =    -0.35448362   -0.77563559   -0.05848706
     atom  169 type  1   force =    -0.00072797   -0.17496949    0.03162891
     atom  170 type  1   force =    -0.03024784   -0.05924927   -0.03510162
     atom  171 type  1   force =     0.07142869    0.08119896   -0.10399940
     atom  172 type  1   force =     0.05040219   -0.03207899    0.03525475
     atom  173 type  1   force =     0.07833548    0.13704535    0.16693130
     atom  174 type  1   force =     0.52478746    0.26156316   -0.48808456
     atom  175 type  1   force =     0.18986047   -0.07170198    0.02261964
     atom  176 type  1   force =    -0.02161619    0.00263636   -0.22558104
     atom  177 type  1   force =     0.18617295   -0.31350866   -0.20360846
     atom  178 type  1   force =     0.05398650   -0.08290903   -0.03536426
     atom  179 type  1   force =    -0.05054481    0.01337898    0.04528495
     atom  180 type  1   force =    -0.03585286    0.03751268    0.05893147
     atom  181 type  1   force =    -0.00136246   -0.01223474    0.03982415
     atom  182 type  1   force =    -0.17260949    0.09137998    0.05909094
     atom  183 type  1   force =    -0.06116829    0.03377403    0.19276458
     atom  184 type  1   force =    -0.02053661   -0.05854119    0.05544725
     atom  185 type  1   force =    -0.10226030   -0.01253761   -0.01967248
     atom  186 type  1   force =    -0.12390445   -0.11957789    0.04391865
     atom  187 type  1   force =    -0.01858544   -0.05173682    0.04483336
     atom  188 type  1   force =    -0.09419847    0.20112855    0.04539657
     atom  189 type  1   force =     0.02515577    0.12641893    0.39694556
     atom  190 type  1   force =     0.01720622    0.01773423    0.10201016
     atom  191 type  1   force =    -0.41467208    0.01969870   -0.04288267
     atom  192 type  1   force =    -0.53156603   -0.29174182    0.60235432
     atom  193 type  1   force =    -0.03272754   -0.08727773    0.15136905
     atom  194 type  1   force =    -0.10278125   -0.01137950   -0.01797714
     atom  195 type  1   force =    -0.12740507   -0.11025019    0.05669180
     atom  196 type  1   force =    -0.01464322   -0.06272489    0.02986287
     atom  197 type  1   force =     0.16026184   -0.08712565   -0.13912146
     atom  198 type  1   force =     0.37890095    0.65982378    0.05577530
     atom  199 type  1   force =     0.16288711    0.00184567    0.12314096
     atom  200 type  1   force =    -0.19886771    0.51963331   -0.52199347
     atom  201 type  1   force =     1.95781250   -3.01963866   -1.22512356
     atom  202 type  1   force =     0.13811814   -0.14994401    0.02332457
     atom  203 type  1   force =    -0.11539704   -0.06567721   -0.15514314
     atom  204 type  1   force =     0.01663410   -0.17942083   -0.09815950
     atom  205 type  1   force =    -0.01464531   -0.07521632    0.03289599
     atom  206 type  1   force =    -0.05357729    0.00492371    0.05238262
     atom  207 type  1   force =     0.05030997    0.13923733   -0.02482663
     atom  208 type  1   force =     0.04991851   -0.03046004    0.03732549
     atom  209 type  1   force =    -0.00726314    0.12526762   -0.08239998
     atom  210 type  1   force =     0.10593676   -0.06136999   -0.09104602
     atom  211 type  1   force =     0.07064235   -0.03207655    0.01376292
     atom  212 type  1   force =    -0.02765126   -0.04928169   -0.04024421
     atom  213 type  1   force =    -0.00378893   -0.05013634   -0.06066831
     atom  214 type  1   force =     0.00906386   -0.04080170    0.00083630
     atom  215 type  2   force =     1.65663353    4.29255326   -2.69818036
     The local contribution  to forces
     atom    1 type  1   force =     0.02011985    0.00052712   -0.02024898
     atom    2 type  1   force =     0.09910042   -0.03858512   -0.02306872
     atom    3 type  1   force =     0.03619056    0.01844567   -0.05778621
     atom    4 type  1   force =     0.03433709   -0.05429885   -0.08783527
     atom    5 type  1   force =     0.19585207   -0.18216525   -0.15164977
     atom    6 type  1   force =     0.01170995   -0.02237280   -0.25663521
     atom    7 type  1   force =     0.05281886    0.02248271   -0.04115563
     atom    8 type  1   force =     0.25490038    0.03663770   -0.01343718
     atom    9 type  1   force =     0.12988111    0.15162310   -0.16666685
     atom   10 type  1   force =    -0.02529219    0.03263758    0.01737178
     atom   11 type  1   force =     0.04844170    0.00795197    0.11682591
     atom   12 type  1   force =    -0.03629740    0.05384456   -0.02233008
     atom   13 type  1   force =    -0.11397726   -0.03145490   -0.04559021
     atom   14 type  1   force =    -0.76321266   -0.56365314    0.89998097
     atom   15 type  1   force =    -0.45517693   -0.17978994   -0.89163140
     atom   16 type  1   force =     0.00796074    0.06458693    0.02192806
     atom   17 type  1   force =     0.89550023    0.14793853    0.45903414
     atom   18 type  1   force =    -0.40704616    0.98856906    0.16718315
     atom   19 type  1   force =    -0.02660207    0.02746182    0.01994028
     atom   20 type  1   force =     0.03542361    0.03281392    0.08701146
     atom   21 type  1   force =    -0.05528034    0.01707077    0.04390483
     atom   22 type  1   force =    -0.09124422    0.00207811   -0.03965768
     atom   23 type  1   force =     0.07735940   -0.13556897   -0.04446456
     atom   24 type  1   force =    -0.27826411   -0.11329392    0.02174146
     atom   25 type  1   force =    -0.04825300    0.01877497    0.05093127
     atom   26 type  1   force =    -0.00237333   -0.04635145    0.29763026
     atom   27 type  1   force =    -0.13750182    0.15594514    0.09966410
     atom   28 type  1   force =    -0.02244826   -0.05181268   -0.04559613
     atom   29 type  1   force =     0.08554923   -0.28682582   -0.03121502
     atom   30 type  1   force =    -0.05392777   -0.07238199   -0.21223058
     atom   31 type  1   force =     0.03026477    0.00343793   -0.06157985
     atom   32 type  1   force =     1.00459908   -0.15038002    0.05154770
     atom   33 type  1   force =    -0.07374328    0.07774069   -1.07700456
     atom   34 type  1   force =     0.03989549    0.05792164    0.00718513
     atom   35 type  1   force =     0.23665211    0.08670282    0.05487780
     atom   36 type  1   force =     0.09976849    0.23406842   -0.05412634
     atom   37 type  1   force =    -0.09574363    0.01452741   -0.02270357
     atom   38 type  1   force =     0.02262581    0.01418571    0.15991056
     atom   39 type  1   force =    -0.27365043   -0.12553882    0.00493916
     atom   40 type  1   force =    -0.12661643    0.00312698    0.00170026
     atom   41 type  1   force =    -0.53241004   -1.19393535    0.03923727
     atom   42 type  1   force =    -0.75549574    0.64072679    0.22921366
     atom   43 type  1   force =    -0.01112772    0.07033974    0.08239221
     atom   44 type  1   force =     0.08352974    0.12525529    0.26828064
     atom   45 type  1   force =    -0.08018750    0.22916429    0.08680388
     atom   46 type  1   force =    -0.01094174   -0.01548446   -0.03871385
     atom   47 type  1   force =     0.06916236   -0.05961390   -0.03925702
     atom   48 type  1   force =    -0.03161805   -0.04781407   -0.04468198
     atom   49 type  1   force =    -0.00936149   -0.01116835   -0.04233481
     atom   50 type  1   force =     0.08489495   -0.09200666   -0.01950096
     atom   51 type  1   force =    -0.02747781    0.02930443   -0.05569708
     atom   52 type  1   force =     0.01170451    0.02357342    0.01125562
     atom   53 type  1   force =     0.07316555    0.03240489    0.07402648
     atom   54 type  1   force =     0.01820042    0.06765750    0.00942677
     atom   55 type  1   force =     0.05586003   -0.03281183    0.03271298
     atom   56 type  1   force =     0.05987369    0.01061699   -0.03197211
     atom   57 type  1   force =    -0.01949106    0.04350975   -0.05220305
     atom   58 type  1   force =     0.10037363   -0.28322586   -0.01639057
     atom   59 type  1   force =     0.01410612   -0.39072093   -0.93894855
     atom   60 type  1   force =    -0.06698003    0.01303049   -0.24875597
     atom   61 type  1   force =     0.22167418   -0.00550421    0.06337479
     atom   62 type  1   force =     1.02578035    0.34452547    0.02252141
     atom   63 type  1   force =     0.00026188    0.20992674   -0.15363173
     atom   64 type  1   force =     0.01589387    0.04161529    0.08893224
     atom   65 type  1   force =    -0.00600981    0.03238951    0.12230623
     atom   66 type  1   force =    -0.09693336    0.04951949   -0.00341225
     atom   67 type  1   force =    -0.15803397   -0.02964860   -0.02074958
     atom   68 type  1   force =     0.22807218   -1.00941195    0.79972413
     atom   69 type  1   force =    -0.28774745    0.03516983   -0.10299167
     atom   70 type  1   force =     0.01696747   -0.05502219    0.29555184
     atom   71 type  1   force =    -0.39528025    0.72812840    0.58942502
     atom   72 type  1   force =    -0.14062926    0.21449962    0.02636328
     atom   73 type  1   force =     0.04094186   -0.00289452    0.01317236
     atom   74 type  1   force =     0.04348683    0.00165567    0.01051518
     atom   75 type  1   force =    -0.01615403    0.01681294   -0.01660408
     atom   76 type  1   force =     0.05416328   -0.06325320   -0.05425720
     atom   77 type  1   force =     0.04305857   -0.10215840   -0.06133903
     atom   78 type  1   force =    -0.07745385   -0.00414314   -0.07659784
     atom   79 type  1   force =     0.05376684   -0.02709514    0.04070630
     atom   80 type  1   force =     0.04641159    0.04723368    0.01819488
     atom   81 type  1   force =    -0.02458166    0.05727611   -0.03335616
     atom   82 type  1   force =     0.07225604   -0.10203330   -0.04750005
     atom   83 type  1   force =     0.02744627   -0.06104874   -0.16089713
     atom   84 type  1   force =    -0.01712160   -0.01752317   -0.09098368
     atom   85 type  1   force =     0.17146758   -0.02609970   -0.01687308
     atom   86 type  1   force =     0.29637410   -0.00458956   -0.29525488
     atom   87 type  1   force =    -0.02051694   -0.00697054   -0.17162600
     atom   88 type  1   force =     0.09201802    0.00896124    0.01816031
     atom   89 type  1   force =     0.16777331    0.03871539    0.01666791
     atom   90 type  1   force =     0.03161816    0.08200991   -0.05151548
     atom   91 type  1   force =    -0.10248523   -0.04761934    0.11403915
     atom   92 type  1   force =    -0.09665413   -0.23345037    0.08099561
     atom   93 type  1   force =    -0.08996649   -0.00826715   -0.14918696
     atom   94 type  1   force =    -0.02641874   -0.21640254    0.15122861
     atom   95 type  1   force =    -0.24509109    0.23889962   -0.24070496
     atom   96 type  1   force =     0.14429637    0.04857512    0.08507208
     atom   97 type  1   force =     0.17050694    0.33973515    0.17488844
     atom   98 type  1   force =    -0.07746986    0.14899021    0.04131957
     atom   99 type  1   force =     0.00010695    0.00021540   -0.00015882
     atom  100 type  1   force =     0.05016686   -0.11641890    0.09858783
     atom  101 type  1   force =    -0.13077125   -0.01088867   -0.02710853
     atom  102 type  1   force =    -0.06689396   -0.14482352   -0.01847485
     atom  103 type  1   force =    -0.11798456   -0.17535807    0.16053439
     atom  104 type  1   force =    -0.13370646    0.11105108    0.01385059
     atom  105 type  1   force =     0.02516028    0.02694695    0.12882312
     atom  106 type  1   force =    -0.04345357    0.13295107    0.10410381
     atom  107 type  1   force =    -0.05014967    0.07289856    0.03246290
     atom  108 type  1   force =     0.01224335   -0.02969562   -0.00503946
     atom  109 type  1   force =     0.02975454   -0.08577472   -0.13793640
     atom  110 type  1   force =    -0.00858625    0.00181263   -0.09312039
     atom  111 type  1   force =     0.15505765   -0.05536618   -0.01263218
     atom  112 type  1   force =     0.50598690   -0.28184283   -0.43759568
     atom  113 type  1   force =    -0.00583921    0.05757899   -0.31382464
     atom  114 type  1   force =     0.08978169    0.02568447    0.00524977
     atom  115 type  1   force =     0.29110884    0.12962861   -0.01686955
     atom  116 type  1   force =     0.08061558    0.20897212   -0.13131789
     atom  117 type  1   force =     0.00554412    0.02484853   -0.01157429
     atom  118 type  1   force =    -0.01722177   -0.07369557    0.15542186
     atom  119 type  1   force =    -0.10582098   -0.02478966   -0.12441861
     atom  120 type  1   force =    -0.13410192   -0.10205337    0.03854374
     atom  121 type  1   force =    -0.61054424    0.22029454   -0.32487668
     atom  122 type  1   force =     0.12367785    0.03089678    0.10507615
     atom  123 type  1   force =     0.24620743    0.42817456    0.53186775
     atom  124 type  1   force =    -0.09579164    0.30370305    0.02210308
     atom  125 type  1   force =     0.01434373    0.03727942   -0.02338820
     atom  126 type  1   force =     0.01290181    0.02140893   -0.01212840
     atom  127 type  1   force =    -0.03092001   -0.01033632   -0.00063200
     atom  128 type  1   force =     0.00710446    0.02000209   -0.01792696
     atom  129 type  1   force =     0.01792611   -0.17043188    0.02342798
     atom  130 type  1   force =    -0.14404496    0.07919078    0.01769210
     atom  131 type  1   force =     0.00216609   -0.00230728    0.03245432
     atom  132 type  1   force =    -0.03997257    0.10444397    0.12176690
     atom  133 type  1   force =    -0.03853692    0.08345273    0.01828926
     atom  134 type  1   force =    -0.06617109   -0.12639540    0.02885068
     atom  135 type  1   force =    -0.24588882   -0.66419419   -0.08495947
     atom  136 type  1   force =    -0.14516050   -0.06617325   -0.32285189
     atom  137 type  1   force =     0.12720601   -0.04034143    0.06344519
     atom  138 type  1   force =     3.34346935    0.43110487    0.58030261
     atom  139 type  1   force =    -0.19573959    0.59762450   -0.48987676
     atom  140 type  1   force =     0.03557923    0.02881545    0.05836482
     atom  141 type  1   force =     0.14628750    0.09073902    0.07244027
     atom  142 type  1   force =    -0.01066657    0.16034781   -0.04461630
     atom  143 type  1   force =    -0.04064664    0.04728708   -0.04561525
     atom  144 type  1   force =     0.19653150   -0.02323188    0.06949794
     atom  145 type  1   force =    -0.20460890   -0.05463091   -0.01486851
     atom  146 type  1   force =    -0.08147390   -0.08470440    0.08590305
     atom  147 type  1   force =    -0.41444906   -0.20402194    0.54339534
     atom  148 type  1   force =    -0.25608639    0.23664127    0.09061187
     atom  149 type  1   force =     0.02737566    0.04872999    0.03365169
     atom  150 type  1   force =    -0.00185416    0.11071752    0.15745113
     atom  151 type  1   force =    -0.04596549    0.06957632    0.02854434
     atom  152 type  1   force =     0.04787938   -0.00779476   -0.04337418
     atom  153 type  1   force =     0.07768819   -0.10703793   -0.13971317
     atom  154 type  1   force =    -0.01545509   -0.01407149   -0.08548020
     atom  155 type  1   force =     0.05872699   -0.03495243   -0.02854599
     atom  156 type  1   force =     0.17935010   -0.00013318   -0.05143962
     atom  157 type  1   force =     0.01439105    0.09146758   -0.13862958
     atom  158 type  1   force =     0.03124668    0.01949305   -0.00579814
     atom  159 type  1   force =     0.02677016    0.06651359   -0.04134707
     atom  160 type  1   force =     0.03081794    0.04930160   -0.02770152
     atom  161 type  1   force =    -0.00012707   -0.11037198    0.09489314
     atom  162 type  1   force =    -0.04848650   -0.08297745   -0.11224745
     atom  163 type  1   force =    -0.06247275    0.00502352   -0.03968613
     atom  164 type  1   force =     0.23205200   -0.54822165    0.39298203
     atom  165 type  1   force =    -0.56970830   -0.51839192   -3.33287799
     atom  166 type  1   force =    -0.08757686    0.03399859   -0.16142092
     atom  167 type  1   force =     0.32506192    0.04792256    0.14736859
     atom  168 type  1   force =     0.32941395    0.72504379    0.03527596
     atom  169 type  1   force =     0.00524127    0.16420961   -0.02870870
     atom  170 type  1   force =     0.03200379    0.06491541    0.02703448
     atom  171 type  1   force =    -0.06581407   -0.08090345    0.10156522
     atom  172 type  1   force =    -0.04339244    0.03155888   -0.03711506
     atom  173 type  1   force =    -0.05641370   -0.08460729   -0.18344825
     atom  174 type  1   force =    -0.49161984   -0.22274627    0.46622692
     atom  175 type  1   force =    -0.17909982    0.06770994   -0.01979322
     atom  176 type  1   force =     0.02146934    0.00022485    0.21120578
     atom  177 type  1   force =    -0.15111930    0.26211047    0.19557749
     atom  178 type  1   force =    -0.04544074    0.06970337    0.02906850
     atom  179 type  1   force =     0.04533919   -0.00841159   -0.04591323
     atom  180 type  1   force =     0.03764730   -0.04007043   -0.04962717
     atom  181 type  1   force =     0.00193250    0.01237857   -0.03511391
     atom  182 type  1   force =     0.16316780   -0.08629499   -0.05423221
     atom  183 type  1   force =     0.05513268   -0.03027465   -0.17566216
     atom  184 type  1   force =     0.02525396    0.06614637   -0.04286756
     atom  185 type  1   force =     0.08590616    0.01052571    0.01588685
     atom  186 type  1   force =     0.11351809    0.11551945   -0.03949944
     atom  187 type  1   force =     0.01617115    0.04574914   -0.04234808
     atom  188 type  1   force =     0.08999016   -0.18715675   -0.04457862
     atom  189 type  1   force =    -0.00843668   -0.12772106   -0.33654228
     atom  190 type  1   force =    -0.01473706   -0.01434367   -0.08563642
     atom  191 type  1   force =     0.35677559   -0.03909895    0.02867806
     atom  192 type  1   force =     0.48867015    0.28988284   -0.55900133
     atom  193 type  1   force =     0.03519348    0.08211610   -0.14080731
     atom  194 type  1   force =     0.08614413    0.01013450    0.01524617
     atom  195 type  1   force =     0.11843290    0.10230882   -0.05756747
     atom  196 type  1   force =     0.01181967    0.05784892   -0.02585607
     atom  197 type  1   force =    -0.13299623    0.12496928    0.10267453
     atom  198 type  1   force =    -0.34650778   -0.61890601   -0.07475475
     atom  199 type  1   force =    -0.15311506   -0.00314605   -0.11663721
     atom  200 type  1   force =     0.20858827   -0.48421576    0.48033517
     atom  201 type  1   force =    -1.75620255    2.72337316    1.09540618
     atom  202 type  1   force =    -0.12520065    0.13690920   -0.02086672
     atom  203 type  1   force =     0.10966611    0.06061452    0.14613832
     atom  204 type  1   force =    -0.01558015    0.16350631    0.08875289
     atom  205 type  1   force =     0.02499799    0.06741214   -0.04135523
     atom  206 type  1   force =     0.05388226    0.00471296   -0.05502533
     atom  207 type  1   force =    -0.04591983   -0.13557247    0.02698835
     atom  208 type  1   force =    -0.04427075    0.03366584   -0.03409836
     atom  209 type  1   force =     0.00442304   -0.12335646    0.07733269
     atom  210 type  1   force =    -0.10204626    0.06280190    0.08680843
     atom  211 type  1   force =    -0.06902013    0.02255505   -0.01564710
     atom  212 type  1   force =     0.02392108    0.05021317    0.03409562
     atom  213 type  1   force =     0.00790850    0.04122172    0.06128362
     atom  214 type  1   force =    -0.00692877    0.03667041   -0.00196721
     atom  215 type  2   force =    -1.25106584   -3.24187310    2.03767982
     The core correction contribution to forces
     atom    1 type  1   force =    -0.00003251   -0.00006062    0.00004721
     atom    2 type  1   force =    -0.00003343   -0.00003689    0.00010187
     atom    3 type  1   force =    -0.00007438   -0.00007929    0.00013135
     atom    4 type  1   force =    -0.00009121   -0.00005093    0.00004408
     atom    5 type  1   force =    -0.00034351    0.00052482    0.00021618
     atom    6 type  1   force =    -0.00018239    0.00010259    0.00030558
     atom    7 type  1   force =    -0.00011104   -0.00008819    0.00009470
     atom    8 type  1   force =    -0.00032622    0.00006768    0.00016173
     atom    9 type  1   force =    -0.00026695   -0.00050994    0.00039069
     atom   10 type  1   force =    -0.00001458   -0.00007731    0.00003335
     atom   11 type  1   force =    -0.00009014    0.00001478   -0.00013786
     atom   12 type  1   force =     0.00005753   -0.00007644    0.00007924
     atom   13 type  1   force =     0.00012788    0.00006768    0.00008013
     atom   14 type  1   force =     0.00164564   -0.00354640   -0.00078515
     atom   15 type  1   force =     0.00240690    0.00082812    0.00026890
     atom   16 type  1   force =    -0.00005732   -0.00010429   -0.00003559
     atom   17 type  1   force =    -0.00038757    0.00015007   -0.00252556
     atom   18 type  1   force =    -0.00092123   -0.00197334    0.00140004
     atom   19 type  1   force =    -0.00001774   -0.00004222    0.00002797
     atom   20 type  1   force =     0.00000267   -0.00006236   -0.00009528
     atom   21 type  1   force =     0.00002496   -0.00002629   -0.00005822
     atom   22 type  1   force =     0.00010733   -0.00003696    0.00000937
     atom   23 type  1   force =    -0.00000100   -0.00006797    0.00001749
     atom   24 type  1   force =     0.00014169   -0.00010231   -0.00017322
     atom   25 type  1   force =     0.00006346   -0.00001695   -0.00001971
     atom   26 type  1   force =     0.00019644   -0.00008903   -0.00011847
     atom   27 type  1   force =     0.00028947   -0.00007078   -0.00027229
     atom   28 type  1   force =     0.00004440    0.00003440    0.00005028
     atom   29 type  1   force =     0.00011790    0.00012497    0.00017500
     atom   30 type  1   force =     0.00015297    0.00030120    0.00023603
     atom   31 type  1   force =    -0.00009205   -0.00000943    0.00009387
     atom   32 type  1   force =    -0.00114778    0.00223734    0.00035069
     atom   33 type  1   force =    -0.00085677   -0.00215376    0.00115758
     atom   34 type  1   force =    -0.00009361   -0.00013623    0.00002918
     atom   35 type  1   force =    -0.00022926   -0.00019792   -0.00020092
     atom   36 type  1   force =    -0.00024012   -0.00058467    0.00028861
     atom   37 type  1   force =     0.00008970    0.00001086    0.00007507
     atom   38 type  1   force =    -0.00001286   -0.00003401    0.00006521
     atom   39 type  1   force =     0.00004341    0.00016431    0.00018373
     atom   40 type  1   force =     0.00015740   -0.00001264   -0.00002932
     atom   41 type  1   force =     0.00038422   -0.00007355    0.00394997
     atom   42 type  1   force =     0.00248241    0.00061641   -0.00000947
     atom   43 type  1   force =    -0.00008322   -0.00007294    0.00001435
     atom   44 type  1   force =    -0.00011543   -0.00010095   -0.00063997
     atom   45 type  1   force =    -0.00004191   -0.00028212   -0.00021985
     atom   46 type  1   force =    -0.00001934   -0.00003719    0.00003406
     atom   47 type  1   force =    -0.00004713    0.00007307    0.00008896
     atom   48 type  1   force =    -0.00000536    0.00005654    0.00005489
     atom   49 type  1   force =    -0.00002295   -0.00005342    0.00006558
     atom   50 type  1   force =    -0.00012630    0.00011539   -0.00000088
     atom   51 type  1   force =     0.00005840   -0.00007757    0.00007792
     atom   52 type  1   force =    -0.00003066   -0.00006460    0.00004164
     atom   53 type  1   force =    -0.00000723   -0.00010753    0.00000637
     atom   54 type  1   force =    -0.00004539   -0.00015790    0.00002400
     atom   55 type  1   force =    -0.00005568    0.00001012   -0.00004979
     atom   56 type  1   force =    -0.00009159   -0.00000930    0.00009433
     atom   57 type  1   force =     0.00000109   -0.00011325    0.00012388
     atom   58 type  1   force =    -0.00019606    0.00004877   -0.00013898
     atom   59 type  1   force =    -0.00090083    0.00229727    0.00059766
     atom   60 type  1   force =     0.00023527   -0.00008521    0.00026361
     atom   61 type  1   force =    -0.00029590    0.00019228   -0.00021284
     atom   62 type  1   force =    -0.00064133   -0.00210146    0.00137300
     atom   63 type  1   force =    -0.00014943   -0.00056267    0.00037931
     atom   64 type  1   force =    -0.00007291   -0.00002860   -0.00008753
     atom   65 type  1   force =     0.00003597   -0.00004212   -0.00015076
     atom   66 type  1   force =     0.00000089   -0.00005254    0.00009844
     atom   67 type  1   force =    -0.00005569   -0.00004439    0.00002237
     atom   68 type  1   force =    -0.00380873   -0.00109093   -0.00024296
     atom   69 type  1   force =     0.00064218    0.00008288    0.00011763
     atom   70 type  1   force =    -0.00021597    0.00010138   -0.00007562
     atom   71 type  1   force =    -0.00006511   -0.00000172   -0.00255699
     atom   72 type  1   force =     0.00027885   -0.00020428    0.00010092
     atom   73 type  1   force =    -0.00002488   -0.00003854    0.00002852
     atom   74 type  1   force =    -0.00005177   -0.00006041    0.00003676
     atom   75 type  1   force =    -0.00002611   -0.00006349    0.00004618
     atom   76 type  1   force =    -0.00010498    0.00005903    0.00003110
     atom   77 type  1   force =    -0.00002995    0.00013878    0.00009549
     atom   78 type  1   force =     0.00001894   -0.00010118    0.00003255
     atom   79 type  1   force =    -0.00006680    0.00004162   -0.00000655
     atom   80 type  1   force =    -0.00005572   -0.00010526   -0.00003622
     atom   81 type  1   force =     0.00001261   -0.00014383    0.00008200
     atom   82 type  1   force =    -0.00007793    0.00007398    0.00005998
     atom   83 type  1   force =    -0.00029653    0.00048519    0.00009617
     atom   84 type  1   force =    -0.00000070   -0.00001448    0.00011928
     atom   85 type  1   force =    -0.00021625    0.00050465    0.00017644
     atom   86 type  1   force =    -0.00046269    0.00012613    0.00043209
     atom   87 type  1   force =    -0.00024060   -0.00056448    0.00019215
     atom   88 type  1   force =    -0.00011248   -0.00004161    0.00000751
     atom   89 type  1   force =    -0.00006048   -0.00052076    0.00037225
     atom   90 type  1   force =    -0.00009550   -0.00023326    0.00015209
     atom   91 type  1   force =    -0.00018676    0.00010681    0.00016086
     atom   92 type  1   force =     0.00020704    0.00043808    0.00015849
     atom   93 type  1   force =     0.00055906    0.00010068    0.00000977
     atom   94 type  1   force =    -0.00025129    0.00032688   -0.00029985
     atom   95 type  1   force =     0.00045694   -0.00028717    0.00033945
     atom   96 type  1   force =    -0.00001725   -0.00003915   -0.00056649
     atom   97 type  1   force =    -0.00024899   -0.00045847   -0.00036649
     atom   98 type  1   force =    -0.00029379   -0.00041693    0.00039495
     atom   99 type  1   force =    -0.00001117   -0.00001537    0.00001489
     atom  100 type  1   force =     0.00022010   -0.00007504    0.00012021
     atom  101 type  1   force =     0.00010595   -0.00000903    0.00004110
     atom  102 type  1   force =    -0.00009279   -0.00015096   -0.00019269
     atom  103 type  1   force =     0.00034727    0.00005667   -0.00036102
     atom  104 type  1   force =     0.00053466    0.00016739    0.00010069
     atom  105 type  1   force =    -0.00003477   -0.00004318   -0.00009961
     atom  106 type  1   force =    -0.00012198    0.00000805   -0.00055594
     atom  107 type  1   force =     0.00003328   -0.00010721   -0.00000727
     atom  108 type  1   force =    -0.00015195    0.00019888    0.00010370
     atom  109 type  1   force =    -0.00025589    0.00038257    0.00004466
     atom  110 type  1   force =     0.00000273    0.00004327    0.00024505
     atom  111 type  1   force =    -0.00014088    0.00041049    0.00015969
     atom  112 type  1   force =    -0.00099852    0.00047086    0.00088425
     atom  113 type  1   force =     0.00044908    0.00092088    0.00070375
     atom  114 type  1   force =    -0.00024814   -0.00001760   -0.00000584
     atom  115 type  1   force =    -0.00088785    0.00059647   -0.00063316
     atom  116 type  1   force =    -0.00011922   -0.00021160    0.00017056
     atom  117 type  1   force =     0.00013266   -0.00010047   -0.00010829
     atom  118 type  1   force =    -0.00003029    0.00002830   -0.00002409
     atom  119 type  1   force =     0.00039166    0.00009198   -0.00002004
     atom  120 type  1   force =     0.00001586    0.00003948    0.00002208
     atom  121 type  1   force =     0.00108596   -0.00046544    0.00067437
     atom  122 type  1   force =     0.00000900   -0.00000089   -0.00040272
     atom  123 type  1   force =    -0.00051434   -0.00085373   -0.00092590
     atom  124 type  1   force =     0.00085178   -0.00018917   -0.00080588
     atom  125 type  1   force =    -0.00001846    0.00005018    0.00000629
     atom  126 type  1   force =    -0.00024476    0.00007030   -0.00006980
     atom  127 type  1   force =     0.00019500    0.00004264    0.00006902
     atom  128 type  1   force =     0.00004424    0.00014043    0.00021920
     atom  129 type  1   force =    -0.00004488    0.00006687    0.00002865
     atom  130 type  1   force =     0.00035867    0.00018559    0.00010883
     atom  131 type  1   force =    -0.00007152   -0.00002202   -0.00019750
     atom  132 type  1   force =    -0.00013921    0.00006479   -0.00038904
     atom  133 type  1   force =     0.00007847   -0.00016435   -0.00003860
     atom  134 type  1   force =    -0.00014275    0.00015597    0.00012924
     atom  135 type  1   force =    -0.00045782    0.00147043    0.00011218
     atom  136 type  1   force =    -0.00036989    0.00010626    0.00093374
     atom  137 type  1   force =    -0.00010291    0.00013770   -0.00008104
     atom  138 type  1   force =    -0.00194808    0.00008297   -0.00058232
     atom  139 type  1   force =     0.00059457   -0.00054191    0.00060258
     atom  140 type  1   force =    -0.00018454    0.00002605    0.00011070
     atom  141 type  1   force =    -0.00027527   -0.00009395   -0.00014494
     atom  142 type  1   force =     0.00000101   -0.00004089   -0.00002387
     atom  143 type  1   force =     0.00013992   -0.00001913    0.00009716
     atom  144 type  1   force =    -0.00033250    0.00063550   -0.00051979
     atom  145 type  1   force =     0.00061561    0.00014264    0.00010535
     atom  146 type  1   force =    -0.00006519   -0.00005796   -0.00016296
     atom  147 type  1   force =    -0.00003047    0.00029390   -0.00150432
     atom  148 type  1   force =    -0.00001435   -0.00086253   -0.00038916
     atom  149 type  1   force =    -0.00002565   -0.00006837   -0.00025514
     atom  150 type  1   force =    -0.00009885   -0.00011743   -0.00022014
     atom  151 type  1   force =     0.00022768   -0.00012605   -0.00006186
     atom  152 type  1   force =    -0.00014116    0.00024654    0.00017484
     atom  153 type  1   force =    -0.00020769    0.00018038    0.00018599
     atom  154 type  1   force =     0.00014028    0.00011315    0.00026545
     atom  155 type  1   force =    -0.00014042   -0.00009427   -0.00005280
     atom  156 type  1   force =    -0.00033822    0.00007689    0.00008880
     atom  157 type  1   force =    -0.00003292    0.00005163    0.00010263
     atom  158 type  1   force =    -0.00011570    0.00004109   -0.00001285
     atom  159 type  1   force =    -0.00024753    0.00027368   -0.00021893
     atom  160 type  1   force =    -0.00004149   -0.00007507    0.00009221
     atom  161 type  1   force =    -0.00016638    0.00015024    0.00010560
     atom  162 type  1   force =     0.00004333    0.00017319    0.00006520
     atom  163 type  1   force =    -0.00011895    0.00004197    0.00017629
     atom  164 type  1   force =    -0.00046865    0.00146779    0.00010137
     atom  165 type  1   force =     0.00049040    0.00067465    0.00185610
     atom  166 type  1   force =     0.00015508    0.00001047    0.00028540
     atom  167 type  1   force =    -0.00094267   -0.00003272    0.00036097
     atom  168 type  1   force =    -0.00044064   -0.00079309   -0.00043259
     atom  169 type  1   force =     0.00003286   -0.00003317    0.00000797
     atom  170 type  1   force =    -0.00008586   -0.00007391   -0.00012864
     atom  171 type  1   force =     0.00017011   -0.00000086    0.00007232
     atom  172 type  1   force =     0.00026321    0.00000172    0.00003374
     atom  173 type  1   force =     0.00034563    0.00080004    0.00015835
     atom  174 type  1   force =     0.00139117    0.00063885   -0.00008269
     atom  175 type  1   force =     0.00023870   -0.00003554    0.00011740
     atom  176 type  1   force =    -0.00011836   -0.00003545   -0.00062861
     atom  177 type  1   force =     0.00058092   -0.00071809    0.00020613
     atom  178 type  1   force =     0.00009631   -0.00015793   -0.00019323
     atom  179 type  1   force =    -0.00023197    0.00022450    0.00008402
     atom  180 type  1   force =     0.00006950   -0.00004335    0.00015712
     atom  181 type  1   force =    -0.00000051    0.00006905    0.00010235
     atom  182 type  1   force =    -0.00022913    0.00017519    0.00016455
     atom  183 type  1   force =    -0.00011406    0.00013129    0.00031295
     atom  184 type  1   force =     0.00014108    0.00036799    0.00016969
     atom  185 type  1   force =    -0.00028051    0.00001105   -0.00015535
     atom  186 type  1   force =    -0.00011281    0.00003223    0.00002273
     atom  187 type  1   force =    -0.00007307   -0.00008273    0.00006063
     atom  188 type  1   force =    -0.00033969    0.00057148    0.00020102
     atom  189 type  1   force =     0.00040889   -0.00024520    0.00085298
     atom  190 type  1   force =    -0.00003130    0.00019065    0.00028287
     atom  191 type  1   force =    -0.00075911   -0.00052859   -0.00031501
     atom  192 type  1   force =    -0.00075510    0.00006565    0.00073914
     atom  193 type  1   force =     0.00000837    0.00003311    0.00009856
     atom  194 type  1   force =    -0.00032059    0.00012045   -0.00000644
     atom  195 type  1   force =    -0.00010331    0.00000600   -0.00001311
     atom  196 type  1   force =    -0.00008204   -0.00005669    0.00009579
     atom  197 type  1   force =     0.00054884    0.00023173   -0.00060507
     atom  198 type  1   force =     0.00137680    0.00065297   -0.00006111
     atom  199 type  1   force =     0.00023222   -0.00001740    0.00014152
     atom  200 type  1   force =    -0.00005518    0.00030549   -0.00149307
     atom  201 type  1   force =     0.00123904   -0.00134710   -0.00091218
     atom  202 type  1   force =     0.00022329   -0.00017563    0.00003162
     atom  203 type  1   force =    -0.00012673   -0.00010450   -0.00021743
     atom  204 type  1   force =     0.00001706   -0.00022565   -0.00017459
     atom  205 type  1   force =     0.00025892    0.00004594   -0.00027008
     atom  206 type  1   force =    -0.00015417    0.00011443    0.00012641
     atom  207 type  1   force =     0.00016350    0.00001816    0.00009873
     atom  208 type  1   force =     0.00023537    0.00007668    0.00013699
     atom  209 type  1   force =    -0.00009552   -0.00004468   -0.00016027
     atom  210 type  1   force =     0.00008817    0.00005141   -0.00010065
     atom  211 type  1   force =    -0.00005539   -0.00013211   -0.00006101
     atom  212 type  1   force =    -0.00014441   -0.00001547   -0.00024280
     atom  213 type  1   force =     0.00008882   -0.00009713    0.00008321
     atom  214 type  1   force =     0.00003431   -0.00002620   -0.00002796
     atom  215 type  2   force =     0.00662841    0.01716952   -0.01079453
     The Hubbard contrib.    to forces
     atom    1 type  1   force =     0.00000000    0.00000000    0.00000000
     atom    2 type  1   force =     0.00000000    0.00000000    0.00000000
     atom    3 type  1   force =     0.00000000    0.00000000    0.00000000
     atom    4 type  1   force =     0.00000000    0.00000000    0.00000000
     atom    5 type  1   force =     0.00000000    0.00000000    0.00000000
     atom    6 type  1   force =     0.00000000    0.00000000    0.00000000
     atom    7 type  1   force =     0.00000000    0.00000000    0.00000000
     atom    8 type  1   force =     0.00000000    0.00000000    0.00000000
     atom    9 type  1   force =     0.00000000    0.00000000    0.00000000
     atom   10 type  1   force =     0.00000000    0.00000000    0.00000000
     atom   11 type  1   force =     0.00000000    0.00000000    0.00000000
     atom   12 type  1   force =     0.00000000    0.00000000    0.00000000
     atom   13 type  1   force =     0.00000000    0.00000000    0.00000000
     atom   14 type  1   force =     0.00000000    0.00000000    0.00000000
     atom   15 type  1   force =     0.00000000    0.00000000    0.00000000
     atom   16 type  1   force =     0.00000000    0.00000000    0.00000000
     atom   17 type  1   force =     0.00000000    0.00000000    0.00000000
     atom   18 type  1   force =     0.00000000    0.00000000    0.00000000
     atom   19 type  1   force =     0.00000000    0.00000000    0.00000000
     atom   20 type  1   force =     0.00000000    0.00000000    0.00000000
     atom   21 type  1   force =     0.00000000    0.00000000    0.00000000
     atom   22 type  1   force =     0.00000000    0.00000000    0.00000000
     atom   23 type  1   force =     0.00000000    0.00000000    0.00000000
     atom   24 type  1   force =     0.00000000    0.00000000    0.00000000
     atom   25 type  1   force =     0.00000000    0.00000000    0.00000000
     atom   26 type  1   force =     0.00000000    0.00000000    0.00000000
     atom   27 type  1   force =     0.00000000    0.00000000    0.00000000
     atom   28 type  1   force =     0.00000000    0.00000000    0.00000000
     atom   29 type  1   force =     0.00000000    0.00000000    0.00000000
     atom   30 type  1   force =     0.00000000    0.00000000    0.00000000
     atom   31 type  1   force =     0.00000000    0.00000000    0.00000000
     atom   32 type  1   force =     0.00000000    0.00000000    0.00000000
     atom   33 type  1   force =     0.00000000    0.00000000    0.00000000
     atom   34 type  1   force =     0.00000000    0.00000000    0.00000000
     atom   35 type  1   force =     0.00000000    0.00000000    0.00000000
     atom   36 type  1   force =     0.00000000    0.00000000    0.00000000
     atom   37 type  1   force =     0.00000000    0.00000000    0.00000000
     atom   38 type  1   force =     0.00000000    0.00000000    0.00000000
     atom   39 type  1   force =     0.00000000    0.00000000    0.00000000
     atom   40 type  1   force =     0.00000000    0.00000000    0.00000000
     atom   41 type  1   force =     0.00000000    0.00000000    0.00000000
     atom   42 type  1   force =     0.00000000    0.00000000    0.00000000
     atom   43 type  1   force =     0.00000000    0.00000000    0.00000000
     atom   44 type  1   force =     0.00000000    0.00000000    0.00000000
     atom   45 type  1   force =     0.00000000    0.00000000    0.00000000
     atom   46 type  1   force =     0.00000000    0.00000000    0.00000000
     atom   47 type  1   force =     0.00000000    0.00000000    0.00000000
     atom   48 type  1   force =     0.00000000    0.00000000    0.00000000
     atom   49 type  1   force =     0.00000000    0.00000000    0.00000000
     atom   50 type  1   force =     0.00000000    0.00000000    0.00000000
     atom   51 type  1   force =     0.00000000    0.00000000    0.00000000
     atom   52 type  1   force =     0.00000000    0.00000000    0.00000000
     atom   53 type  1   force =     0.00000000    0.00000000    0.00000000
     atom   54 type  1   force =     0.00000000    0.00000000    0.00000000
     atom   55 type  1   force =     0.00000000    0.00000000    0.00000000
     atom   56 type  1   force =     0.00000000    0.00000000    0.00000000
     atom   57 type  1   force =     0.00000000    0.00000000    0.00000000
     atom   58 type  1   force =     0.00000000    0.00000000    0.00000000
     atom   59 type  1   force =     0.00000000    0.00000000    0.00000000
     atom   60 type  1   force =     0.00000000    0.00000000    0.00000000
     atom   61 type  1   force =     0.00000000    0.00000000    0.00000000
     atom   62 type  1   force =     0.00000000    0.00000000    0.00000000
     atom   63 type  1   force =     0.00000000    0.00000000    0.00000000
     atom   64 type  1   force =     0.00000000    0.00000000    0.00000000
     atom   65 type  1   force =     0.00000000    0.00000000    0.00000000
     atom   66 type  1   force =     0.00000000    0.00000000    0.00000000
     atom   67 type  1   force =     0.00000000    0.00000000    0.00000000
     atom   68 type  1   force =     0.00000000    0.00000000    0.00000000
     atom   69 type  1   force =     0.00000000    0.00000000    0.00000000
     atom   70 type  1   force =     0.00000000    0.00000000    0.00000000
     atom   71 type  1   force =     0.00000000    0.00000000    0.00000000
     atom   72 type  1   force =     0.00000000    0.00000000    0.00000000
     atom   73 type  1   force =     0.00000000    0.00000000    0.00000000
     atom   74 type  1   force =     0.00000000    0.00000000    0.00000000
     atom   75 type  1   force =     0.00000000    0.00000000    0.00000000
     atom   76 type  1   force =     0.00000000    0.00000000    0.00000000
     atom   77 type  1   force =     0.00000000    0.00000000    0.00000000
     atom   78 type  1   force =     0.00000000    0.00000000    0.00000000
     atom   79 type  1   force =     0.00000000    0.00000000    0.00000000
     atom   80 type  1   force =     0.00000000    0.00000000    0.00000000
     atom   81 type  1   force =     0.00000000    0.00000000    0.00000000
     atom   82 type  1   force =     0.00000000    0.00000000    0.00000000
     atom   83 type  1   force =     0.00000000    0.00000000    0.00000000
     atom   84 type  1   force =     0.00000000    0.00000000    0.00000000
     atom   85 type  1   force =     0.00000000    0.00000000    0.00000000
     atom   86 type  1   force =     0.00000000    0.00000000    0.00000000
     atom   87 type  1   force =     0.00000000    0.00000000    0.00000000
     atom   88 type  1   force =     0.00000000    0.00000000    0.00000000
     atom   89 type  1   force =     0.00000000    0.00000000    0.00000000
     atom   90 type  1   force =     0.00000000    0.00000000    0.00000000
     atom   91 type  1   force =     0.00000000    0.00000000    0.00000000
     atom   92 type  1   force =     0.00000000    0.00000000    0.00000000
     atom   93 type  1   force =     0.00000000    0.00000000    0.00000000
     atom   94 type  1   force =     0.00000000    0.00000000    0.00000000
     atom   95 type  1   force =     0.00000000    0.00000000    0.00000000
     atom   96 type  1   force =     0.00000000    0.00000000    0.00000000
     atom   97 type  1   force =     0.00000000    0.00000000    0.00000000
     atom   98 type  1   force =     0.00000000    0.00000000    0.00000000
     atom   99 type  1   force =     0.00000000    0.00000000    0.00000000
     atom  100 type  1   force =     0.00000000    0.00000000    0.00000000
     atom  101 type  1   force =     0.00000000    0.00000000    0.00000000
     atom  102 type  1   force =     0.00000000    0.00000000    0.00000000
     atom  103 type  1   force =     0.00000000    0.00000000    0.00000000
     atom  104 type  1   force =     0.00000000    0.00000000    0.00000000
     atom  105 type  1   force =     0.00000000    0.00000000    0.00000000
     atom  106 type  1   force =     0.00000000    0.00000000    0.00000000
     atom  107 type  1   force =     0.00000000    0.00000000    0.00000000
     atom  108 type  1   force =     0.00000000    0.00000000    0.00000000
     atom  109 type  1   force =     0.00000000    0.00000000    0.00000000
     atom  110 type  1   force =     0.00000000    0.00000000    0.00000000
     atom  111 type  1   force =     0.00000000    0.00000000    0.00000000
     atom  112 type  1   force =     0.00000000    0.00000000    0.00000000
     atom  113 type  1   force =     0.00000000    0.00000000    0.00000000
     atom  114 type  1   force =     0.00000000    0.00000000    0.00000000
     atom  115 type  1   force =     0.00000000    0.00000000    0.00000000
     atom  116 type  1   force =     0.00000000    0.00000000    0.00000000
     atom  117 type  1   force =     0.00000000    0.00000000    0.00000000
     atom  118 type  1   force =     0.00000000    0.00000000    0.00000000
     atom  119 type  1   force =     0.00000000    0.00000000    0.00000000
     atom  120 type  1   force =     0.00000000    0.00000000    0.00000000
     atom  121 type  1   force =     0.00000000    0.00000000    0.00000000
     atom  122 type  1   force =     0.00000000    0.00000000    0.00000000
     atom  123 type  1   force =     0.00000000    0.00000000    0.00000000
     atom  124 type  1   force =     0.00000000    0.00000000    0.00000000
     atom  125 type  1   force =     0.00000000    0.00000000    0.00000000
     atom  126 type  1   force =     0.00000000    0.00000000    0.00000000
     atom  127 type  1   force =     0.00000000    0.00000000    0.00000000
     atom  128 type  1   force =     0.00000000    0.00000000    0.00000000
     atom  129 type  1   force =     0.00000000    0.00000000    0.00000000
     atom  130 type  1   force =     0.00000000    0.00000000    0.00000000
     atom  131 type  1   force =     0.00000000    0.00000000    0.00000000
     atom  132 type  1   force =     0.00000000    0.00000000    0.00000000
     atom  133 type  1   force =     0.00000000    0.00000000    0.00000000
     atom  134 type  1   force =     0.00000000    0.00000000    0.00000000
     atom  135 type  1   force =     0.00000000    0.00000000    0.00000000
     atom  136 type  1   force =     0.00000000    0.00000000    0.00000000
     atom  137 type  1   force =     0.00000000    0.00000000    0.00000000
     atom  138 type  1   force =     0.00000000    0.00000000    0.00000000
     atom  139 type  1   force =     0.00000000    0.00000000    0.00000000
     atom  140 type  1   force =     0.00000000    0.00000000    0.00000000
     atom  141 type  1   force =     0.00000000    0.00000000    0.00000000
     atom  142 type  1   force =     0.00000000    0.00000000    0.00000000
     atom  143 type  1   force =     0.00000000    0.00000000    0.00000000
     atom  144 type  1   force =     0.00000000    0.00000000    0.00000000
     atom  145 type  1   force =     0.00000000    0.00000000    0.00000000
     atom  146 type  1   force =     0.00000000    0.00000000    0.00000000
     atom  147 type  1   force =     0.00000000    0.00000000    0.00000000
     atom  148 type  1   force =     0.00000000    0.00000000    0.00000000
     atom  149 type  1   force =     0.00000000    0.00000000    0.00000000
     atom  150 type  1   force =     0.00000000    0.00000000    0.00000000
     atom  151 type  1   force =     0.00000000    0.00000000    0.00000000
     atom  152 type  1   force =     0.00000000    0.00000000    0.00000000
     atom  153 type  1   force =     0.00000000    0.00000000    0.00000000
     atom  154 type  1   force =     0.00000000    0.00000000    0.00000000
     atom  155 type  1   force =     0.00000000    0.00000000    0.00000000
     atom  156 type  1   force =     0.00000000    0.00000000    0.00000000
     atom  157 type  1   force =     0.00000000    0.00000000    0.00000000
     atom  158 type  1   force =     0.00000000    0.00000000    0.00000000
     atom  159 type  1   force =     0.00000000    0.00000000    0.00000000
     atom  160 type  1   force =     0.00000000    0.00000000    0.00000000
     atom  161 type  1   force =     0.00000000    0.00000000    0.00000000
     atom  162 type  1   force =     0.00000000    0.00000000    0.00000000
     atom  163 type  1   force =     0.00000000    0.00000000    0.00000000
     atom  164 type  1   force =     0.00000000    0.00000000    0.00000000
     atom  165 type  1   force =     0.00000000    0.00000000    0.00000000
     atom  166 type  1   force =     0.00000000    0.00000000    0.00000000
     atom  167 type  1   force =     0.00000000    0.00000000    0.00000000
     atom  168 type  1   force =     0.00000000    0.00000000    0.00000000
     atom  169 type  1   force =     0.00000000    0.00000000    0.00000000
     atom  170 type  1   force =     0.00000000    0.00000000    0.00000000
     atom  171 type  1   force =     0.00000000    0.00000000    0.00000000
     atom  172 type  1   force =     0.00000000    0.00000000    0.00000000
     atom  173 type  1   force =     0.00000000    0.00000000    0.00000000
     atom  174 type  1   force =     0.00000000    0.00000000    0.00000000
     atom  175 type  1   force =     0.00000000    0.00000000    0.00000000
     atom  176 type  1   force =     0.00000000    0.00000000    0.00000000
     atom  177 type  1   force =     0.00000000    0.00000000    0.00000000
     atom  178 type  1   force =     0.00000000    0.00000000    0.00000000
     atom  179 type  1   force =     0.00000000    0.00000000    0.00000000
     atom  180 type  1   force =     0.00000000    0.00000000    0.00000000
     atom  181 type  1   force =     0.00000000    0.00000000    0.00000000
     atom  182 type  1   force =     0.00000000    0.00000000    0.00000000
     atom  183 type  1   force =     0.00000000    0.00000000    0.00000000
     atom  184 type  1   force =     0.00000000    0.00000000    0.00000000
     atom  185 type  1   force =     0.00000000    0.00000000    0.00000000
     atom  186 type  1   force =     0.00000000    0.00000000    0.00000000
     atom  187 type  1   force =     0.00000000    0.00000000    0.00000000
     atom  188 type  1   force =     0.00000000    0.00000000    0.00000000
     atom  189 type  1   force =     0.00000000    0.00000000    0.00000000
     atom  190 type  1   force =     0.00000000    0.00000000    0.00000000
     atom  191 type  1   force =     0.00000000    0.00000000    0.00000000
     atom  192 type  1   force =     0.00000000    0.00000000    0.00000000
     atom  193 type  1   force =     0.00000000    0.00000000    0.00000000
     atom  194 type  1   force =     0.00000000    0.00000000    0.00000000
     atom  195 type  1   force =     0.00000000    0.00000000    0.00000000
     atom  196 type  1   force =     0.00000000    0.00000000    0.00000000
     atom  197 type  1   force =     0.00000000    0.00000000    0.00000000
     atom  198 type  1   force =     0.00000000    0.00000000    0.00000000
     atom  199 type  1   force =     0.00000000    0.00000000    0.00000000
     atom  200 type  1   force =     0.00000000    0.00000000    0.00000000
     atom  201 type  1   force =     0.00000000    0.00000000    0.00000000
     atom  202 type  1   force =     0.00000000    0.00000000    0.00000000
     atom  203 type  1   force =     0.00000000    0.00000000    0.00000000
     atom  204 type  1   force =     0.00000000    0.00000000    0.00000000
     atom  205 type  1   force =     0.00000000    0.00000000    0.00000000
     atom  206 type  1   force =     0.00000000    0.00000000    0.00000000
     atom  207 type  1   force =     0.00000000    0.00000000    0.00000000
     atom  208 type  1   force =     0.00000000    0.00000000    0.00000000
     atom  209 type  1   force =     0.00000000    0.00000000    0.00000000
     atom  210 type  1   force =     0.00000000    0.00000000    0.00000000
     atom  211 type  1   force =     0.00000000    0.00000000    0.00000000
     atom  212 type  1   force =     0.00000000    0.00000000    0.00000000
     atom  213 type  1   force =     0.00000000    0.00000000    0.00000000
     atom  214 type  1   force =     0.00000000    0.00000000    0.00000000
     atom  215 type  2   force =     0.00000000    0.00000000    0.00000000
     The SCF correction term to forces
     atom    1 type  1   force =     0.00000354   -0.00001314    0.00000070
     atom    2 type  1   force =     0.00001499   -0.00000415    0.00000177
     atom    3 type  1   force =     0.00000360    0.00002084   -0.00001746
     atom    4 type  1   force =     0.00000013   -0.00000899   -0.00000961
     atom    5 type  1   force =    -0.00000052   -0.00000364   -0.00000028
     atom    6 type  1   force =    -0.00000709   -0.00001585   -0.00000952
     atom    7 type  1   force =     0.00001440    0.00002001   -0.00000898
     atom    8 type  1   force =     0.00001825   -0.00001323    0.00000613
     atom    9 type  1   force =     0.00001071    0.00001630   -0.00001936
     atom   10 type  1   force =     0.00001104    0.00000906   -0.00001138
     atom   11 type  1   force =     0.00000935    0.00000369    0.00001306
     atom   12 type  1   force =     0.00000817    0.00001591   -0.00000065
     atom   13 type  1   force =    -0.00000885   -0.00000364   -0.00000952
     atom   14 type  1   force =    -0.00000891    0.00000415    0.00000364
     atom   15 type  1   force =     0.00001057   -0.00001250    0.00000911
     atom   16 type  1   force =    -0.00000135    0.00000991   -0.00000937
     atom   17 type  1   force =    -0.00000888   -0.00001701    0.00000106
     atom   18 type  1   force =    -0.00000428   -0.00001902    0.00000322
     atom   19 type  1   force =    -0.00001211   -0.00000332    0.00001072
     atom   20 type  1   force =    -0.00000029    0.00000524    0.00000864
     atom   21 type  1   force =    -0.00001904   -0.00000089    0.00001172
     atom   22 type  1   force =    -0.00001006    0.00000429   -0.00000003
     atom   23 type  1   force =     0.00000751   -0.00000252   -0.00000743
     atom   24 type  1   force =     0.00000292   -0.00000717    0.00000257
     atom   25 type  1   force =    -0.00001268    0.00000166    0.00001955
     atom   26 type  1   force =    -0.00000043   -0.00000805    0.00000130
     atom   27 type  1   force =    -0.00001160    0.00001152    0.00000791
     atom   28 type  1   force =    -0.00000162   -0.00001892   -0.00000737
     atom   29 type  1   force =    -0.00000256    0.00000155    0.00000699
     atom   30 type  1   force =    -0.00000087   -0.00000025   -0.00001149
     atom   31 type  1   force =     0.00000002    0.00000816   -0.00000929
     atom   32 type  1   force =    -0.00001351   -0.00000995    0.00000710
     atom   33 type  1   force =    -0.00000848   -0.00002141    0.00001035
     atom   34 type  1   force =     0.00001633    0.00001715   -0.00001427
     atom   35 type  1   force =     0.00001752   -0.00000588    0.00001472
     atom   36 type  1   force =     0.00001118    0.00002633   -0.00000927
     atom   37 type  1   force =    -0.00000732    0.00000001   -0.00000754
     atom   38 type  1   force =     0.00000467    0.00000856    0.00000568
     atom   39 type  1   force =     0.00000498   -0.00000273    0.00000628
     atom   40 type  1   force =    -0.00001379    0.00000400    0.00000030
     atom   41 type  1   force =    -0.00000468   -0.00000894   -0.00000779
     atom   42 type  1   force =     0.00000356   -0.00001740    0.00000538
     atom   43 type  1   force =    -0.00000801    0.00000908    0.00001102
     atom   44 type  1   force =     0.00000061   -0.00000014    0.00000769
     atom   45 type  1   force =    -0.00001296    0.00000775    0.00001829
     atom   46 type  1   force =    -0.00000761   -0.00001382   -0.00000202
     atom   47 type  1   force =     0.00000304   -0.00000488   -0.00000729
     atom   48 type  1   force =    -0.00001498   -0.00001445   -0.00000536
     atom   49 type  1   force =     0.00000607    0.00001651    0.00000128
     atom   50 type  1   force =     0.00001164   -0.00000821   -0.00000076
     atom   51 type  1   force =     0.00000466    0.00000610   -0.00000824
     atom   52 type  1   force =    -0.00000136   -0.00000478    0.00001257
     atom   53 type  1   force =     0.00001357   -0.00000052    0.00000912
     atom   54 type  1   force =     0.00000004    0.00002423   -0.00001171
     atom   55 type  1   force =     0.00001472   -0.00001481    0.00000842
     atom   56 type  1   force =     0.00000745    0.00001672   -0.00000050
     atom   57 type  1   force =     0.00001030    0.00001857   -0.00001873
     atom   58 type  1   force =    -0.00000596   -0.00000332    0.00000290
     atom   59 type  1   force =    -0.00001386   -0.00000212    0.00001203
     atom   60 type  1   force =    -0.00000906   -0.00001411   -0.00001058
     atom   61 type  1   force =     0.00001791   -0.00000252    0.00000363
     atom   62 type  1   force =    -0.00001041   -0.00001689    0.00000393
     atom   63 type  1   force =     0.00000149    0.00002047   -0.00001950
     atom   64 type  1   force =     0.00000549    0.00000287    0.00000770
     atom   65 type  1   force =    -0.00000084    0.00000824    0.00001414
     atom   66 type  1   force =    -0.00001288    0.00000791    0.00000428
     atom   67 type  1   force =    -0.00000775    0.00000443   -0.00000668
     atom   68 type  1   force =     0.00001051   -0.00000472    0.00000198
     atom   69 type  1   force =    -0.00000163   -0.00000205   -0.00000143
     atom   70 type  1   force =    -0.00000600   -0.00000600    0.00000171
     atom   71 type  1   force =    -0.00000618   -0.00001788    0.00000189
     atom   72 type  1   force =    -0.00002009    0.00000529    0.00000980
     atom   73 type  1   force =     0.00000660   -0.00001147    0.00000917
     atom   74 type  1   force =    -0.00000258    0.00001387   -0.00000939
     atom   75 type  1   force =    -0.00001311   -0.00000625    0.00000208
     atom   76 type  1   force =     0.00000837   -0.00000400   -0.00000091
     atom   77 type  1   force =     0.00000140   -0.00000960   -0.00000855
     atom   78 type  1   force =    -0.00001047   -0.00000445   -0.00000877
     atom   79 type  1   force =     0.00001189   -0.00000995    0.00001752
     atom   80 type  1   force =     0.00000742    0.00000602   -0.00000912
     atom   81 type  1   force =     0.00000309    0.00002561   -0.00000733
     atom   82 type  1   force =     0.00000643   -0.00001883   -0.00000019
     atom   83 type  1   force =    -0.00000480    0.00000326   -0.00001277
     atom   84 type  1   force =    -0.00001069   -0.00001877   -0.00001124
     atom   85 type  1   force =     0.00001506    0.00000300    0.00000350
     atom   86 type  1   force =    -0.00000073   -0.00001168   -0.00000260
     atom   87 type  1   force =     0.00000276    0.00001276   -0.00001663
     atom   88 type  1   force =     0.00001999   -0.00001476    0.00001447
     atom   89 type  1   force =     0.00001488    0.00001771   -0.00000962
     atom   90 type  1   force =     0.00001079    0.00002974   -0.00002030
     atom   91 type  1   force =    -0.00000069   -0.00000319    0.00000250
     atom   92 type  1   force =     0.00000600    0.00001040    0.00000761
     atom   93 type  1   force =     0.00000381    0.00000026   -0.00001538
     atom   94 type  1   force =    -0.00000899    0.00000009   -0.00000499
     atom   95 type  1   force =    -0.00000808   -0.00000788   -0.00000346
     atom   96 type  1   force =     0.00001521    0.00000254    0.00000189
     atom   97 type  1   force =     0.00000180    0.00000067    0.00001196
     atom   98 type  1   force =     0.00000211    0.00002299   -0.00000866
     atom   99 type  1   force =    -0.00000172   -0.00000403    0.00000191
     atom  100 type  1   force =    -0.00000100   -0.00000436    0.00000297
     atom  101 type  1   force =    -0.00001931   -0.00000796    0.00000147
     atom  102 type  1   force =    -0.00000169   -0.00000363    0.00000430
     atom  103 type  1   force =     0.00000625   -0.00000624   -0.00000543
     atom  104 type  1   force =    -0.00000704    0.00001384    0.00000538
     atom  105 type  1   force =    -0.00000007   -0.00000388    0.00002087
     atom  106 type  1   force =    -0.00000775    0.00001216    0.00000418
     atom  107 type  1   force =    -0.00002155    0.00000423    0.00001872
     atom  108 type  1   force =     0.00000578   -0.00002183    0.00000169
     atom  109 type  1   force =     0.00000129    0.00000674   -0.00000134
     atom  110 type  1   force =     0.00000031    0.00000514   -0.00001927
     atom  111 type  1   force =     0.00000276    0.00000180   -0.00000083
     atom  112 type  1   force =    -0.00001200   -0.00000529    0.00000697
     atom  113 type  1   force =    -0.00000701   -0.00001287   -0.00000544
     atom  114 type  1   force =     0.00002198    0.00000582   -0.00000112
     atom  115 type  1   force =     0.00001152   -0.00000694    0.00000575
     atom  116 type  1   force =     0.00001079    0.00002926   -0.00002157
     atom  117 type  1   force =     0.00000369    0.00000410   -0.00000419
     atom  118 type  1   force =     0.00000481    0.00000851    0.00000992
     atom  119 type  1   force =     0.00000421    0.00000504   -0.00000250
     atom  120 type  1   force =    -0.00000902    0.00000194   -0.00000593
     atom  121 type  1   force =     0.00000578   -0.00001270    0.00000373
     atom  122 type  1   force =     0.00000147    0.00000301   -0.00000093
     atom  123 type  1   force =    -0.00000482   -0.00001128    0.00000276
     atom  124 type  1   force =    -0.00001119    0.00000376    0.00000749
     atom  125 type  1   force =    -0.00000497   -0.00001152    0.00000677
     atom  126 type  1   force =    -0.00000003    0.00000525   -0.00000327
     atom  127 type  1   force =    -0.00002022   -0.00001126    0.00000438
     atom  128 type  1   force =     0.00000176    0.00000645    0.00000058
     atom  129 type  1   force =     0.00000703   -0.00000597   -0.00000617
     atom  130 type  1   force =    -0.00000072    0.00000329   -0.00000048
     atom  131 type  1   force =    -0.00000188   -0.00000771    0.00002208
     atom  132 type  1   force =     0.00000182    0.00000274   -0.00000058
     atom  133 type  1   force =    -0.00000965    0.00002036    0.00000273
     atom  134 type  1   force =    -0.00000781   -0.00001064   -0.00000146
     atom  135 type  1   force =    -0.00000748    0.00000938    0.00000314
     atom  136 type  1   force =     0.00000100   -0.00000946   -0.00000756
     atom  137 type  1   force =     0.00000153    0.00000622   -0.00000697
     atom  138 type  1   force =    -0.00001899   -0.00001870    0.00000155
     atom  139 type  1   force =    -0.00000529   -0.00001511    0.00000130
     atom  140 type  1   force =     0.00002065    0.00000393   -0.00000398
     atom  141 type  1   force =     0.00000872    0.00000409    0.00001240
     atom  142 type  1   force =     0.00001122    0.00002893   -0.00001075
     atom  143 type  1   force =    -0.00000753    0.00000048   -0.00000313
     atom  144 type  1   force =     0.00000345   -0.00000377    0.00000227
     atom  145 type  1   force =    -0.00000327   -0.00000679    0.00000378
     atom  146 type  1   force =    -0.00001259   -0.00000379    0.00000863
     atom  147 type  1   force =    -0.00000377   -0.00000637   -0.00000637
     atom  148 type  1   force =    -0.00001196    0.00000410    0.00001033
     atom  149 type  1   force =    -0.00000393    0.00000149    0.00001513
     atom  150 type  1   force =    -0.00000348    0.00001136    0.00001077
     atom  151 type  1   force =    -0.00002077    0.00000377    0.00001736
     atom  152 type  1   force =     0.00000254   -0.00001382   -0.00000390
     atom  153 type  1   force =     0.00000022   -0.00000363   -0.00001292
     atom  154 type  1   force =    -0.00001347   -0.00001799   -0.00000953
     atom  155 type  1   force =     0.00001817    0.00000913    0.00000562
     atom  156 type  1   force =     0.00001026   -0.00000894   -0.00000236
     atom  157 type  1   force =     0.00000876    0.00001981   -0.00001859
     atom  158 type  1   force =     0.00000691   -0.00001508    0.00001177
     atom  159 type  1   force =     0.00001372    0.00001022   -0.00000396
     atom  160 type  1   force =     0.00000280    0.00002067   -0.00001354
     atom  161 type  1   force =     0.00000474   -0.00000567    0.00001257
     atom  162 type  1   force =     0.00000711    0.00001489   -0.00000079
     atom  163 type  1   force =     0.00000621    0.00000135   -0.00001942
     atom  164 type  1   force =    -0.00000704    0.00000355    0.00000302
     atom  165 type  1   force =    -0.00000411   -0.00001385    0.00001626
     atom  166 type  1   force =    -0.00000818   -0.00000525   -0.00000811
     atom  167 type  1   force =     0.00001363   -0.00000782    0.00000765
     atom  168 type  1   force =    -0.00000342   -0.00000939    0.00000465
     atom  169 type  1   force =     0.00000394    0.00002446   -0.00001822
     atom  170 type  1   force =     0.00000177    0.00000259    0.00000656
     atom  171 type  1   force =    -0.00000456   -0.00000284    0.00001368
     atom  172 type  1   force =    -0.00001548   -0.00000137    0.00000233
     atom  173 type  1   force =    -0.00000290   -0.00000505   -0.00000191
     atom  174 type  1   force =     0.00000857   -0.00000396    0.00000215
     atom  175 type  1   force =    -0.00001092    0.00000966    0.00000135
     atom  176 type  1   force =    -0.00000271   -0.00000648    0.00000930
     atom  177 type  1   force =    -0.00001296    0.00000381    0.00001141
     atom  178 type  1   force =    -0.00001962    0.00000415    0.00001893
     atom  179 type  1   force =     0.00000916   -0.00001199    0.00000075
     atom  180 type  1   force =    -0.00000671    0.00000611   -0.00001757
     atom  181 type  1   force =    -0.00000893   -0.00001695   -0.00000171
     atom  182 type  1   force =     0.00001426   -0.00000231   -0.00000016
     atom  183 type  1   force =    -0.00000022   -0.00001004   -0.00000720
     atom  184 type  1   force =     0.00000042    0.00000711   -0.00001159
     atom  185 type  1   force =     0.00001890   -0.00001339    0.00001554
     atom  186 type  1   force =     0.00001287    0.00002077   -0.00001794
     atom  187 type  1   force =     0.00000727    0.00002038   -0.00000965
     atom  188 type  1   force =    -0.00000199   -0.00000746    0.00000398
     atom  189 type  1   force =    -0.00000887   -0.00000561   -0.00000569
     atom  190 type  1   force =    -0.00000705   -0.00001996   -0.00001078
     atom  191 type  1   force =     0.00001228   -0.00000794    0.00000750
     atom  192 type  1   force =    -0.00000742   -0.00001440    0.00000248
     atom  193 type  1   force =     0.00000437    0.00002147   -0.00001909
     atom  194 type  1   force =     0.00001948   -0.00001432    0.00001300
     atom  195 type  1   force =     0.00001286    0.00002841   -0.00001079
     atom  196 type  1   force =     0.00001087    0.00001739   -0.00001507
     atom  197 type  1   force =    -0.00000397   -0.00000010    0.00000251
     atom  198 type  1   force =     0.00001356   -0.00000037    0.00000126
     atom  199 type  1   force =    -0.00000433   -0.00000077   -0.00001394
     atom  200 type  1   force =    -0.00000338   -0.00000692   -0.00000749
     atom  201 type  1   force =     0.00000011   -0.00002672   -0.00000005
     atom  202 type  1   force =    -0.00001300    0.00000255   -0.00000140
     atom  203 type  1   force =     0.00001262    0.00000430    0.00000918
     atom  204 type  1   force =     0.00000010    0.00000810    0.00001369
     atom  205 type  1   force =    -0.00000177    0.00001741   -0.00000266
     atom  206 type  1   force =     0.00000419   -0.00000458   -0.00000347
     atom  207 type  1   force =    -0.00000288   -0.00001406   -0.00000105
     atom  208 type  1   force =    -0.00001428   -0.00000647   -0.00000265
     atom  209 type  1   force =     0.00000623   -0.00001240    0.00000708
     atom  210 type  1   force =     0.00000400    0.00000581   -0.00000618
     atom  211 type  1   force =    -0.00000524    0.00002032    0.00000775
     atom  212 type  1   force =     0.00000546   -0.00000306    0.00001410
     atom  213 type  1   force =    -0.00001097    0.00001759   -0.00000029
     atom  214 type  1   force =    -0.00001456   -0.00000512    0.00001364
     atom  215 type  2   force =    -0.00000115   -0.00000255   -0.00000607

     Total force =     0.003437     Total SCF correction =     0.000262


     Computing stress (Cartesian axis) and pressure

          total   stress  (Ry/bohr**3)                   (kbar)     P=       25.35
   0.00014969   0.00002394  -0.00001502           22.02        3.52       -2.21
   0.00002394   0.00020238  -0.00003896            3.52       29.77       -5.73
  -0.00001502  -0.00003896   0.00016495           -2.21       -5.73       24.26

     kinetic stress (kbar)  18943.77      9.58     -6.04
                                9.58  18964.95    -15.62
                               -6.04    -15.62  18949.88

     local   stress (kbar)  -3539.50     10.73     -6.89
                               10.73  -3515.34    -17.63
                               -6.89    -17.63  -3532.62

     nonloc. stress (kbar)   4202.59     -0.17      0.11
                               -0.17   4202.19      0.28
                                0.11      0.28   4202.48

     hartree stress (kbar)   1294.10     -7.55      4.76
                               -7.55   1277.38     12.31
                                4.76     12.31   1289.28

     exc-cor stress (kbar)   -458.21      0.09     -0.05
                                0.09   -458.02     -0.14
                               -0.05     -0.14   -458.16

     corecor stress (kbar)  -4254.93     -0.26      0.16
                               -0.26  -4255.51      0.42
                                0.16      0.42  -4255.09

     ewald   stress (kbar) -16165.79     -8.89      5.74
                               -8.89 -16185.88     14.64
                                5.74     14.64 -16171.50

     hubbard stress (kbar)      0.00      0.00      0.00
                                0.00      0.00      0.00
                                0.00      0.00      0.00

     DFT-D   stress (kbar)      0.00      0.00      0.00
                                0.00      0.00      0.00
                                0.00      0.00      0.00

     XDM     stress (kbar)      0.00      0.00      0.00
                                0.00      0.00      0.00
                                0.00      0.00      0.00

     dft-nl  stress (kbar)      0.00      0.00      0.00
                                0.00      0.00      0.00
                                0.00      0.00      0.00

     TS-vdW  stress (kbar)      0.00      0.00      0.00
                                0.00      0.00      0.00
                                0.00      0.00      0.00

     MDB     stress (kbar)      0.00      0.00      0.00
                                0.00      0.00      0.00
                                0.00      0.00      0.00

     3D-RISM stress (kbar)      0.00      0.00      0.00
                                0.00      0.00      0.00
                                0.00      0.00      0.00


     Writing all to output data dir ../tmp/diamond_pd.save/ :
     XML data file, charge density, pseudopotentials, collected wavefunctions
 
     init_run     :      5.00s CPU      5.33s WALL (       1 calls)
     electrons    :    293.22s CPU    298.22s WALL (       1 calls)
     forces       :      3.00s CPU      3.08s WALL (       1 calls)
     stress       :      9.96s CPU     10.06s WALL (       1 calls)

     Called by init_run:
     wfcinit      :      4.00s CPU      4.14s WALL (       1 calls)
     wfcinit:wfcr :      3.83s CPU      3.94s WALL (       2 calls)
     potinit      :      0.67s CPU      0.81s WALL (       1 calls)
     hinit0       :      0.14s CPU      0.15s WALL (       1 calls)

     Called by electrons:
     c_bands      :    261.01s CPU    265.46s WALL (      15 calls)
     sum_band     :     18.71s CPU     18.97s WALL (      15 calls)
     v_of_rho     :      0.91s CPU      0.92s WALL (      16 calls)
     v_h          :      0.20s CPU      0.20s WALL (      16 calls)
     v_xc         :      0.80s CPU      0.81s WALL (      18 calls)
     newd         :      1.13s CPU      1.16s WALL (      16 calls)
     PAW_pot      :      9.72s CPU      9.91s WALL (      16 calls)
     mix_rho      :      2.04s CPU      2.05s WALL (      15 calls)

     Called by c_bands:
     init_us_2    :      2.37s CPU      2.42s WALL (      66 calls)
     cegterg      :    257.71s CPU    262.09s WALL (      30 calls)

     Called by sum_band:
     sum_band:wei :      0.00s CPU      0.00s WALL (      15 calls)
     sum_band:loo :     17.49s CPU     17.73s WALL (      15 calls)
     sum_band:buf :      0.37s CPU      0.37s WALL (      30 calls)
     sum_band:ini :      1.08s CPU      1.09s WALL (      30 calls)
     sum_band:cal :      8.65s CPU      8.73s WALL (      30 calls)
     sum_band:bec :      0.51s CPU      0.51s WALL (      30 calls)
     addusdens    :      0.94s CPU      0.95s WALL (      15 calls)
                                        0.00s GPU  (      15 calls)
     addusd:skk   :      0.27s CPU      0.28s WALL (      30 calls)
                                        0.00s GPU  (      30 calls)

     Called by *egterg:
     cdiaghg      :     58.37s CPU     59.41s WALL (     185 calls)
     cegterg:over :     26.02s CPU     26.29s WALL (     155 calls)
     cegterg:upda :     18.36s CPU     18.56s WALL (     155 calls)
     cegterg:last :     45.44s CPU     45.85s WALL (      70 calls)
     cdiaghg:chol :      4.27s CPU      4.30s WALL (     185 calls)
     cdiaghg:inve :      2.00s CPU      2.02s WALL (     185 calls)
     cdiaghg:para :     15.14s CPU     15.31s WALL (     370 calls)
     h_psi        :     79.66s CPU     81.44s WALL (     187 calls)
     s_psi        :     24.20s CPU     24.41s WALL (     187 calls)
     g_psi        :      0.39s CPU      0.40s WALL (     155 calls)

     Called by h_psi:
     h_psi:calbec :     22.83s CPU     23.04s WALL (     187 calls)
     vloc_psi     :     31.74s CPU     32.39s WALL (     187 calls)
     add_vuspsi   :     24.32s CPU     24.90s WALL (     187 calls)

     General routines
     calbec       :     41.61s CPU     41.99s WALL (     251 calls)
     fft          :      0.21s CPU      0.22s WALL (     378 calls)
     ffts         :      0.02s CPU      0.02s WALL (      30 calls)
     fftw         :     33.52s CPU     34.21s WALL (  157942 calls)
 
     Parallel routines

     PAW routines
     PAW_pot      :      9.72s CPU      9.91s WALL (      16 calls)
 
     PWSCF        :   5m26.63s CPU   5m43.56s WALL

 
   This run was terminated on:  21:53:55  31Jul2026            

=------------------------------------------------------------------------------=
   JOB DONE.
=------------------------------------------------------------------------------=
