
     Program PWSCF v.7.4.1 starts on  8Aug2026 at  7:15:56 

     This program is part of the open-source Quantum ESPRESSO suite
     for quantum simulation of materials; please cite
         "P. Giannozzi et al., J. Phys.:Condens. Matter 21 395502 (2009);
         "P. Giannozzi et al., J. Phys.:Condens. Matter 29 465901 (2017);
         "P. Giannozzi et al., J. Chem. Phys. 152 154105 (2020);
          URL http://www.quantum-espresso.org", 
     in publications or presentations arising from this work. More details at
     http://www.quantum-espresso.org/quote

     Parallel version (MPI), running on    24 processors

     MPI processes distributed on     1 nodes
     98405 MiB available memory on the printing compute node when the environment starts
 
     Reading input from diamond_pd_nscf.in

     Current dimensions of program PWSCF are:
     Max number of different atomic species (ntypx) = 10
     Max number of k-points (npk) =  40000
     Max angular momentum in pseudopotentials (lmaxx) =  4
     file C.pbe-n-kjpaw_psl.1.0.0.UPF: wavefunction(s)  2S 2P renormalized
     file N.pbe-n-kjpaw_psl.1.0.0.UPF: wavefunction(s)  2S renormalized

     Atomic positions and unit cell read from directory:
     ../tmp/diamond_pd.save/
 
 
     R & G space division:  proc/nbgrp/npool/nimage =      24
     Subspace diagonalization in iterative solution of the eigenvalue problem:
     one sub-group per band group will be used
     scalapack distributed-memory algorithm (size of sub-group:  4*  4 procs)

 
     Parallelization info
     --------------------
     sticks:   dense  smooth     PW     G-vecs:    dense   smooth      PW
     Min         244     244     61                14112    14112    1765
     Max         245     245     62                14117    14117    1768
     Sum        5877    5877   1473               338755   338755   42379
 
     Using Slab Decomposition
 


     bravais-lattice index     =            0
     lattice parameter (alat)  =      20.2515  a.u.
     unit-cell volume          =    8305.5769 (a.u.)^3
     number of atoms/cell      =          215
     number of atomic types    =            2
     number of electrons       =       863.00 (up: 432.00, down: 431.00)
     number of Kohn-Sham states=          863
     kinetic-energy cutoff     =      45.0000  Ry
     charge density cutoff     =     180.0000  Ry
     Exchange-correlation= SLA  PW   PBX  PBC
                           (   1   4   3   4   0   0   0)

     celldm(1)=  20.251472  celldm(2)=   0.000000  celldm(3)=   0.000000
     celldm(4)=   0.000000  celldm(5)=   0.000000  celldm(6)=   0.000000

     crystal axes: (cart. coord. in units of alat)
               a(1) = (  -0.707107   0.000000   0.707107 )  
               a(2) = (   0.408248   0.816497   0.408248 )  
               a(3) = (  -0.577350   0.577350  -0.577350 )  

     reciprocal axes: (cart. coord. in units 2 pi/alat)
               b(1) = ( -0.707107  0.000000  0.707107 )  
               b(2) = (  0.408248  0.816497  0.408248 )  
               b(3) = ( -0.577350  0.577350 -0.577350 )  


     PseudoPot. # 1 for C  read from file:
     ../../../pseudos/C.pbe-n-kjpaw_psl.1.0.0.UPF
     MD5 check sum: 5f16ad9a65e90284d1d834d4ab3b0f7d
     Pseudo is Projector augmented-wave + core cor, Zval =  4.0
     Generated using &quot;atomic&quot; code by A. Dal Corso  v.6.3
     Shape of augmentation charge: PSQ
     Using radial grid of 1073 points,  4 beta functions with: 
                l(1) =   0
                l(2) =   0
                l(3) =   1
                l(4) =   1
     Q(r) pseudized with 0 coefficients 


     PseudoPot. # 2 for N  read from file:
     ../../../pseudos/N.pbe-n-kjpaw_psl.1.0.0.UPF
     MD5 check sum: a6186d50559fdcbe4b2d0187dd61a119
     Pseudo is Projector augmented-wave + core cor, Zval =  5.0
     Generated using &quot;atomic&quot; code by A. Dal Corso  v.6.3
     Shape of augmentation charge: PSQ
     Using radial grid of 1085 points,  4 beta functions with: 
                l(1) =   0
                l(2) =   0
                l(3) =   1
                l(4) =   1
     Q(r) pseudized with 0 coefficients 


     atomic species   valence    mass     pseudopotential
     C                 4.00    12.01070     C ( 1.00)
     N                 5.00    14.00670     N ( 1.00)

     Starting magnetic structure 
     atomic species   magnetization
     C               0.000
     N               0.000

     No symmetry found


                                    s                        frac. trans.

      isym =  1     identity                                     

 cryst.   s( 1) = (     1          0          0      )
                  (     0          1          0      )
                  (     0          0          1      )

 cart.    s( 1) = (  1.0000000  0.0000000 -0.0000000 )
                  (  0.0000000  1.0000000  0.0000000 )
                  ( -0.0000000  0.0000000  1.0000000 )


   Cartesian axes

     site n.     atom                  positions (alat units)
         1        C      tau(   1) = (  -0.0001151   0.0001138   0.0000875  )
         2        C      tau(   2) = (  -0.1925550   0.1927793  -0.1921970  )
         3        C      tau(   3) = (  -0.3849808   0.3849422  -0.3848677  )
         4        C      tau(   4) = (   0.1357563   0.2724410   0.1361143  )
         5        C      tau(   5) = (  -0.0570434   0.4655886  -0.0559274  )
         6        C      tau(   6) = (  -0.2488377   0.6572212  -0.2488784  )
         7        C      tau(   7) = (   0.2721217   0.5443820   0.2722349  )
         8        C      tau(   8) = (   0.0797375   0.7369469   0.0796968  )
         9        C      tau(   9) = (  -0.1130613   0.9286843  -0.1122753  )
        10        C      tau(  10) = (  -0.2357545   0.0002439   0.2356954  )
        11        C      tau(  11) = (  -0.4283099   0.1925672   0.0431694  )
        12        C      tau(  12) = (  -0.6205103   0.3849644  -0.1490220  )
        13        C      tau(  13) = (  -0.0995712   0.2723326   0.3719081  )
        14        C      tau(  14) = (  -0.2949230   0.4654108   0.1819954  )
        15        C      tau(  15) = (  -0.4816682   0.6577694  -0.0130543  )
        16        C      tau(  16) = (   0.0362799   0.5443284   0.5077682  )
        17        C      tau(  17) = (  -0.1561302   0.7367581   0.3124837  )
        18        C      tau(  18) = (  -0.3494697   0.9281632   0.1242595  )
        19        C      tau(  19) = (  -0.4714054   0.0000155   0.4714016  )
        20        C      tau(  20) = (  -0.6639980   0.1923451   0.2788629  )
        21        C      tau(  21) = (  -0.8561912   0.3851207   0.0865497  )
        22        C      tau(  22) = (  -0.3352122   0.2721219   0.6076487  )
        23        C      tau(  23) = (  -0.5282150   0.4642055   0.4155799  )
        24        C      tau(  24) = (  -0.7187365   0.6569546   0.2225784  )
        25        C      tau(  25) = (  -0.1993318   0.5445015   0.7434092  )
        26        C      tau(  26) = (  -0.3916120   0.7363284   0.5497029  )
        27        C      tau(  27) = (  -0.5842074   0.9294027   0.3586965  )
        28        C      tau(  28) = (  -0.0499457   0.1363700   0.1858909  )
        29        C      tau(  29) = (  -0.2428108   0.3297944  -0.0056309  )
        30        C      tau(  30) = (  -0.4347612   0.5211047  -0.1990492  )
        31        C      tau(  31) = (   0.0860330   0.4084005   0.3220867  )
        32        C      tau(  32) = (  -0.1073301   0.6034308   0.1303573  )
        33        C      tau(  33) = (  -0.2994374   0.7914676  -0.0624685  )
        34        C      tau(  34) = (   0.2223122   0.6804633   0.4581259  )
        35        C      tau(  35) = (   0.0299208   0.8730485   0.2656149  )
        36        C      tau(  36) = (  -0.1628610   1.0647402   0.0735804  )
        37        C      tau(  37) = (  -0.2854085   0.1360543   0.4217774  )
        38        C      tau(  38) = (  -0.4783238   0.3278987   0.2293832  )
        39        C      tau(  39) = (  -0.6691292   0.5214214   0.0374364  )
        40        C      tau(  40) = (  -0.1493424   0.4083105   0.5576576  )
        41        C      tau(  41) = (  -0.3434336   0.5979472   0.3630396  )
        42        C      tau(  42) = (  -0.5315759   0.7941265   0.1732136  )
        43        C      tau(  43) = (  -0.0136052   0.6805032   0.6935386  )
        44        C      tau(  44) = (  -0.2060670   0.8727285   0.5002360  )
        45        C      tau(  45) = (  -0.3982861   1.0655220   0.3088716  )
        46        C      tau(  46) = (  -0.5212512   0.1361971   0.6574286  )
        47        C      tau(  47) = (  -0.7138898   0.3286532   0.4650623  )
        48        C      tau(  48) = (  -0.9059806   0.5211493   0.2723675  )
        49        C      tau(  49) = (  -0.3851598   0.4084300   0.7932867  )
        50        C      tau(  50) = (  -0.5777629   0.6008818   0.6009361  )
        51        C      tau(  51) = (  -0.7699115   0.7931387   0.4085542  )
        52        C      tau(  52) = (  -0.2491354   0.6804503   0.9294448  )
        53        C      tau(  53) = (  -0.4414683   0.8728235   0.7367606  )
        54        C      tau(  54) = (  -0.6340399   1.0653845   0.5446343  )
        55        C      tau(  55) = (  -0.2141462   0.0965282   0.0216904  )
        56        C      tau(  56) = (  -0.4066773   0.2888489  -0.1706236  )
        57        C      tau(  57) = (  -0.5990552   0.4811661  -0.3632415  )
        58        C      tau(  58) = (  -0.0792067   0.3694914   0.1579733  )
        59        C      tau(  59) = (  -0.2719289   0.5634925  -0.0342414  )
        60        C      tau(  60) = (  -0.4629434   0.7534596  -0.2272493  )
        61        C      tau(  61) = (   0.0580995   0.6406928   0.2938115  )
        62        C      tau(  62) = (  -0.1344311   0.8315049   0.1025378  )
        63        C      tau(  63) = (  -0.3270951   1.0248903  -0.0906537  )
        64        C      tau(  64) = (  -0.4499461   0.0961308   0.2572397  )
        65        C      tau(  65) = (  -0.6422213   0.2887180   0.0647786  )
        66        C      tau(  66) = (  -0.8344917   0.4813227  -0.1273479  )
        67        C      tau(  67) = (  -0.3137883   0.3678217   0.3939188  )
        68        C      tau(  68) = (  -0.5034164   0.5591288   0.2030568  )
        69        C      tau(  69) = (  -0.6975281   0.7534800   0.0087748  )
        70        C      tau(  70) = (  -0.1784001   0.6404922   0.5281655  )
        71        C      tau(  71) = (  -0.3706386   0.8331765   0.3341510  )
        72        C      tau(  72) = (  -0.5625744   1.0256590   0.1445833  )
        73        C      tau(  73) = (  -0.6856365   0.0963106   0.4930433  )
        74        C      tau(  74) = (  -0.8778840   0.2888751   0.3005625  )
        75        C      tau(  75) = (  -1.0703747   0.4811842   0.1082055  )
        76        C      tau(  76) = (  -0.5496420   0.3685064   0.6293101  )
        77        C      tau(  77) = (  -0.7419027   0.5610548   0.4367963  )
        78        C      tau(  78) = (  -0.9340430   0.7533048   0.2441858  )
        79        C      tau(  79) = (  -0.4133220   0.6406883   0.7650260  )
        80        C      tau(  80) = (  -0.6058320   0.8329511   0.5726337  )
        81        C      tau(  81) = (  -0.7983044   1.0255272   0.3803698  )
        82        C      tau(  82) = (  -0.0285271   0.2327737  -0.0279532  )
        83        C      tau(  83) = (  -0.2207029   0.4247002  -0.2212274  )
        84        C      tau(  84) = (  -0.4131124   0.6173475  -0.4129796  )
        85        C      tau(  85) = (   0.1084874   0.5045752   0.1079629  )
        86        C      tau(  86) = (  -0.0851253   0.6971577  -0.0840336  )
        87        C      tau(  87) = (  -0.2770743   0.8896305  -0.2778641  )
        88        C      tau(  88) = (   0.2438469   0.7767526   0.2439797  )
        89        C      tau(  89) = (   0.0523074   0.9695519   0.0515176  )
        90        C      tau(  90) = (  -0.1410793   1.1613605  -0.1407140  )
        91        C      tau(  91) = (  -0.2640411   0.2318276   0.2077903  )
        92        C      tau(  92) = (  -0.4561510   0.4253195   0.0153937  )
        93        C      tau(  93) = (  -0.6490506   0.6172380  -0.1779552  )
        94        C      tau(  94) = (  -0.1282462   0.5048826   0.3432986  )
        95        C      tau(  95) = (  -0.5122378   0.8891405  -0.0408869  )
        96        C      tau(  96) = (   0.0088222   0.7768647   0.4799175  )
        97        C      tau(  97) = (  -0.1845024   0.9686624   0.2868485  )
        98        C      tau(  98) = (  -0.3769511   1.1624979   0.0948818  )
        99        C      tau(  99) = (  -0.4997172   0.2322133   0.4433728  )
       100        C      tau( 100) = (  -0.6924142   0.4243785   0.2510644  )
       101        C      tau( 101) = (  -0.8840485   0.6173215   0.0584720  )
       102        C      tau( 102) = (  -0.3637120   0.5041351   0.5797666  )
       103        C      tau( 103) = (  -0.5555788   0.6969647   0.3864668  )
       104        C      tau( 104) = (  -0.7488669   0.8899471   0.1945733  )
       105        C      tau( 105) = (  -0.2275839   0.7766065   0.7149367  )
       106        C      tau( 106) = (  -0.4201861   0.9696985   0.5232541  )
       107        C      tau( 107) = (  -0.6123188   1.1615897   0.3304699  )
       108        C      tau( 108) = (  -0.0731869   0.1164668   0.0449273  )
       109        C      tau( 109) = (  -0.2657249   0.3091690  -0.1473086  )
       110        C      tau( 110) = (  -0.4579962   0.5010957  -0.3400126  )
       111        C      tau( 111) = (   0.0626258   0.3888403   0.1810422  )
       112        C      tau( 112) = (  -0.1303593   0.5817708  -0.0108020  )
       113        C      tau( 113) = (  -0.3215344   0.7743436  -0.2049950  )
       114        C      tau( 114) = (   0.1990837   0.6605301   0.3170673  )
       115        C      tau( 115) = (   0.0074240   0.8541623   0.1239635  )
       116        C      tau( 116) = (  -0.1859713   1.0450585  -0.0676024  )
       117        C      tau( 117) = (  -0.3087473   0.1159803   0.2806057  )
       118        C      tau( 118) = (  -0.5012415   0.3086593   0.0881434  )
       119        C      tau( 119) = (  -0.6931511   0.5012930  -0.1041295  )
       120        C      tau( 120) = (  -0.1727079   0.3883749   0.4166771  )
       121        C      tau( 121) = (  -0.5562061   0.7731845   0.0322165  )
       122        C      tau( 122) = (  -0.0368250   0.6605445   0.5521966  )
       123        C      tau( 123) = (  -0.2294416   0.8524709   0.3589811  )
       124        C      tau( 124) = (  -0.4212817   1.0468597   0.1672710  )
       125        C      tau( 125) = (  -0.5445148   0.1161562   0.5163306  )
       126        C      tau( 126) = (  -0.7371402   0.3085393   0.3238825  )
       127        C      tau( 127) = (  -0.9291342   0.5012060   0.1313959  )
       128        C      tau( 128) = (  -0.4084232   0.3882995   0.6525995  )
       129        C      tau( 129) = (  -0.6008612   0.5808261   0.4599291  )
       130        C      tau( 130) = (  -0.7927140   0.7733065   0.2674493  )
       131        C      tau( 131) = (  -0.2723430   0.6605703   0.7881871  )
       132        C      tau( 132) = (  -0.4647396   0.8528864   0.5954237  )
       133        C      tau( 133) = (  -0.6572393   1.0454377   0.4035735  )
       134        C      tau( 134) = (  -0.1230755   0.2525699   0.2308353  )
       135        C      tau( 135) = (  -0.3162224   0.4468644   0.0394434  )
       136        C      tau( 136) = (  -0.5088514   0.6370486  -0.1545585  )
       137        C      tau( 137) = (   0.0130435   0.5245838   0.3667372  )
       138        C      tau( 138) = (  -0.1689897   0.7190953   0.1755670  )
       139        C      tau( 139) = (  -0.3716313   0.9085666  -0.0174327  )
       140        C      tau( 140) = (   0.1494236   0.7968011   0.5032498  )
       141        C      tau( 141) = (  -0.0432850   0.9890880   0.3104062  )
       142        C      tau( 142) = (  -0.2356600   1.1815458   0.1180809  )
       143        C      tau( 143) = (  -0.3585557   0.2519674   0.4667370  )
       144        C      tau( 144) = (  -0.5521724   0.4436998   0.2744982  )
       145        C      tau( 145) = (  -0.7425795   0.6373486   0.0817186  )
       146        C      tau( 146) = (  -0.2225948   0.5244611   0.6022447  )
       147        C      tau( 147) = (  -0.4148743   0.7163884   0.4076176  )
       148        C      tau( 148) = (  -0.6085566   0.9094539   0.2175565  )
       149        C      tau( 149) = (  -0.0865155   0.7965473   0.7383774  )
       150        C      tau( 150) = (  -0.2789516   0.9890117   0.5459506  )
       151        C      tau( 151) = (  -0.4711516   1.1816265   0.3537627  )
       152        C      tau( 152) = (  -0.5944867   0.2524984   0.7022991  )
       153        C      tau( 153) = (  -0.7869125   0.4449351   0.5098342  )
       154        C      tau( 154) = (  -0.9790071   0.6372623   0.3172539  )
       155        C      tau( 155) = (  -0.4579345   0.5242822   0.8380891  )
       156        C      tau( 156) = (  -0.6507917   0.7169733   0.6457981  )
       157        C      tau( 157) = (  -0.8431295   0.9093302   0.4533348  )
       158        C      tau( 158) = (  -0.3221934   0.7966495   0.9743212  )
       159        C      tau( 159) = (  -0.5142616   0.9895240   0.7816620  )
       160        C      tau( 160) = (  -0.7070767   1.1814338   0.5895101  )
       161        C      tau( 161) = (  -0.2872852   0.2127260   0.0666256  )
       162        C      tau( 162) = (  -0.4795227   0.4050672  -0.1258290  )
       163        C      tau( 163) = (  -0.6723941   0.5973947  -0.3185679  )
       164        C      tau( 164) = (  -0.1526850   0.4865453   0.2029808  )
       165        C      tau( 165) = (  -0.3448713   0.6764192  -0.0003146  )
       166        C      tau( 166) = (  -0.5358980   0.8695600  -0.1822068  )
       167        C      tau( 167) = (  -0.0145658   0.7569824   0.3397271  )
       168        C      tau( 168) = (  -0.2078440   0.9483081   0.1463546  )
       169        C      tau( 169) = (  -0.3999362   1.1416857  -0.0461952  )
       170        C      tau( 170) = (  -0.5230328   0.2120585   0.3022599  )
       171        C      tau( 171) = (  -0.7150051   0.4049823   0.1098344  )
       172        C      tau( 172) = (  -0.9074851   0.5973467  -0.0825922  )
       173        C      tau( 173) = (  -0.3870194   0.4837726   0.4396511  )
       174        C      tau( 174) = (  -0.5766794   0.6771279   0.2458124  )
       175        C      tau( 175) = (  -0.7714279   0.8695169   0.0534743  )
       176        C      tau( 176) = (  -0.2508408   0.7566645   0.5734574  )
       177        C      tau( 177) = (  -0.4430977   0.9496010   0.3830154  )
       178        C      tau( 178) = (  -0.6356315   1.1417169   0.1892828  )
       179        C      tau( 179) = (  -0.7587306   0.2126462   0.5380552  )
       180        C      tau( 180) = (  -0.9507929   0.4046947   0.3452307  )
       181        C      tau( 181) = (  -1.1434454   0.5973803   0.1530692  )
       182        C      tau( 182) = (  -0.6226296   0.4847968   0.6741171  )
       183        C      tau( 183) = (  -0.8149331   0.6771460   0.4816567  )
       184        C      tau( 184) = (  -1.0072486   0.8699052   0.2886750  )
       185        C      tau( 185) = (  -0.4863813   0.7567934   0.8098798  )
       186        C      tau( 186) = (  -0.6788124   0.9492002   0.6176519  )
       187        C      tau( 187) = (  -0.8713386   1.1415772   0.4252482  )
       188        C      tau( 188) = (  -0.1017327   0.3492941   0.0169797  )
       189        C      tau( 189) = (  -0.2932191   0.5401236  -0.1763416  )
       190        C      tau( 190) = (  -0.4862551   0.7336128  -0.3681990  )
       191        C      tau( 191) = (   0.0356059   0.6199099   0.1524834  )
       192        C      tau( 192) = (  -0.1581813   0.8126230  -0.0389942  )
       193        C      tau( 193) = (  -0.3501114   1.0055613  -0.2321451  )
       194        C      tau( 194) = (   0.1708512   0.8930536   0.2889074  )
       195        C      tau( 195) = (  -0.0215179   1.0852915   0.0964485  )
       196        C      tau( 196) = (  -0.2140398   1.2776564  -0.0959716  )
       197        C      tau( 197) = (  -0.3369404   0.3469532   0.2527554  )
       198        C      tau( 198) = (  -0.5270931   0.5416506   0.0607462  )
       199        C      tau( 199) = (  -0.7216136   0.7334210  -0.1324370  )
       200        C      tau( 200) = (  -0.2017499   0.6205921   0.3860894  )
       201        C      tau( 201) = (  -0.3981967   0.8221185   0.1987173  )
       202        C      tau( 202) = (  -0.5856696   1.0055387   0.0035445  )
       203        C      tau( 203) = (  -0.0648539   0.8927776   0.5243227  )
       204        C      tau( 204) = (  -0.2571984   1.0852392   0.3320157  )
       205        C      tau( 205) = (  -0.4496280   1.2783086   0.1394583  )
       206        C      tau( 206) = (  -0.5729066   0.3483167   0.4883908  )
       207        C      tau( 207) = (  -0.7647971   0.5410182   0.2956629  )
       208        C      tau( 208) = (  -0.9572881   0.7334108   0.1032752  )
       209        C      tau( 209) = (  -0.4365972   0.6206529   0.6238628  )
       210        C      tau( 210) = (  -0.6288805   0.8131212   0.4315842  )
       211        C      tau( 211) = (  -0.8218407   1.0056912   0.2391769  )
       212        C      tau( 212) = (  -0.3005627   0.8927591   0.7600006  )
       213        C      tau( 213) = (  -0.4928821   1.0855100   0.5681354  )
       214        C      tau( 214) = (  -0.6853631   1.2777276   0.3753344  )
       215        N      tau( 215) = (  -0.3694546   0.5696790   0.2312273  )

   Crystallographic axes

     site n.     atom                  positions (cryst. coord.)
         1        C      tau(   1) = (  0.0001432  0.0000816  0.0000816  )
         2        C      tau(   2) = (  0.0002531  0.0003293  0.3334379  )
         3        C      tau(   3) = (  0.0000800  0.0000146  0.6667187  )
         4        C      tau(   4) = (  0.0002531  0.3334379  0.0003293  )
         5        C      tau(   5) = (  0.0007891  0.3340314  0.3340314  )
         6        C      tau(   6) = ( -0.0000288  0.3334271  0.6668034  )
         7        C      tau(   7) = (  0.0000800  0.6667187  0.0000146  )
         8        C      tau(   8) = ( -0.0000288  0.6668034  0.3334271  )
         9        C      tau(   9) = (  0.0005557  0.6662743  0.6662743  )
        10        C      tau(  10) = (  0.3333654  0.0001750  0.0001750  )
        11        C      tau(  11) = (  0.3333863 -0.0000025  0.3335397  )
        12        C      tau(  12) = (  0.3333926  0.0001618  0.6665490  )
        13        C      tau(  13) = (  0.3333863  0.3335397 -0.0000025  )
        14        C      tau(  14) = (  0.3372322  0.3339038  0.3339038  )
        15        C      tau(  15) = (  0.3313600  0.3350968  0.6653915  )
        16        C      tau(  16) = (  0.3333926  0.6665490  0.0001618  )
        17        C      tau(  17) = (  0.3313601  0.6653916  0.3350968  )
        18        C      tau(  18) = (  0.3349771  0.6659004  0.6659004  )
        19        C      tau(  19) = (  0.6666653  0.0000111  0.0000111  )
        20        C      tau(  20) = (  0.6667034 -0.0001816  0.3334083  )
        21        C      tau(  21) = (  0.6666185  0.0002449  0.6667023  )
        22        C      tau(  22) = (  0.6667033  0.3334083 -0.0001816  )
        23        C      tau(  23) = (  0.6673637  0.3330391  0.3330391  )
        24        C      tau(  24) = (  0.6656101  0.3338455  0.6657499  )
        25        C      tau(  25) = (  0.6666185  0.6667023  0.0002449  )
        26        C      tau(  26) = (  0.6656102  0.6657499  0.3338455  )
        27        C      tau(  27) = (  0.6667337  0.6667897  0.6667897  )
        28        C      tau(  28) = (  0.1667617  0.1668450  0.0002453  )
        29        C      tau(  29) = (  0.1677115  0.1678500  0.3338448  )
        30        C      tau(  30) = (  0.1666736  0.1667282  0.6667906  )
        31        C      tau(  31) = (  0.1669152  0.5000718  0.0001621  )
        32        C      tau(  32) = (  0.1680704  0.5021000  0.3350962  )
        33        C      tau(  33) = (  0.1675623  0.4984831  0.6659005  )
        34        C      tau(  34) = (  0.1667455  0.8333836  0.0000145  )
        35        C      tau(  35) = (  0.1666609  0.8334930  0.3334272  )
        36        C      tau(  36) = (  0.1671893  0.8329081  0.6662742  )
        37        C      tau(  37) = (  0.5000559  0.1667603 -0.0001816  )
        38        C      tau(  38) = (  0.5004245  0.1660986  0.3330383  )
        39        C      tau(  39) = (  0.4996173  0.1678512  0.6657508  )
        40        C      tau(  40) = (  0.4999244  0.5000781 -0.0000027  )
        41        C      tau(  41) = (  0.4995520  0.4962259  0.3339055  )
        42        C      tau(  42) = (  0.4983615  0.5021008  0.6653897  )
        43        C      tau(  43) = (  0.5000262  0.8332101  0.0003290  )
        44        C      tau(  44) = (  0.4994316  0.8326738  0.3340315  )
        45        C      tau(  45) = (  0.5000360  0.8334918  0.6668029  )
        46        C      tau(  46) = (  0.8334524  0.1667987  0.0000114  )
        47        C      tau(  47) = (  0.8336450  0.1667609  0.3334086  )
        48        C      tau(  48) = (  0.8332179  0.1668452  0.6667024  )
        49        C      tau(  49) = (  0.8332875  0.5000988  0.0001750  )
        50        C      tau(  50) = (  0.8334661  0.5000783  0.3335402  )
        51        C      tau(  51) = (  0.8333011  0.5000716  0.6665486  )
        52        C      tau(  52) = (  0.8333820  0.8333205  0.0000813  )
        53        C      tau(  53) = (  0.8331336  0.8332100  0.3334378  )
        54        C      tau(  54) = (  0.8334485  0.8333831  0.6667184  )
        55        C      tau(  55) = (  0.1667617  0.0002453  0.1668450  )
        56        C      tau(  56) = (  0.1669152  0.0001621  0.5000718  )
        57        C      tau(  57) = (  0.1667455  0.0000145  0.8333836  )
        58        C      tau(  58) = (  0.1677115  0.3338448  0.1678500  )
        59        C      tau(  59) = (  0.1680704  0.3350962  0.5021000  )
        60        C      tau(  60) = (  0.1666609  0.3334272  0.8334930  )
        61        C      tau(  61) = (  0.1666736  0.6667906  0.1667282  )
        62        C      tau(  62) = (  0.1675623  0.6659006  0.4984831  )
        63        C      tau(  63) = (  0.1671893  0.6662742  0.8329081  )
        64        C      tau(  64) = (  0.5000559 -0.0001816  0.1667603  )
        65        C      tau(  65) = (  0.4999244 -0.0000027  0.5000781  )
        66        C      tau(  66) = (  0.5000262  0.0003290  0.8332101  )
        67        C      tau(  67) = (  0.5004245  0.3330383  0.1660986  )
        68        C      tau(  68) = (  0.4995520  0.3339055  0.4962259  )
        69        C      tau(  69) = (  0.4994316  0.3340315  0.8326738  )
        70        C      tau(  70) = (  0.4996173  0.6657508  0.1678512  )
        71        C      tau(  71) = (  0.4983615  0.6653898  0.5021008  )
        72        C      tau(  72) = (  0.5000360  0.6668029  0.8334918  )
        73        C      tau(  73) = (  0.8334524  0.0000114  0.1667987  )
        74        C      tau(  74) = (  0.8332875  0.0001750  0.5000988  )
        75        C      tau(  75) = (  0.8333820  0.0000814  0.8333205  )
        76        C      tau(  76) = (  0.8336450  0.3334086  0.1667609  )
        77        C      tau(  77) = (  0.8334661  0.3335402  0.5000783  )
        78        C      tau(  78) = (  0.8331336  0.3334378  0.8332100  )
        79        C      tau(  79) = (  0.8332179  0.6667024  0.1668452  )
        80        C      tau(  80) = (  0.8333011  0.6665486  0.5000716  )
        81        C      tau(  81) = (  0.8334485  0.6667184  0.8333831  )
        82        C      tau(  82) = (  0.0004058  0.1670009  0.1670009  )
        83        C      tau(  83) = ( -0.0003709  0.1663490  0.5003494  )
        84        C      tau(  84) = (  0.0000939  0.1668115  0.8333702  )
        85        C      tau(  85) = ( -0.0003709  0.5003494  0.1663490  )
        86        C      tau(  86) = (  0.0007719  0.5001681  0.5001681  )
        87        C      tau(  87) = ( -0.0005585  0.4998276  0.8340222  )
        88        C      tau(  88) = (  0.0000939  0.8333702  0.1668115  )
        89        C      tau(  89) = ( -0.0005585  0.8340222  0.4998276  )
        90        C      tau(  90) = (  0.0002583  0.8332053  0.8332053  )
        91        C      tau(  91) = (  0.3336352  0.1663222  0.1663222  )
        92        C      tau(  92) = (  0.3334325  0.1673335  0.5000297  )
        93        C      tau(  93) = (  0.3331147  0.1663491  0.8338346  )
        94        C      tau(  94) = (  0.3334325  0.5000297  0.1673335  )
        95        C      tau(  95) = (  0.3332954  0.5001679  0.8326922  )
        96        C      tau(  96) = (  0.3331147  0.8338346  0.1663491  )
        97        C      tau(  97) = (  0.3332954  0.8326922  0.5001679  )
        98        C      tau(  98) = (  0.3336362  0.8340213  0.8340213  )
        99        C      tau(  99) = (  0.6668654  0.1665989  0.1665989  )
       100        C      tau( 100) = (  0.6671401  0.1663233  0.4998285  )
       101        C      tau( 101) = (  0.6664627  0.1670007  0.8330575  )
       102        C      tau( 102) = (  0.6671401  0.4998285  0.1663233  )
       103        C      tau( 103) = (  0.6661268  0.5000297  0.5000296  )
       104        C      tau( 104) = (  0.6671129  0.5003493  0.8338328  )
       105        C      tau( 105) = (  0.6664627  0.8330575  0.1670007  )
       106        C      tau( 106) = (  0.6671130  0.8338328  0.5003493  )
       107        C      tau( 107) = (  0.6666523  0.8333696  0.8333696  )
       108        C      tau( 108) = (  0.0835193  0.0835578  0.0835578  )
       109        C      tau( 109) = (  0.0837330  0.0838153  0.4169638  )
       110        C      tau( 110) = (  0.0834270  0.0833573  0.7500383  )
       111        C      tau( 111) = (  0.0837330  0.4169638  0.0838153  )
       112        C      tau( 112) = (  0.0845398  0.4173850  0.4173850  )
       113        C      tau( 113) = (  0.0824058  0.4172942  0.7510593  )
       114        C      tau( 114) = (  0.0834270  0.7500383  0.0833573  )
       115        C      tau( 115) = (  0.0824059  0.7510593  0.4172942  )
       116        C      tau( 116) = (  0.0836994  0.7497657  0.7497657  )
       117        C      tau( 117) = (  0.4167355  0.0832088  0.0832088  )
       118        C      tau( 118) = (  0.4167581  0.0833727  0.4167068  )
       119        C      tau( 119) = (  0.4165011  0.0838156  0.7497318  )
       120        C      tau( 120) = (  0.4167581  0.4167068  0.0833727  )
       121        C      tau( 121) = (  0.4160776  0.4173846  0.7489238  )
       122        C      tau( 122) = (  0.4165012  0.7497318  0.0838156  )
       123        C      tau( 123) = (  0.4160777  0.7489238  0.4173846  )
       124        C      tau( 124) = (  0.4161696  0.7510579  0.7510579  )
       125        C      tau( 125) = (  0.7501310  0.0833350  0.0833350  )
       126        C      tau( 126) = (  0.7502563  0.0832095  0.4167297  )
       127        C      tau( 127) = (  0.7499081  0.0835577  0.7499458  )
       128        C      tau( 128) = (  0.7502563  0.4167297  0.0832095  )
       129        C      tau( 129) = (  0.7500920  0.4167072  0.4167072  )
       130        C      tau( 130) = (  0.7496486  0.4169637  0.7497304  )
       131        C      tau( 131) = (  0.7499081  0.7499458  0.0835577  )
       132        C      tau( 132) = (  0.7496486  0.7497304  0.4169637  )
       133        C      tau( 133) = (  0.7501079  0.7500377  0.7500377  )
       134        C      tau( 134) = (  0.2502527  0.2502153  0.0836061  )
       135        C      tau( 135) = (  0.2514937  0.2518687  0.4177957  )
       136        C      tau( 136) = (  0.2505229  0.2493120  0.7508201  )
       137        C      tau( 137) = (  0.2500992  0.5833657  0.0836021  )
       138        C      tau( 138) = (  0.2436384  0.5898240  0.4113725  )
       139        C      tau( 139) = (  0.2504562  0.5830068  0.7491873  )
       140        C      tau( 140) = (  0.2501929  0.9170382  0.0832122  )
       141        C      tau( 141) = (  0.2500975  0.9166387  0.4168277  )
       142        C      tau( 142) = (  0.2501326  0.9167267  0.7500501  )
       143        C      tau( 143) = (  0.5835701  0.2498953  0.0830149  )
       144        C      tau( 144) = (  0.5845443  0.2489193  0.4164855  )
       145        C      tau( 145) = (  0.5828668  0.2505976  0.7495216  )
       146        C      tau( 146) = (  0.5832496  0.5832121  0.0836067  )
       147        C      tau( 147) = (  0.5815896  0.5819662  0.4177967  )
       148        C      tau( 148) = (  0.5841502  0.5829409  0.7508174  )
       149        C      tau( 149) = (  0.5832874  0.9164996  0.0835341  )
       150        C      tau( 150) = (  0.5832940  0.9165265  0.4168542  )
       151        C      tau( 151) = (  0.5833025  0.9168701  0.7499869  )
       152        C      tau( 152) = (  0.9169660  0.2501783  0.0835345  )
       153        C      tau( 153) = (  0.9169384  0.2501713  0.4168546  )
       154        C      tau( 154) = (  0.9165950  0.2501629  0.7499870  )
       155        C      tau( 155) = (  0.9164271  0.5832721  0.0832121  )
       156        C      tau( 156) = (  0.9168275  0.5833677  0.4168278  )
       157        C      tau( 157) = (  0.9167387  0.5833320  0.7500501  )
       158        C      tau( 158) = (  0.9167742  0.9166916  0.0834396  )
       159        C      tau( 159) = (  0.9163564  0.9171087  0.4169182  )
       160        C      tau( 160) = (  0.9168253  0.9166403  0.7499782  )
       161        C      tau( 161) = (  0.2502527  0.0836061  0.2502153  )
       162        C      tau( 162) = (  0.2500992  0.0836021  0.5833657  )
       163        C      tau( 163) = (  0.2501929  0.0832122  0.9170382  )
       164        C      tau( 164) = (  0.2514937  0.4177957  0.2518687  )
       165        C      tau( 165) = (  0.2436383  0.4113724  0.5898240  )
       166        C      tau( 166) = (  0.2500974  0.4168277  0.9166387  )
       167        C      tau( 167) = (  0.2505229  0.7508201  0.2493120  )
       168        C      tau( 168) = (  0.2504562  0.7491873  0.5830068  )
       169        C      tau( 169) = (  0.2501326  0.7500501  0.9167266  )
       170        C      tau( 170) = (  0.5835701  0.0830149  0.2498953  )
       171        C      tau( 171) = (  0.5832496  0.0836067  0.5832121  )
       172        C      tau( 172) = (  0.5832874  0.0835342  0.9164996  )
       173        C      tau( 173) = (  0.5845443  0.4164855  0.2489193  )
       174        C      tau( 174) = (  0.5815896  0.4177967  0.5819661  )
       175        C      tau( 175) = (  0.5832940  0.4168542  0.9165265  )
       176        C      tau( 176) = (  0.5828668  0.7495217  0.2505976  )
       177        C      tau( 177) = (  0.5841502  0.7508175  0.5829409  )
       178        C      tau( 178) = (  0.5833025  0.7499869  0.9168701  )
       179        C      tau( 179) = (  0.9169660  0.0835345  0.2501783  )
       180        C      tau( 180) = (  0.9164271  0.0832121  0.5832721  )
       181        C      tau( 181) = (  0.9167742  0.0834396  0.9166916  )
       182        C      tau( 182) = (  0.9169384  0.4168546  0.2501713  )
       183        C      tau( 183) = (  0.9168275  0.4168278  0.5833677  )
       184        C      tau( 184) = (  0.9163564  0.4169182  0.9171087  )
       185        C      tau( 185) = (  0.9165950  0.7499870  0.2501629  )
       186        C      tau( 186) = (  0.9167387  0.7500501  0.5833320  )
       187        C      tau( 187) = (  0.9168253  0.7499782  0.9166403  )
       188        C      tau( 188) = (  0.0839423  0.2505972  0.2505972  )
       189        C      tau( 189) = (  0.0826449  0.2493117  0.5829414  )
       190        C      tau( 190) = (  0.0834783  0.2501630  0.9168709  )
       191        C      tau( 191) = (  0.0826449  0.5829414  0.2493118  )
       192        C      tau( 192) = (  0.0842780  0.5830074  0.5830074  )
       193        C      tau( 193) = (  0.0834148  0.5833322  0.9167271  )
       194        C      tau( 194) = (  0.0834783  0.9168709  0.2501630  )
       195        C      tau( 195) = (  0.0834148  0.9167271  0.5833322  )
       196        C      tau( 196) = (  0.0834868  0.9166404  0.9166405  )
       197        C      tau( 197) = (  0.4169779  0.2489178  0.2489178  )
       198        C      tau( 198) = (  0.4156651  0.2518706  0.5819676  )
       199        C      tau( 199) = (  0.4166108  0.2501710  0.9165272  )
       200        C      tau( 200) = (  0.4156651  0.5819676  0.2518706  )
       201        C      tau( 201) = (  0.4220819  0.5898199  0.5898198  )
       202        C      tau( 202) = (  0.4166373  0.5833674  0.9166381  )
       203        C      tau( 203) = (  0.4166108  0.9165272  0.2501710  )
       204        C      tau( 204) = (  0.4166373  0.9166381  0.5833674  )
       205        C      tau( 205) = (  0.4165469  0.9171084  0.9171084  )
       206        C      tau( 206) = (  0.7504506  0.2498960  0.2498960  )
       207        C      tau( 207) = (  0.7498585  0.2502163  0.5832118  )
       208        C      tau( 208) = (  0.7499315  0.2501781  0.9164995  )
       209        C      tau( 209) = (  0.7498585  0.5832118  0.2502163  )
       210        C      tau( 210) = (  0.7498618  0.5833648  0.5833648  )
       211        C      tau( 211) = (  0.7502527  0.5832720  0.9170372  )
       212        C      tau( 212) = (  0.7499315  0.9164995  0.2501781  )
       213        C      tau( 213) = (  0.7502527  0.9170372  0.5832720  )
       214        C      tau( 214) = (  0.7500264  0.9166916  0.9166916  )
       215        N      tau( 215) = (  0.4247462  0.4087099  0.4087099  )

     number of k points=     1  Gaussian smearing, width (Ry)=  0.0050
                       cart. coord. in units 2pi/alat
        k(    1) = (   0.0000000   0.0000000   0.0000000), wk =   1.0000000

                       cryst. coord.
        k(    1) = (   0.0000000   0.0000000   0.0000000), wk =   1.0000000

     Dense  grid:   338755 G-vectors     FFT dimensions: (  90,  90,  90)

     Dynamical RAM for                 wfc:      23.23 MB

     Dynamical RAM for     wfc (w. buffer):      69.69 MB

     Dynamical RAM for           str. fact:       0.43 MB

     Dynamical RAM for           local pot:       0.00 MB

     Dynamical RAM for          nlocal pot:      46.30 MB

     Dynamical RAM for                qrad:       0.62 MB

     Dynamical RAM for          rho,v,vnew:       2.78 MB

     Dynamical RAM for           G-vectors:       0.92 MB

     Dynamical RAM for          h,s,v(r/c):       8.50 MB

     Dynamical RAM for          <psi|beta>:      22.65 MB

     Dynamical RAM for                 psi:      46.46 MB

     Dynamical RAM for                hpsi:      46.46 MB

     Dynamical RAM for                spsi:      46.46 MB

     Dynamical RAM for      wfcinit/wfcrot:      63.51 MB

     Dynamical RAM for           addusdens:      55.58 MB

     Estimated static dynamical RAM per process >     122.85 MB

     Estimated max dynamical RAM per process >     293.38 MB

     Estimated total dynamical RAM >       6.88 GB

     Check: negative core charge=   -0.000075
     Generating pointlists ...
     new r_m :   0.0566 (alat units)  1.1469 (a.u.) for type    1
     new r_m :   0.0566 (alat units)  1.1469 (a.u.) for type    2

     The potential is recalculated from file :
     ../tmp/diamond_pd.save/charge-density

     Starting wfcs are random
     Checking if some PAW data can be deallocated... 
       PAW data deallocated on   23 nodes for type:  2

     Band Structure Calculation
     Davidson diagonalization with overlap

     Computing kpt #:     1  of     2
     total cpu time spent up to now is      320.8 secs

     Computing kpt #:     2  of     2
     total cpu time spent up to now is      640.4 secs

     ethr =  1.16E-12,  avg # of iterations = 64.5

     total cpu time spent up to now is      640.4 secs

     End of band structure calculation

 ------ SPIN UP ------------


          k = 0.0000 0.0000 0.0000 ( 42379 PWs)   bands (ev):

    -8.3353  -7.4844  -7.3355  -7.3355  -7.2731  -7.2731  -7.1764  -6.6537
    -6.3328  -6.3328  -6.3172  -6.3171  -6.3023  -6.2593  -6.2593  -6.2550
    -6.1723  -6.1722  -6.0020  -5.5558  -5.2792  -5.2626  -5.2626  -5.2236
    -5.2188  -5.2187  -5.0220  -4.4543  -4.3040  -4.3040  -4.2825  -4.2825
    -4.2368  -3.8794  -3.4300  -3.4252  -3.4251  -3.4165  -3.4165  -3.4045
    -3.3937  -3.3936  -3.3870  -3.3740  -3.3740  -3.3685  -3.3600  -3.3600
    -3.3106  -3.3106  -3.3092  -3.2921  -3.2921  -3.2832  -3.2001  -3.2001
    -3.0645  -2.8721  -2.6631  -2.6630  -2.6318  -2.6264  -2.6264  -2.6036
    -2.5972  -2.5964  -2.5964  -2.5595  -2.5594  -2.5299  -2.5155  -2.5155
    -2.5027  -2.5027  -2.4523  -2.4247  -2.4247  -2.3424  -2.1921  -2.1919
    -1.5738  -1.0865  -0.9299  -0.9299  -0.8836  -0.8836  -0.8806  -0.8594
    -0.8594  -0.8506  -0.7835  -0.7834  -0.3830   0.3260   0.3525   0.3525
     0.3682   0.3682   0.3949   0.6756   0.8171   0.8171   0.8209   0.8463
     0.8463   0.8549   0.8611   0.8615   0.8615   0.8886   0.8887   0.9150
     0.9150   0.9450   1.0010   1.0184   1.0185   1.0387   1.0388   1.0474
     1.0483   1.0745   1.0746   1.0795   1.0796   1.0824   1.0911   1.0988
     1.0988   1.1010   1.1418   1.1418   1.1457   1.1581   1.1582   1.1912
     1.1912   1.2033   1.2033   1.2078   1.2321   1.2321   1.2935   1.4891
     1.6022   1.6022   1.9195   2.1897   2.1897   2.1956   2.2275   2.2276
     2.2307   2.2558   2.2770   2.2770   2.4676   2.4677   3.4289   3.7005
     3.7005   3.7193   3.7584   3.7682   3.7682   3.7798   3.7799   3.7855
     3.7895   3.7903   3.8121   3.8121   3.8128   3.8351   3.8351   3.9508
     3.9508   3.9550   3.9979   4.3358   4.3358   4.3743   4.4055   4.4226
     4.4227   4.4230   4.4346   4.4346   4.4459   4.4460   4.4504   4.4679
     4.4680   4.4926   4.4967   4.4968   4.5015   4.5283   4.5283   4.5284
     4.7757   4.7758   5.2219   5.2237   5.2238   5.2549   5.2549   5.2560
     5.2638   5.2738   5.2738   5.2873   5.2934   5.2934   5.3282   5.3282
     5.4085   5.4086   5.4167   5.4311   5.4323   5.4706   5.4707   5.5013
     5.5192   5.5192   5.6225   5.7111   5.7112   5.8110   5.8110   5.8165
     5.8268   5.8348   5.8349   5.8574   5.8675   5.8675   5.8748   5.8773
     5.8873   5.8873   5.8969   5.9208   5.9324   5.9325   5.9440   5.9441
     5.9497   5.9897   5.9897   6.0223   6.0223   6.3396   6.3732   6.3732
     6.8411   6.8411   6.9009   6.9199   6.9442   6.9443   7.1004   7.3592
     7.3593   7.4333   7.4333   7.4345   7.4483   7.4576   7.4577   7.5099
     7.5511   7.5512   7.7012   7.7012   7.8291   7.8481   7.8517   7.8517
     7.8716   7.8717   7.8780   7.8988   7.9251   7.9251   7.9352   8.0276
     8.0439   8.0439   8.0487   8.0538   8.0539   8.0751   8.0751   8.0769
     8.0862   8.0863   8.0870   8.1008   8.1008   8.1254   8.1493   8.1494
     8.1633   8.1634   8.1687   8.1926   8.1954   8.1954   8.2517   8.2517
     8.2620   8.2663   8.2814   8.2825   8.2825   8.2886   8.2887   8.2974
     8.2974   8.3087   8.3168   8.3296   8.3373   8.3373   8.3451   8.3451
     8.3465   8.3488   8.3488   8.3633   8.3783   8.3783   8.3859   8.3859
     8.3874   8.4040   8.4102   8.4102   8.4481   8.4481   8.4586   8.4692
     8.4692   8.5237   8.5237   8.5350   8.5497   8.5734   8.5747   8.5747
     8.5883   8.7247   8.7247   8.8924   8.8924   8.8960   9.0643   9.0644
     9.1135   9.1201   9.1236   9.1237   9.1917   9.1920   9.1920   9.2038
     9.2360   9.2360   9.2533   9.2534   9.2592   9.2897   9.2898   9.3226
     9.4002   9.4004   9.4586  10.0817  10.2225  10.2227  10.5054  10.5055
    10.5492  10.5493  10.5503  10.5785  10.5869  10.6021  10.6022  10.6211
    10.6471  10.6471  10.6727  10.7489  10.7491  10.8079  10.8079  10.8090
    10.8258  10.8259  10.8444  10.8612  10.8613  10.8743  10.8743  10.9108
    10.9156  10.9157  10.9381  10.9422  10.9424  11.5019  11.5021  11.5046
    11.7226  11.7381  11.7382  11.7715  11.7951  11.7951  11.8491  11.9252
    11.9252  12.2731  13.0213  13.0265  13.0268  14.4351  15.9863  15.9869
    17.2581  17.2581  17.2835  17.3127  17.3127  17.3326  17.8541  17.9218
    17.9218  17.9336  17.9337  18.0077  18.0631  18.0631  18.1287  18.1641
    18.1642  18.1963  18.8267  18.8269  18.8439  19.3750  19.4353  19.4353
    19.4483  19.4773  19.4773  19.4884  19.4885  19.5029  19.5076  19.5077
    19.5356  19.9882  20.1454  20.1454  20.1670  20.1704  20.1704  20.1818
    20.1853  20.1854  20.1966  20.1966  20.2289  20.2289  20.2338  20.2500
    20.2739  20.2760  20.2760  20.3005  20.3005  20.3184  20.3379  20.3501
    20.3501  20.6245  20.6343  20.6346  20.6347  20.6502  20.6563  20.6564
    20.6712  20.6786  20.6786  20.6974  20.6974  20.7000  20.7424  20.7424
    20.7777  20.7777  20.7806  20.8078  20.8078  20.8194  20.8241  20.8390
    20.8390  20.8529  20.8529  20.8540  20.8714  20.8714  20.8749  20.8865
    20.8866  20.8935  20.8935  20.9322  20.9373  20.9829  20.9978  20.9979
    21.0573  21.0573  21.0648  21.1739  21.2630  21.2631  21.2756  21.3052
    21.3053  21.3056  21.3057  21.3087  21.3320  21.3363  21.3365  21.3502
    21.3503  21.3615  21.3734  21.3735  21.3802  21.3956  21.3957  21.4183
    21.4192  21.4193  21.4260  21.4261  21.4311  21.4528  21.4529  21.4737
    21.4737  21.4895  21.4951  21.5276  21.5277  21.5389  21.5717  21.5745
    21.5961  21.5962  21.6009  21.6351  21.6351  21.6592  21.6592  21.6819
    21.7122  21.7122  21.7153  21.7330  21.7330  21.7459  21.7994  21.7995
    21.8058  21.9485  21.9731  21.9731  22.0146  22.0146  22.0798  22.0798
    22.0961  22.1567  22.1567  22.1569  22.1940  22.1941  22.1999  22.3103
    22.3276  22.3276  22.4254  22.4540  22.4541  22.4798  22.4798  22.4822
    22.7149  22.7455  22.7455  22.9083  23.0097  23.0097  23.0116  23.0710
    23.0757  23.0758  23.0870  23.0871  23.0981  23.0982  23.1134  23.1203
    23.1219  23.1220  23.1455  23.2054  23.2313  23.2313  23.2527  23.3021
    23.3162  23.3163  23.3614  23.3615  23.4440  23.4635  23.4636  23.7333
    23.7423  23.7424  23.7541  23.7712  23.7908  23.7908  23.8059  23.8059
    23.8380  23.8381  23.8461  23.8462  23.8464  23.8671  23.8834  23.9442
    23.9784  23.9785  23.9896  24.0707  24.0707  24.1562  24.1563  24.1819
    24.2032  24.2096  24.2097  24.2213  24.2251  24.2251  24.2394  24.2394
    24.2488  24.3114  24.3143  24.3143  24.3568  24.3569  24.3735  24.3873
    24.3874  24.3992  24.4042  24.4042  24.4220  24.4459  24.4588  24.4588
    24.4725  24.4874  24.4875  24.4964  24.4964  24.5119  24.5165  24.5514
    24.5514  24.5671  24.5671  24.6333  24.6904  24.6904  24.7013  24.9448
    24.9450  24.9972  24.9973  25.5645  25.5808  25.5809  25.6489  25.7244
    25.7625  25.7625  25.7726  25.7726  25.9790  25.9965  25.9965  25.9983
    26.0519  26.0520  26.0944  26.1057  26.1484  26.1484  26.2194  26.3031
    26.3031  26.4203  26.5609  26.5609  26.5833  26.5996  26.6067  26.6160
    26.6160  26.6357  26.6357  26.6531  26.6531  26.6670  26.7265  26.7266
    26.7325  26.7398  26.7574  26.7574  26.8126  26.8126  26.8204  26.9430
    26.9431  27.0337  27.0356  27.0356  27.0446  27.0447  27.0484  27.0612
    27.0673  27.0702  27.0702  27.0713  27.0713  27.1183  27.1184  27.1526
    27.1581  27.1899  27.1899  27.2270  27.2270  27.2350  27.2350  27.2443
    27.2487  27.2612  27.2689  27.2764  27.2765  27.2786  27.2940  27.2941
    27.3013  27.3013  27.3070  27.3245  27.3245  27.3258  27.3406  27.3406
    27.3411  27.3589  27.3589  27.3746  27.3847  27.3848  27.4018  27.4275
    27.4391  27.4391  27.4452  27.4662  27.4663  27.5047  27.5047  27.5233
    27.5233  27.5265  27.5354  27.5502  27.5502  27.5522  27.5677  27.5829
    27.5830  27.5956  27.5968  27.6040  27.6040  27.6216  27.6216  27.6881
    27.6881  27.7229  27.7230  27.7695  27.7869  27.8549  27.8832  27.8832
    27.8904  27.9337  27.9338  27.9909  28.0658  28.0659  28.1281  28.1375
    28.1375  28.2126  28.2126  28.3001  28.3441  28.3838  28.3838  28.4540
    28.5000  28.5000  28.7299  28.8184  28.8184  28.8769  29.7400  29.7987
    29.7988  29.9403  29.9725  29.9726  30.0056  30.0478  30.0479

     occupation numbers 
     1.0000   1.0000   1.0000   1.0000   1.0000   1.0000   1.0000   1.0000
     1.0000   1.0000   1.0000   1.0000   1.0000   1.0000   1.0000   1.0000
     1.0000   1.0000   1.0000   1.0000   1.0000   1.0000   1.0000   1.0000
     1.0000   1.0000   1.0000   1.0000   1.0000   1.0000   1.0000   1.0000
     1.0000   1.0000   1.0000   1.0000   1.0000   1.0000   1.0000   1.0000
     1.0000   1.0000   1.0000   1.0000   1.0000   1.0000   1.0000   1.0000
     1.0000   1.0000   1.0000   1.0000   1.0000   1.0000   1.0000   1.0000
     1.0000   1.0000   1.0000   1.0000   1.0000   1.0000   1.0000   1.0000
     1.0000   1.0000   1.0000   1.0000   1.0000   1.0000   1.0000   1.0000
     1.0000   1.0000   1.0000   1.0000   1.0000   1.0000   1.0000   1.0000
     1.0000   1.0000   1.0000   1.0000   1.0000   1.0000   1.0000   1.0000
     1.0000   1.0000   1.0000   1.0000   1.0000   1.0000   1.0000   1.0000
     1.0000   1.0000   1.0000   1.0000   1.0000   1.0000   1.0000   1.0000
     1.0000   1.0000   1.0000   1.0000   1.0000   1.0000   1.0000   1.0000
     1.0000   1.0000   1.0000   1.0000   1.0000   1.0000   1.0000   1.0000
     1.0000   1.0000   1.0000   1.0000   1.0000   1.0000   1.0000   1.0000
     1.0000   1.0000   1.0000   1.0000   1.0000   1.0000   1.0000   1.0000
     1.0000   1.0000   1.0000   1.0000   1.0000   1.0000   1.0000   1.0000
     1.0000   1.0000   1.0000   1.0000   1.0000   1.0000   1.0000   1.0000
     1.0000   1.0000   1.0000   1.0000   1.0000   1.0000   1.0000   1.0000
     1.0000   1.0000   1.0000   1.0000   1.0000   1.0000   1.0000   1.0000
     1.0000   1.0000   1.0000   1.0000   1.0000   1.0000   1.0000   1.0000
     1.0000   1.0000   1.0000   1.0000   1.0000   1.0000   1.0000   1.0000
     1.0000   1.0000   1.0000   1.0000   1.0000   1.0000   1.0000   1.0000
     1.0000   1.0000   1.0000   1.0000   1.0000   1.0000   1.0000   1.0000
     1.0000   1.0000   1.0000   1.0000   1.0000   1.0000   1.0000   1.0000
     1.0000   1.0000   1.0000   1.0000   1.0000   1.0000   1.0000   1.0000
     1.0000   1.0000   1.0000   1.0000   1.0000   1.0000   1.0000   1.0000
     1.0000   1.0000   1.0000   1.0000   1.0000   1.0000   1.0000   1.0000
     1.0000   1.0000   1.0000   1.0000   1.0000   1.0000   1.0000   1.0000
     1.0000   1.0000   1.0000   1.0000   1.0000   1.0000   1.0000   1.0000
     1.0000   1.0000   1.0000   1.0000   1.0000   1.0000   1.0000   1.0000
     1.0000   1.0000   1.0000   1.0000   1.0000   1.0000   1.0000   1.0000
     1.0000   1.0000   1.0000   1.0000   1.0000   1.0000   1.0000   1.0000
     1.0000   1.0000   1.0000   1.0000   1.0000   1.0000   1.0000   1.0000
     1.0000   1.0000   1.0000   1.0000   1.0000   1.0000   1.0000   1.0000
     1.0000   1.0000   1.0000   1.0000   1.0000   1.0000   1.0000   1.0000
     1.0000   1.0000   1.0000   1.0000   1.0000   1.0000   1.0000   1.0000
     1.0000   1.0000   1.0000   1.0000   1.0000   1.0000   1.0000   1.0000
     1.0000   1.0000   1.0000   1.0000   1.0000   1.0000   1.0000   1.0000
     1.0000   1.0000   1.0000   1.0000   1.0000   1.0000   1.0000   1.0000
     1.0000   1.0000   1.0000   1.0000   1.0000   1.0000   1.0000   1.0000
     1.0000   1.0000   1.0000   1.0000   1.0000   1.0000   1.0000   1.0000
     1.0000   1.0000   1.0000   1.0000   1.0000   1.0000   1.0000   1.0000
     1.0000   1.0000   1.0000   1.0000   1.0000   1.0000   1.0000   1.0000
     1.0000   1.0000   1.0000   1.0000   1.0000   1.0000   1.0000   1.0000
     1.0000   1.0000   1.0000   1.0000   1.0000   1.0000   1.0000   1.0000
     1.0000   1.0000   1.0000   1.0000   1.0000   1.0000   1.0000   1.0000
     1.0000   1.0000   1.0000   1.0000   1.0000   1.0000   1.0000   1.0000
     1.0000   1.0000   1.0000   1.0000   1.0000   1.0000   1.0000   1.0000
     1.0000   1.0000   1.0000   1.0000   1.0000   1.0000   1.0000   1.0000
     1.0000   1.0000   1.0000   1.0000   1.0000   1.0000   1.0000   1.0000
     1.0000   1.0000   1.0000   1.0000   1.0000   1.0000   1.0000   1.0000
     1.0000   1.0000   1.0000   1.0000   1.0000   1.0000   1.0000   1.0000
     0.0000   0.0000   0.0000   0.0000   0.0000   0.0000   0.0000   0.0000
     0.0000   0.0000   0.0000   0.0000   0.0000   0.0000   0.0000   0.0000
     0.0000   0.0000   0.0000   0.0000   0.0000   0.0000   0.0000   0.0000
     0.0000   0.0000   0.0000   0.0000   0.0000   0.0000   0.0000   0.0000
     0.0000   0.0000   0.0000   0.0000   0.0000   0.0000   0.0000   0.0000
     0.0000   0.0000   0.0000   0.0000   0.0000   0.0000   0.0000   0.0000
     0.0000   0.0000   0.0000   0.0000   0.0000   0.0000   0.0000   0.0000
     0.0000   0.0000   0.0000   0.0000   0.0000   0.0000   0.0000   0.0000
     0.0000   0.0000   0.0000   0.0000   0.0000   0.0000   0.0000   0.0000
     0.0000   0.0000   0.0000   0.0000   0.0000   0.0000   0.0000   0.0000
     0.0000   0.0000   0.0000   0.0000   0.0000   0.0000   0.0000   0.0000
     0.0000   0.0000   0.0000   0.0000   0.0000   0.0000   0.0000   0.0000
     0.0000   0.0000   0.0000   0.0000   0.0000   0.0000   0.0000   0.0000
     0.0000   0.0000   0.0000   0.0000   0.0000   0.0000   0.0000   0.0000
     0.0000   0.0000   0.0000   0.0000   0.0000   0.0000   0.0000   0.0000
     0.0000   0.0000   0.0000   0.0000   0.0000   0.0000   0.0000   0.0000
     0.0000   0.0000   0.0000   0.0000   0.0000   0.0000   0.0000   0.0000
     0.0000   0.0000   0.0000   0.0000   0.0000   0.0000   0.0000   0.0000
     0.0000   0.0000   0.0000   0.0000   0.0000   0.0000   0.0000   0.0000
     0.0000   0.0000   0.0000   0.0000   0.0000   0.0000   0.0000   0.0000
     0.0000   0.0000   0.0000   0.0000   0.0000   0.0000   0.0000   0.0000
     0.0000   0.0000   0.0000   0.0000   0.0000   0.0000   0.0000   0.0000
     0.0000   0.0000   0.0000   0.0000   0.0000   0.0000   0.0000   0.0000
     0.0000   0.0000   0.0000   0.0000   0.0000   0.0000   0.0000   0.0000
     0.0000   0.0000   0.0000   0.0000   0.0000   0.0000   0.0000   0.0000
     0.0000   0.0000   0.0000   0.0000   0.0000   0.0000   0.0000   0.0000
     0.0000   0.0000   0.0000   0.0000   0.0000   0.0000   0.0000   0.0000
     0.0000   0.0000   0.0000   0.0000   0.0000   0.0000   0.0000   0.0000
     0.0000   0.0000   0.0000   0.0000   0.0000   0.0000   0.0000   0.0000
     0.0000   0.0000   0.0000   0.0000   0.0000   0.0000   0.0000   0.0000
     0.0000   0.0000   0.0000   0.0000   0.0000   0.0000   0.0000   0.0000
     0.0000   0.0000   0.0000   0.0000   0.0000   0.0000   0.0000   0.0000
     0.0000   0.0000   0.0000   0.0000   0.0000   0.0000   0.0000   0.0000
     0.0000   0.0000   0.0000   0.0000   0.0000   0.0000   0.0000   0.0000
     0.0000   0.0000   0.0000   0.0000   0.0000   0.0000   0.0000   0.0000
     0.0000   0.0000   0.0000   0.0000   0.0000   0.0000   0.0000   0.0000
     0.0000   0.0000   0.0000   0.0000   0.0000   0.0000   0.0000   0.0000
     0.0000   0.0000   0.0000   0.0000   0.0000   0.0000   0.0000   0.0000
     0.0000   0.0000   0.0000   0.0000   0.0000   0.0000   0.0000   0.0000
     0.0000   0.0000   0.0000   0.0000   0.0000   0.0000   0.0000   0.0000
     0.0000   0.0000   0.0000   0.0000   0.0000   0.0000   0.0000   0.0000
     0.0000   0.0000   0.0000   0.0000   0.0000   0.0000   0.0000   0.0000
     0.0000   0.0000   0.0000   0.0000   0.0000   0.0000   0.0000   0.0000
     0.0000   0.0000   0.0000   0.0000   0.0000   0.0000   0.0000   0.0000
     0.0000   0.0000   0.0000   0.0000   0.0000   0.0000   0.0000   0.0000
     0.0000   0.0000   0.0000   0.0000   0.0000   0.0000   0.0000   0.0000
     0.0000   0.0000   0.0000   0.0000   0.0000   0.0000   0.0000   0.0000
     0.0000   0.0000   0.0000   0.0000   0.0000   0.0000   0.0000   0.0000
     0.0000   0.0000   0.0000   0.0000   0.0000   0.0000   0.0000   0.0000
     0.0000   0.0000   0.0000   0.0000   0.0000   0.0000   0.0000   0.0000
     0.0000   0.0000   0.0000   0.0000   0.0000   0.0000   0.0000   0.0000
     0.0000   0.0000   0.0000   0.0000   0.0000   0.0000   0.0000   0.0000
     0.0000   0.0000   0.0000   0.0000   0.0000   0.0000   0.0000   0.0000
     0.0000   0.0000   0.0000   0.0000   0.0000   0.0000   0.0000

 ------ SPIN DOWN ----------


          k = 0.0000 0.0000 0.0000 ( 42379 PWs)   bands (ev):

    -8.3335  -7.4832  -7.3344  -7.3344  -7.2707  -7.2707  -7.1725  -6.6523
    -6.3319  -6.3319  -6.3162  -6.3162  -6.3004  -6.2571  -6.2571  -6.2538
    -6.1656  -6.1656  -5.9942  -5.5539  -5.2773  -5.2598  -5.2598  -5.2201
    -5.2117  -5.2116  -5.0114  -4.4495  -4.3017  -4.3017  -4.2791  -4.2791
    -4.2335  -3.8730  -3.4297  -3.4245  -3.4245  -3.4150  -3.4149  -3.4030
    -3.3922  -3.3921  -3.3865  -3.3731  -3.3731  -3.3677  -3.3582  -3.3581
    -3.3068  -3.3067  -3.3048  -3.2874  -3.2874  -3.2820  -3.1910  -3.1909
    -3.0599  -2.8704  -2.6623  -2.6623  -2.6307  -2.6242  -2.6242  -2.6026
    -2.5950  -2.5950  -2.5941  -2.5562  -2.5562  -2.5257  -2.5123  -2.5123
    -2.5008  -2.5008  -2.4461  -2.4171  -2.4171  -2.3374  -2.1625  -2.1624
    -1.5517  -1.0834  -0.9281  -0.9281  -0.8788  -0.8788  -0.8786  -0.8569
    -0.8569  -0.8478  -0.7675  -0.7675  -0.3545   0.3296   0.3536   0.3536
     0.3705   0.3705   0.3972   0.6864   0.8180   0.8180   0.8210   0.8473
     0.8473   0.8558   0.8620   0.8625   0.8625   0.8908   0.8909   0.9162
     0.9163   0.9481   1.0060   1.0205   1.0206   1.0419   1.0420   1.0499
     1.0507   1.0770   1.0771   1.0808   1.0808   1.0850   1.0920   1.1022
     1.1022   1.1024   1.1453   1.1453   1.1492   1.1636   1.1636   1.1938
     1.1938   1.2058   1.2058   1.2115   1.2472   1.2472   1.3105   1.4954
     1.6215   1.6216   1.9291   2.1923   2.1924   2.2045   2.2297   2.2297
     2.2321   2.2611   2.2800   2.2801   2.4994   2.4995   3.4555   3.7027
     3.7028   3.7231   3.7591   3.7695   3.7695   3.7815   3.7815   3.7885
     3.7907   3.7944   3.8141   3.8141   3.8167   3.8397   3.8397   3.9570
     3.9570   3.9603   4.0067   4.3386   4.3387   4.3839   4.4057   4.4236
     4.4236   4.4245   4.4368   4.4368   4.4482   4.4483   4.4521   4.4704
     4.4704   4.4999   4.5000   4.5006   4.5074   4.5331   4.5345   4.5346
     4.8043   4.8044   5.2249   5.2249   5.2258   5.2560   5.2560   5.2566
     5.2660   5.2749   5.2749   5.2883   5.2955   5.2955   5.3303   5.3303
     5.4110   5.4111   5.4199   5.4343   5.4356   5.4755   5.4755   5.5021
     5.5228   5.5228   5.6371   5.7135   5.7136   5.8119   5.8119   5.8219
     5.8291   5.8363   5.8364   5.8601   5.8715   5.8715   5.8795   5.8809
     5.8893   5.8893   5.9014   5.9226   5.9373   5.9374   5.9505   5.9505
     5.9607   5.9935   5.9935   6.0341   6.0341   6.3495   6.3911   6.3911
     6.8442   6.8443   6.9050   6.9238   6.9525   6.9526   7.1309   7.3641
     7.3642   7.4346   7.4346   7.4384   7.4504   7.4611   7.4611   7.5181
     7.5584   7.5584   7.7031   7.7031   7.8326   7.8500   7.8533   7.8534
     7.8765   7.8765   7.8863   7.9032   7.9303   7.9303   7.9439   8.0282
     8.0448   8.0449   8.0502   8.0560   8.0560   8.0756   8.0756   8.0774
     8.0877   8.0881   8.0881   8.1023   8.1023   8.1280   8.1517   8.1517
     8.1651   8.1652   8.1710   8.1949   8.2005   8.2005   8.2540   8.2540
     8.2623   8.2694   8.2824   8.2838   8.2838   8.2898   8.2898   8.2982
     8.2982   8.3097   8.3192   8.3363   8.3386   8.3386   8.3463   8.3463
     8.3490   8.3522   8.3522   8.3658   8.3815   8.3815   8.3888   8.3888
     8.3895   8.4125   8.4147   8.4147   8.4529   8.4529   8.4627   8.4738
     8.4738   8.5305   8.5305   8.5391   8.5634   8.5753   8.5857   8.5858
     8.5993   8.7398   8.7398   8.9003   8.9003   8.9020   9.0667   9.0667
     9.1149   9.1214   9.1252   9.1253   9.1939   9.1939   9.1940   9.2093
     9.2397   9.2397   9.2636   9.2637   9.2659   9.2987   9.2988   9.3263
     9.4214   9.4215   9.4786  10.0884  10.2485  10.2487  10.5105  10.5106
    10.5506  10.5507  10.5526  10.5801  10.6087  10.6088  10.6174  10.6379
    10.6494  10.6494  10.6778  10.7505  10.7507  10.8097  10.8098  10.8121
    10.8293  10.8295  10.8471  10.8664  10.8665  10.8798  10.8799  10.9200
    10.9215  10.9215  10.9499  10.9540  10.9542  11.5144  11.5154  11.5155
    11.7236  11.7417  11.7418  11.7740  11.7995  11.7996  11.8580  11.9363
    11.9363  12.3815  13.0403  13.0406  13.0706  14.7518  16.5350  16.5355
    17.2596  17.2597  17.2881  17.3213  17.3213  17.3369  17.8565  17.9248
    17.9248  17.9369  17.9369  18.0115  18.0654  18.0654  18.1389  18.1755
    18.1755  18.2045  18.8395  18.8398  18.8493  19.3780  19.4367  19.4367
    19.4494  19.4802  19.4802  19.4904  19.4905  19.5046  19.5102  19.5102
    19.5387  19.9901  20.1462  20.1462  20.1677  20.1715  20.1715  20.1827
    20.1865  20.1866  20.2004  20.2004  20.2312  20.2313  20.2360  20.2515
    20.2760  20.2786  20.2786  20.3038  20.3038  20.3224  20.3413  20.3534
    20.3534  20.6266  20.6350  20.6362  20.6363  20.6509  20.6572  20.6573
    20.6726  20.6796  20.6797  20.6984  20.6985  20.7008  20.7438  20.7439
    20.7792  20.7793  20.7822  20.8104  20.8104  20.8232  20.8262  20.8446
    20.8446  20.8557  20.8572  20.8572  20.8752  20.8752  20.8764  20.8892
    20.8892  20.8956  20.8957  20.9339  20.9416  20.9874  21.0001  21.0001
    21.0608  21.0609  21.0678  21.1757  21.2646  21.2647  21.2772  21.3068
    21.3068  21.3073  21.3073  21.3104  21.3338  21.3387  21.3389  21.3520
    21.3521  21.3631  21.3750  21.3751  21.3834  21.3974  21.3975  21.4217
    21.4227  21.4228  21.4301  21.4302  21.4337  21.4623  21.4623  21.4780
    21.4781  21.4956  21.5026  21.5371  21.5371  21.5419  21.5740  21.5778
    21.6009  21.6009  21.6024  21.6414  21.6415  21.6632  21.6632  21.6846
    21.7160  21.7161  21.7253  21.7350  21.7350  21.7485  21.8066  21.8066
    21.8162  21.9521  21.9804  21.9805  22.0247  22.0247  22.0813  22.0813
    22.0973  22.1587  22.1616  22.1616  22.1997  22.1998  22.2056  22.3145
    22.3329  22.3330  22.4344  22.4585  22.4586  22.4820  22.4820  22.4870
    22.7213  22.7623  22.7623  22.9362  23.0147  23.0147  23.0185  23.0718
    23.0790  23.0790  23.0880  23.0880  23.1017  23.1017  23.1162  23.1231
    23.1232  23.1232  23.1480  23.2100  23.2379  23.2380  23.2630  23.3206
    23.3390  23.3391  23.3718  23.3719  23.4517  23.4770  23.4771  23.7345
    23.7438  23.7438  23.7554  23.7730  23.7927  23.7928  23.8078  23.8079
    23.8436  23.8436  23.8508  23.8524  23.8525  23.8734  23.8869  23.9627
    23.9869  23.9870  23.9948  24.0747  24.0747  24.1607  24.1607  24.1843
    24.2047  24.2120  24.2120  24.2247  24.2268  24.2269  24.2419  24.2419
    24.2516  24.3140  24.3168  24.3169  24.3607  24.3608  24.3757  24.3932
    24.3932  24.4030  24.4093  24.4093  24.4227  24.4487  24.4637  24.4637
    24.4777  24.4948  24.4948  24.4985  24.4985  24.5178  24.5192  24.5605
    24.5605  24.5717  24.5717  24.6460  24.7123  24.7123  24.7148  25.0004
    25.0005  25.0360  25.0361  25.5860  25.6000  25.6000  25.6576  25.7272
    25.7692  25.7692  25.7790  25.7790  25.9798  25.9989  25.9990  26.0008
    26.0561  26.0562  26.1082  26.1109  26.1574  26.1574  26.2303  26.3190
    26.3190  26.4259  26.5637  26.5637  26.5886  26.6025  26.6096  26.6186
    26.6186  26.6384  26.6384  26.6566  26.6566  26.6725  26.7298  26.7299
    26.7378  26.7429  26.7606  26.7606  26.8192  26.8192  26.8221  26.9529
    26.9529  27.0345  27.0374  27.0375  27.0458  27.0458  27.0505  27.0621
    27.0696  27.0716  27.0717  27.0732  27.0732  27.1210  27.1210  27.1559
    27.1601  27.1918  27.1919  27.2295  27.2296  27.2372  27.2372  27.2465
    27.2506  27.2639  27.2728  27.2794  27.2795  27.2830  27.2966  27.2967
    27.3053  27.3053  27.3094  27.3273  27.3305  27.3305  27.3429  27.3429
    27.3438  27.3625  27.3625  27.3789  27.3885  27.3885  27.4065  27.4331
    27.4415  27.4416  27.4488  27.4692  27.4692  27.5093  27.5093  27.5280
    27.5280  27.5302  27.5380  27.5534  27.5534  27.5546  27.5711  27.5862
    27.5863  27.5983  27.5999  27.6084  27.6084  27.6243  27.6243  27.7075
    27.7076  27.7339  27.7340  27.7862  27.8056  27.8602  27.8950  27.9020
    27.9020  27.9423  27.9423  28.0065  28.0749  28.0749  28.1338  28.1479
    28.1479  28.2305  28.2305  28.3038  28.3495  28.4206  28.4206  28.5115
    28.5481  28.5481  28.7786  28.8766  28.8766  28.9294  29.7516  29.8076
    29.8077  29.9520  29.9838  29.9839  30.0111  30.0516  30.0517

     occupation numbers 
     1.0000   1.0000   1.0000   1.0000   1.0000   1.0000   1.0000   1.0000
     1.0000   1.0000   1.0000   1.0000   1.0000   1.0000   1.0000   1.0000
     1.0000   1.0000   1.0000   1.0000   1.0000   1.0000   1.0000   1.0000
     1.0000   1.0000   1.0000   1.0000   1.0000   1.0000   1.0000   1.0000
     1.0000   1.0000   1.0000   1.0000   1.0000   1.0000   1.0000   1.0000
     1.0000   1.0000   1.0000   1.0000   1.0000   1.0000   1.0000   1.0000
     1.0000   1.0000   1.0000   1.0000   1.0000   1.0000   1.0000   1.0000
     1.0000   1.0000   1.0000   1.0000   1.0000   1.0000   1.0000   1.0000
     1.0000   1.0000   1.0000   1.0000   1.0000   1.0000   1.0000   1.0000
     1.0000   1.0000   1.0000   1.0000   1.0000   1.0000   1.0000   1.0000
     1.0000   1.0000   1.0000   1.0000   1.0000   1.0000   1.0000   1.0000
     1.0000   1.0000   1.0000   1.0000   1.0000   1.0000   1.0000   1.0000
     1.0000   1.0000   1.0000   1.0000   1.0000   1.0000   1.0000   1.0000
     1.0000   1.0000   1.0000   1.0000   1.0000   1.0000   1.0000   1.0000
     1.0000   1.0000   1.0000   1.0000   1.0000   1.0000   1.0000   1.0000
     1.0000   1.0000   1.0000   1.0000   1.0000   1.0000   1.0000   1.0000
     1.0000   1.0000   1.0000   1.0000   1.0000   1.0000   1.0000   1.0000
     1.0000   1.0000   1.0000   1.0000   1.0000   1.0000   1.0000   1.0000
     1.0000   1.0000   1.0000   1.0000   1.0000   1.0000   1.0000   1.0000
     1.0000   1.0000   1.0000   1.0000   1.0000   1.0000   1.0000   1.0000
     1.0000   1.0000   1.0000   1.0000   1.0000   1.0000   1.0000   1.0000
     1.0000   1.0000   1.0000   1.0000   1.0000   1.0000   1.0000   1.0000
     1.0000   1.0000   1.0000   1.0000   1.0000   1.0000   1.0000   1.0000
     1.0000   1.0000   1.0000   1.0000   1.0000   1.0000   1.0000   1.0000
     1.0000   1.0000   1.0000   1.0000   1.0000   1.0000   1.0000   1.0000
     1.0000   1.0000   1.0000   1.0000   1.0000   1.0000   1.0000   1.0000
     1.0000   1.0000   1.0000   1.0000   1.0000   1.0000   1.0000   1.0000
     1.0000   1.0000   1.0000   1.0000   1.0000   1.0000   1.0000   1.0000
     1.0000   1.0000   1.0000   1.0000   1.0000   1.0000   1.0000   1.0000
     1.0000   1.0000   1.0000   1.0000   1.0000   1.0000   1.0000   1.0000
     1.0000   1.0000   1.0000   1.0000   1.0000   1.0000   1.0000   1.0000
     1.0000   1.0000   1.0000   1.0000   1.0000   1.0000   1.0000   1.0000
     1.0000   1.0000   1.0000   1.0000   1.0000   1.0000   1.0000   1.0000
     1.0000   1.0000   1.0000   1.0000   1.0000   1.0000   1.0000   1.0000
     1.0000   1.0000   1.0000   1.0000   1.0000   1.0000   1.0000   1.0000
     1.0000   1.0000   1.0000   1.0000   1.0000   1.0000   1.0000   1.0000
     1.0000   1.0000   1.0000   1.0000   1.0000   1.0000   1.0000   1.0000
     1.0000   1.0000   1.0000   1.0000   1.0000   1.0000   1.0000   1.0000
     1.0000   1.0000   1.0000   1.0000   1.0000   1.0000   1.0000   1.0000
     1.0000   1.0000   1.0000   1.0000   1.0000   1.0000   1.0000   1.0000
     1.0000   1.0000   1.0000   1.0000   1.0000   1.0000   1.0000   1.0000
     1.0000   1.0000   1.0000   1.0000   1.0000   1.0000   1.0000   1.0000
     1.0000   1.0000   1.0000   1.0000   1.0000   1.0000   1.0000   1.0000
     1.0000   1.0000   1.0000   1.0000   1.0000   1.0000   1.0000   1.0000
     1.0000   1.0000   1.0000   1.0000   1.0000   1.0000   1.0000   1.0000
     1.0000   1.0000   1.0000   1.0000   1.0000   1.0000   1.0000   1.0000
     1.0000   1.0000   1.0000   1.0000   1.0000   1.0000   1.0000   1.0000
     1.0000   1.0000   1.0000   1.0000   1.0000   1.0000   1.0000   1.0000
     1.0000   1.0000   1.0000   1.0000   1.0000   1.0000   1.0000   1.0000
     1.0000   1.0000   1.0000   1.0000   1.0000   1.0000   1.0000   1.0000
     1.0000   1.0000   1.0000   1.0000   1.0000   1.0000   1.0000   1.0000
     1.0000   1.0000   1.0000   1.0000   1.0000   1.0000   1.0000   1.0000
     1.0000   1.0000   1.0000   1.0000   1.0000   1.0000   1.0000   1.0000
     1.0000   1.0000   1.0000   1.0000   1.0000   1.0000   0.5019   0.4981
     0.0000   0.0000   0.0000   0.0000   0.0000   0.0000   0.0000   0.0000
     0.0000   0.0000   0.0000   0.0000   0.0000   0.0000   0.0000   0.0000
     0.0000   0.0000   0.0000   0.0000   0.0000   0.0000   0.0000   0.0000
     0.0000   0.0000   0.0000   0.0000   0.0000   0.0000   0.0000   0.0000
     0.0000   0.0000   0.0000   0.0000   0.0000   0.0000   0.0000   0.0000
     0.0000   0.0000   0.0000   0.0000   0.0000   0.0000   0.0000   0.0000
     0.0000   0.0000   0.0000   0.0000   0.0000   0.0000   0.0000   0.0000
     0.0000   0.0000   0.0000   0.0000   0.0000   0.0000   0.0000   0.0000
     0.0000   0.0000   0.0000   0.0000   0.0000   0.0000   0.0000   0.0000
     0.0000   0.0000   0.0000   0.0000   0.0000   0.0000   0.0000   0.0000
     0.0000   0.0000   0.0000   0.0000   0.0000   0.0000   0.0000   0.0000
     0.0000   0.0000   0.0000   0.0000   0.0000   0.0000   0.0000   0.0000
     0.0000   0.0000   0.0000   0.0000   0.0000   0.0000   0.0000   0.0000
     0.0000   0.0000   0.0000   0.0000   0.0000   0.0000   0.0000   0.0000
     0.0000   0.0000   0.0000   0.0000   0.0000   0.0000   0.0000   0.0000
     0.0000   0.0000   0.0000   0.0000   0.0000   0.0000   0.0000   0.0000
     0.0000   0.0000   0.0000   0.0000   0.0000   0.0000   0.0000   0.0000
     0.0000   0.0000   0.0000   0.0000   0.0000   0.0000   0.0000   0.0000
     0.0000   0.0000   0.0000   0.0000   0.0000   0.0000   0.0000   0.0000
     0.0000   0.0000   0.0000   0.0000   0.0000   0.0000   0.0000   0.0000
     0.0000   0.0000   0.0000   0.0000   0.0000   0.0000   0.0000   0.0000
     0.0000   0.0000   0.0000   0.0000   0.0000   0.0000   0.0000   0.0000
     0.0000   0.0000   0.0000   0.0000   0.0000   0.0000   0.0000   0.0000
     0.0000   0.0000   0.0000   0.0000   0.0000   0.0000   0.0000   0.0000
     0.0000   0.0000   0.0000   0.0000   0.0000   0.0000   0.0000   0.0000
     0.0000   0.0000   0.0000   0.0000   0.0000   0.0000   0.0000   0.0000
     0.0000   0.0000   0.0000   0.0000   0.0000   0.0000   0.0000   0.0000
     0.0000   0.0000   0.0000   0.0000   0.0000   0.0000   0.0000   0.0000
     0.0000   0.0000   0.0000   0.0000   0.0000   0.0000   0.0000   0.0000
     0.0000   0.0000   0.0000   0.0000   0.0000   0.0000   0.0000   0.0000
     0.0000   0.0000   0.0000   0.0000   0.0000   0.0000   0.0000   0.0000
     0.0000   0.0000   0.0000   0.0000   0.0000   0.0000   0.0000   0.0000
     0.0000   0.0000   0.0000   0.0000   0.0000   0.0000   0.0000   0.0000
     0.0000   0.0000   0.0000   0.0000   0.0000   0.0000   0.0000   0.0000
     0.0000   0.0000   0.0000   0.0000   0.0000   0.0000   0.0000   0.0000
     0.0000   0.0000   0.0000   0.0000   0.0000   0.0000   0.0000   0.0000
     0.0000   0.0000   0.0000   0.0000   0.0000   0.0000   0.0000   0.0000
     0.0000   0.0000   0.0000   0.0000   0.0000   0.0000   0.0000   0.0000
     0.0000   0.0000   0.0000   0.0000   0.0000   0.0000   0.0000   0.0000
     0.0000   0.0000   0.0000   0.0000   0.0000   0.0000   0.0000   0.0000
     0.0000   0.0000   0.0000   0.0000   0.0000   0.0000   0.0000   0.0000
     0.0000   0.0000   0.0000   0.0000   0.0000   0.0000   0.0000   0.0000
     0.0000   0.0000   0.0000   0.0000   0.0000   0.0000   0.0000   0.0000
     0.0000   0.0000   0.0000   0.0000   0.0000   0.0000   0.0000   0.0000
     0.0000   0.0000   0.0000   0.0000   0.0000   0.0000   0.0000   0.0000
     0.0000   0.0000   0.0000   0.0000   0.0000   0.0000   0.0000   0.0000
     0.0000   0.0000   0.0000   0.0000   0.0000   0.0000   0.0000   0.0000
     0.0000   0.0000   0.0000   0.0000   0.0000   0.0000   0.0000   0.0000
     0.0000   0.0000   0.0000   0.0000   0.0000   0.0000   0.0000   0.0000
     0.0000   0.0000   0.0000   0.0000   0.0000   0.0000   0.0000   0.0000
     0.0000   0.0000   0.0000   0.0000   0.0000   0.0000   0.0000   0.0000
     0.0000   0.0000   0.0000   0.0000   0.0000   0.0000   0.0000   0.0000
     0.0000   0.0000   0.0000   0.0000   0.0000   0.0000   0.0000   0.0000
     0.0000   0.0000   0.0000   0.0000   0.0000   0.0000   0.0000

     the spin up/dw Fermi energies are    16.4477   16.5353 ev
     (compare with:    16.4486   16.5350 eV, computed in scf)

     Writing all to output data dir ../tmp/diamond_pd.save/ :
     XML data file, pseudopotentials, collected wavefunctions
 
     init_run     :      1.40s CPU      1.72s WALL (       1 calls)
     electrons    :    629.79s CPU    638.31s WALL (       1 calls)

     Called by init_run:
     wfcinit      :      0.00s CPU      0.00s WALL (       1 calls)
     wfcinit:wfcr :      9.46s CPU      9.63s WALL (       2 calls)
     potinit      :      1.01s CPU      1.25s WALL (       1 calls)
     hinit0       :      0.17s CPU      0.19s WALL (       1 calls)

     Called by electrons:
     c_bands      :    629.79s CPU    638.29s WALL (       1 calls)
     v_of_rho     :      0.05s CPU      0.05s WALL (       1 calls)
     v_h          :      0.00s CPU      0.00s WALL (       1 calls)
     v_xc         :      0.05s CPU      0.05s WALL (       1 calls)
     newd         :      0.14s CPU      0.18s WALL (       1 calls)
     PAW_pot      :      0.95s CPU      1.07s WALL (       1 calls)

     Called by c_bands:
     init_us_2    :      0.13s CPU      0.16s WALL (       2 calls)
     cegterg      :    619.92s CPU    628.15s WALL (       8 calls)

     Called by sum_band:

     Called by *egterg:
     cdiaghg      :    108.71s CPU    112.63s WALL (     131 calls)
     cegterg:over :     84.95s CPU     85.50s WALL (     129 calls)
     cegterg:upda :     56.34s CPU     56.80s WALL (     129 calls)
     cegterg:last :    157.84s CPU    158.86s WALL (      64 calls)
     cdiaghg:chol :     10.02s CPU     10.07s WALL (     131 calls)
     cdiaghg:inve :      4.30s CPU      4.33s WALL (     131 calls)
     cdiaghg:para :     39.13s CPU     42.10s WALL (     262 calls)
     h_psi        :    153.85s CPU    155.53s WALL (     139 calls)
     s_psi        :     57.27s CPU     57.62s WALL (     139 calls)
     g_psi        :      0.92s CPU      0.93s WALL (     129 calls)

     Called by h_psi:
     h_psi:calbec :     56.19s CPU     56.54s WALL (     139 calls)
     vloc_psi     :     38.47s CPU     39.20s WALL (     139 calls)
     add_vuspsi   :     57.62s CPU     58.02s WALL (     139 calls)

     General routines
     calbec       :     56.18s CPU     56.54s WALL (     139 calls)
     fft          :      0.02s CPU      0.04s WALL (      21 calls)
     fftw         :     33.35s CPU     33.99s WALL (  109078 calls)
 
     Parallel routines

     PAW routines
     PAW_pot      :      0.95s CPU      1.07s WALL (       1 calls)
 
     PWSCF        :  10m32.26s CPU  10m52.20s WALL

 
   This run was terminated on:   7:26:48   8Aug2026            

=------------------------------------------------------------------------------=
   JOB DONE.
=------------------------------------------------------------------------------=
