
     Program PWSCF v.7.4.1 starts on  7Aug2026 at 17: 9: 0 

     This program is part of the open-source Quantum ESPRESSO suite
     for quantum simulation of materials; please cite
         "P. Giannozzi et al., J. Phys.:Condens. Matter 21 395502 (2009);
         "P. Giannozzi et al., J. Phys.:Condens. Matter 29 465901 (2017);
         "P. Giannozzi et al., J. Chem. Phys. 152 154105 (2020);
          URL http://www.quantum-espresso.org", 
     in publications or presentations arising from this work. More details at
     http://www.quantum-espresso.org/quote

     Parallel version (MPI), running on    28 processors

     MPI processes distributed on     1 nodes
     91983 MiB available memory on the printing compute node when the environment starts
 
     Reading input from diamond_pd_scf.in

     Current dimensions of program PWSCF are:
     Max number of different atomic species (ntypx) = 10
     Max number of k-points (npk) =  40000
     Max angular momentum in pseudopotentials (lmaxx) =  4
     file C.pbe-n-kjpaw_psl.1.0.0.UPF: wavefunction(s)  2S 2P renormalized
     file N.pbe-n-kjpaw_psl.1.0.0.UPF: wavefunction(s)  2S renormalized
 
     R & G space division:  proc/nbgrp/npool/nimage =      28
     Subspace diagonalization in iterative solution of the eigenvalue problem:
     one sub-group per band group will be used
     scalapack distributed-memory algorithm (size of sub-group:  5*  5 procs)

 
     Parallelization info
     --------------------
     sticks:   dense  smooth     PW     G-vecs:    dense   smooth      PW
     Min         209     209     52                12095    12095    1512
     Max         210     210     53                12100    12100    1515
     Sum        5877    5877   1473               338755   338755   42379
 
     Using Slab Decomposition
 


     bravais-lattice index     =            0
     lattice parameter (alat)  =      20.2515  a.u.
     unit-cell volume          =    8305.5769 (a.u.)^3
     number of atoms/cell      =          215
     number of atomic types    =            2
     number of electrons       =       863.00 (up: 432.00, down: 431.00)
     number of Kohn-Sham states=          863
     kinetic-energy cutoff     =      45.0000  Ry
     charge density cutoff     =     180.0000  Ry
     scf convergence threshold =      1.0E-08
     mixing beta               =       0.7000
     number of iterations used =            8  plain     mixing
     Exchange-correlation= SLA  PW   PBX  PBC
                           (   1   4   3   4   0   0   0)

     celldm(1)=  20.251472  celldm(2)=   0.000000  celldm(3)=   0.000000
     celldm(4)=   0.000000  celldm(5)=   0.000000  celldm(6)=   0.000000

     crystal axes: (cart. coord. in units of alat)
               a(1) = (  -0.707107   0.000000   0.707107 )  
               a(2) = (   0.408248   0.816497   0.408248 )  
               a(3) = (  -0.577350   0.577350  -0.577350 )  

     reciprocal axes: (cart. coord. in units 2 pi/alat)
               b(1) = ( -0.707107  0.000000  0.707107 )  
               b(2) = (  0.408248  0.816497  0.408248 )  
               b(3) = ( -0.577350  0.577350 -0.577350 )  


     PseudoPot. # 1 for C  read from file:
     ../../../pseudos/C.pbe-n-kjpaw_psl.1.0.0.UPF
     MD5 check sum: 5f16ad9a65e90284d1d834d4ab3b0f7d
     Pseudo is Projector augmented-wave + core cor, Zval =  4.0
     Generated using &quot;atomic&quot; code by A. Dal Corso  v.6.3
     Shape of augmentation charge: PSQ
     Using radial grid of 1073 points,  4 beta functions with: 
                l(1) =   0
                l(2) =   0
                l(3) =   1
                l(4) =   1
     Q(r) pseudized with 0 coefficients 


     PseudoPot. # 2 for N  read from file:
     ../../../pseudos/N.pbe-n-kjpaw_psl.1.0.0.UPF
     MD5 check sum: a6186d50559fdcbe4b2d0187dd61a119
     Pseudo is Projector augmented-wave + core cor, Zval =  5.0
     Generated using &quot;atomic&quot; code by A. Dal Corso  v.6.3
     Shape of augmentation charge: PSQ
     Using radial grid of 1085 points,  4 beta functions with: 
                l(1) =   0
                l(2) =   0
                l(3) =   1
                l(4) =   1
     Q(r) pseudized with 0 coefficients 


     atomic species   valence    mass     pseudopotential
     C                 4.00    12.01070     C ( 1.00)
     N                 5.00    14.00670     N ( 1.00)

     Starting magnetic structure 
     atomic species   magnetization
     C               0.000
     N               0.000

     No symmetry found


                                    s                        frac. trans.

      isym =  1     identity                                     

 cryst.   s( 1) = (     1          0          0      )
                  (     0          1          0      )
                  (     0          0          1      )

 cart.    s( 1) = (  1.0000000  0.0000000  0.0000000 )
                  (  0.0000000  1.0000000  0.0000000 )
                  (  0.0000000  0.0000000  1.0000000 )


   Cartesian axes

     site n.     atom                  positions (alat units)
         1        C      tau(   1) = (  -0.0001151   0.0001138   0.0000875  )
         2        C      tau(   2) = (  -0.1925550   0.1927793  -0.1921970  )
         3        C      tau(   3) = (  -0.3849808   0.3849422  -0.3848677  )
         4        C      tau(   4) = (   0.1357563   0.2724410   0.1361143  )
         5        C      tau(   5) = (  -0.0570434   0.4655886  -0.0559274  )
         6        C      tau(   6) = (  -0.2488377   0.6572212  -0.2488784  )
         7        C      tau(   7) = (   0.2721217   0.5443820   0.2722349  )
         8        C      tau(   8) = (   0.0797375   0.7369469   0.0796968  )
         9        C      tau(   9) = (  -0.1130613   0.9286843  -0.1122753  )
        10        C      tau(  10) = (  -0.2357545   0.0002439   0.2356954  )
        11        C      tau(  11) = (  -0.4283099   0.1925672   0.0431694  )
        12        C      tau(  12) = (  -0.6205103   0.3849644  -0.1490220  )
        13        C      tau(  13) = (  -0.0995712   0.2723326   0.3719081  )
        14        C      tau(  14) = (  -0.2949230   0.4654108   0.1819954  )
        15        C      tau(  15) = (  -0.4816682   0.6577694  -0.0130543  )
        16        C      tau(  16) = (   0.0362799   0.5443284   0.5077682  )
        17        C      tau(  17) = (  -0.1561302   0.7367581   0.3124837  )
        18        C      tau(  18) = (  -0.3494697   0.9281632   0.1242595  )
        19        C      tau(  19) = (  -0.4714054   0.0000155   0.4714016  )
        20        C      tau(  20) = (  -0.6639980   0.1923451   0.2788629  )
        21        C      tau(  21) = (  -0.8561912   0.3851207   0.0865497  )
        22        C      tau(  22) = (  -0.3352122   0.2721219   0.6076487  )
        23        C      tau(  23) = (  -0.5282150   0.4642055   0.4155799  )
        24        C      tau(  24) = (  -0.7187365   0.6569546   0.2225784  )
        25        C      tau(  25) = (  -0.1993318   0.5445015   0.7434092  )
        26        C      tau(  26) = (  -0.3916120   0.7363284   0.5497029  )
        27        C      tau(  27) = (  -0.5842074   0.9294027   0.3586965  )
        28        C      tau(  28) = (  -0.0499457   0.1363700   0.1858909  )
        29        C      tau(  29) = (  -0.2428108   0.3297944  -0.0056309  )
        30        C      tau(  30) = (  -0.4347612   0.5211047  -0.1990492  )
        31        C      tau(  31) = (   0.0860330   0.4084005   0.3220867  )
        32        C      tau(  32) = (  -0.1073301   0.6034308   0.1303573  )
        33        C      tau(  33) = (  -0.2994374   0.7914676  -0.0624685  )
        34        C      tau(  34) = (   0.2223122   0.6804633   0.4581259  )
        35        C      tau(  35) = (   0.0299208   0.8730485   0.2656149  )
        36        C      tau(  36) = (  -0.1628610   1.0647402   0.0735804  )
        37        C      tau(  37) = (  -0.2854085   0.1360543   0.4217774  )
        38        C      tau(  38) = (  -0.4783238   0.3278987   0.2293832  )
        39        C      tau(  39) = (  -0.6691292   0.5214214   0.0374364  )
        40        C      tau(  40) = (  -0.1493424   0.4083105   0.5576576  )
        41        C      tau(  41) = (  -0.3434336   0.5979472   0.3630396  )
        42        C      tau(  42) = (  -0.5315759   0.7941265   0.1732136  )
        43        C      tau(  43) = (  -0.0136052   0.6805032   0.6935386  )
        44        C      tau(  44) = (  -0.2060670   0.8727285   0.5002360  )
        45        C      tau(  45) = (  -0.3982861   1.0655220   0.3088716  )
        46        C      tau(  46) = (  -0.5212512   0.1361971   0.6574286  )
        47        C      tau(  47) = (  -0.7138898   0.3286532   0.4650623  )
        48        C      tau(  48) = (  -0.9059806   0.5211493   0.2723675  )
        49        C      tau(  49) = (  -0.3851598   0.4084300   0.7932867  )
        50        C      tau(  50) = (  -0.5777629   0.6008818   0.6009361  )
        51        C      tau(  51) = (  -0.7699115   0.7931387   0.4085542  )
        52        C      tau(  52) = (  -0.2491354   0.6804503   0.9294448  )
        53        C      tau(  53) = (  -0.4414683   0.8728235   0.7367606  )
        54        C      tau(  54) = (  -0.6340399   1.0653845   0.5446343  )
        55        C      tau(  55) = (  -0.2141462   0.0965282   0.0216904  )
        56        C      tau(  56) = (  -0.4066773   0.2888489  -0.1706236  )
        57        C      tau(  57) = (  -0.5990552   0.4811661  -0.3632415  )
        58        C      tau(  58) = (  -0.0792067   0.3694914   0.1579733  )
        59        C      tau(  59) = (  -0.2719289   0.5634925  -0.0342414  )
        60        C      tau(  60) = (  -0.4629434   0.7534596  -0.2272493  )
        61        C      tau(  61) = (   0.0580995   0.6406928   0.2938115  )
        62        C      tau(  62) = (  -0.1344311   0.8315049   0.1025378  )
        63        C      tau(  63) = (  -0.3270951   1.0248903  -0.0906537  )
        64        C      tau(  64) = (  -0.4499461   0.0961308   0.2572397  )
        65        C      tau(  65) = (  -0.6422213   0.2887180   0.0647786  )
        66        C      tau(  66) = (  -0.8344917   0.4813227  -0.1273479  )
        67        C      tau(  67) = (  -0.3137883   0.3678217   0.3939188  )
        68        C      tau(  68) = (  -0.5034164   0.5591288   0.2030568  )
        69        C      tau(  69) = (  -0.6975281   0.7534800   0.0087748  )
        70        C      tau(  70) = (  -0.1784001   0.6404922   0.5281655  )
        71        C      tau(  71) = (  -0.3706386   0.8331765   0.3341510  )
        72        C      tau(  72) = (  -0.5625744   1.0256590   0.1445833  )
        73        C      tau(  73) = (  -0.6856365   0.0963106   0.4930433  )
        74        C      tau(  74) = (  -0.8778840   0.2888751   0.3005625  )
        75        C      tau(  75) = (  -1.0703747   0.4811842   0.1082055  )
        76        C      tau(  76) = (  -0.5496420   0.3685064   0.6293101  )
        77        C      tau(  77) = (  -0.7419027   0.5610548   0.4367963  )
        78        C      tau(  78) = (  -0.9340430   0.7533048   0.2441858  )
        79        C      tau(  79) = (  -0.4133220   0.6406883   0.7650260  )
        80        C      tau(  80) = (  -0.6058320   0.8329511   0.5726337  )
        81        C      tau(  81) = (  -0.7983044   1.0255272   0.3803698  )
        82        C      tau(  82) = (  -0.0285271   0.2327737  -0.0279532  )
        83        C      tau(  83) = (  -0.2207029   0.4247002  -0.2212274  )
        84        C      tau(  84) = (  -0.4131124   0.6173475  -0.4129796  )
        85        C      tau(  85) = (   0.1084874   0.5045752   0.1079629  )
        86        C      tau(  86) = (  -0.0851253   0.6971577  -0.0840336  )
        87        C      tau(  87) = (  -0.2770743   0.8896305  -0.2778641  )
        88        C      tau(  88) = (   0.2438469   0.7767526   0.2439797  )
        89        C      tau(  89) = (   0.0523074   0.9695519   0.0515176  )
        90        C      tau(  90) = (  -0.1410793   1.1613605  -0.1407140  )
        91        C      tau(  91) = (  -0.2640411   0.2318276   0.2077903  )
        92        C      tau(  92) = (  -0.4561510   0.4253195   0.0153937  )
        93        C      tau(  93) = (  -0.6490506   0.6172380  -0.1779552  )
        94        C      tau(  94) = (  -0.1282462   0.5048826   0.3432986  )
        95        C      tau(  95) = (  -0.5122378   0.8891405  -0.0408869  )
        96        C      tau(  96) = (   0.0088222   0.7768647   0.4799175  )
        97        C      tau(  97) = (  -0.1845024   0.9686624   0.2868485  )
        98        C      tau(  98) = (  -0.3769511   1.1624979   0.0948818  )
        99        C      tau(  99) = (  -0.4997172   0.2322133   0.4433728  )
       100        C      tau( 100) = (  -0.6924142   0.4243785   0.2510644  )
       101        C      tau( 101) = (  -0.8840485   0.6173215   0.0584720  )
       102        C      tau( 102) = (  -0.3637120   0.5041351   0.5797666  )
       103        C      tau( 103) = (  -0.5555788   0.6969647   0.3864668  )
       104        C      tau( 104) = (  -0.7488669   0.8899471   0.1945733  )
       105        C      tau( 105) = (  -0.2275839   0.7766065   0.7149367  )
       106        C      tau( 106) = (  -0.4201861   0.9696985   0.5232541  )
       107        C      tau( 107) = (  -0.6123188   1.1615897   0.3304699  )
       108        C      tau( 108) = (  -0.0731869   0.1164668   0.0449273  )
       109        C      tau( 109) = (  -0.2657249   0.3091690  -0.1473086  )
       110        C      tau( 110) = (  -0.4579962   0.5010957  -0.3400126  )
       111        C      tau( 111) = (   0.0626258   0.3888403   0.1810422  )
       112        C      tau( 112) = (  -0.1303593   0.5817708  -0.0108020  )
       113        C      tau( 113) = (  -0.3215344   0.7743436  -0.2049950  )
       114        C      tau( 114) = (   0.1990837   0.6605301   0.3170673  )
       115        C      tau( 115) = (   0.0074240   0.8541623   0.1239635  )
       116        C      tau( 116) = (  -0.1859713   1.0450585  -0.0676024  )
       117        C      tau( 117) = (  -0.3087473   0.1159803   0.2806057  )
       118        C      tau( 118) = (  -0.5012415   0.3086593   0.0881434  )
       119        C      tau( 119) = (  -0.6931511   0.5012930  -0.1041295  )
       120        C      tau( 120) = (  -0.1727079   0.3883749   0.4166771  )
       121        C      tau( 121) = (  -0.5562061   0.7731845   0.0322165  )
       122        C      tau( 122) = (  -0.0368250   0.6605445   0.5521966  )
       123        C      tau( 123) = (  -0.2294416   0.8524709   0.3589811  )
       124        C      tau( 124) = (  -0.4212817   1.0468597   0.1672710  )
       125        C      tau( 125) = (  -0.5445148   0.1161562   0.5163306  )
       126        C      tau( 126) = (  -0.7371402   0.3085393   0.3238825  )
       127        C      tau( 127) = (  -0.9291342   0.5012060   0.1313959  )
       128        C      tau( 128) = (  -0.4084232   0.3882995   0.6525995  )
       129        C      tau( 129) = (  -0.6008612   0.5808261   0.4599291  )
       130        C      tau( 130) = (  -0.7927140   0.7733065   0.2674493  )
       131        C      tau( 131) = (  -0.2723430   0.6605703   0.7881871  )
       132        C      tau( 132) = (  -0.4647396   0.8528864   0.5954237  )
       133        C      tau( 133) = (  -0.6572393   1.0454377   0.4035735  )
       134        C      tau( 134) = (  -0.1230755   0.2525699   0.2308353  )
       135        C      tau( 135) = (  -0.3162224   0.4468644   0.0394434  )
       136        C      tau( 136) = (  -0.5088514   0.6370486  -0.1545585  )
       137        C      tau( 137) = (   0.0130435   0.5245838   0.3667372  )
       138        C      tau( 138) = (  -0.1689897   0.7190953   0.1755670  )
       139        C      tau( 139) = (  -0.3716313   0.9085666  -0.0174327  )
       140        C      tau( 140) = (   0.1494236   0.7968011   0.5032498  )
       141        C      tau( 141) = (  -0.0432850   0.9890880   0.3104062  )
       142        C      tau( 142) = (  -0.2356600   1.1815458   0.1180809  )
       143        C      tau( 143) = (  -0.3585557   0.2519674   0.4667370  )
       144        C      tau( 144) = (  -0.5521724   0.4436998   0.2744982  )
       145        C      tau( 145) = (  -0.7425795   0.6373486   0.0817186  )
       146        C      tau( 146) = (  -0.2225948   0.5244611   0.6022447  )
       147        C      tau( 147) = (  -0.4148743   0.7163884   0.4076176  )
       148        C      tau( 148) = (  -0.6085566   0.9094539   0.2175565  )
       149        C      tau( 149) = (  -0.0865155   0.7965473   0.7383774  )
       150        C      tau( 150) = (  -0.2789516   0.9890117   0.5459506  )
       151        C      tau( 151) = (  -0.4711516   1.1816265   0.3537627  )
       152        C      tau( 152) = (  -0.5944867   0.2524984   0.7022991  )
       153        C      tau( 153) = (  -0.7869125   0.4449351   0.5098342  )
       154        C      tau( 154) = (  -0.9790071   0.6372623   0.3172539  )
       155        C      tau( 155) = (  -0.4579345   0.5242822   0.8380891  )
       156        C      tau( 156) = (  -0.6507917   0.7169733   0.6457981  )
       157        C      tau( 157) = (  -0.8431295   0.9093302   0.4533348  )
       158        C      tau( 158) = (  -0.3221934   0.7966495   0.9743212  )
       159        C      tau( 159) = (  -0.5142616   0.9895240   0.7816620  )
       160        C      tau( 160) = (  -0.7070767   1.1814338   0.5895101  )
       161        C      tau( 161) = (  -0.2872852   0.2127260   0.0666256  )
       162        C      tau( 162) = (  -0.4795227   0.4050672  -0.1258290  )
       163        C      tau( 163) = (  -0.6723941   0.5973947  -0.3185679  )
       164        C      tau( 164) = (  -0.1526850   0.4865453   0.2029808  )
       165        C      tau( 165) = (  -0.3448713   0.6764192  -0.0003146  )
       166        C      tau( 166) = (  -0.5358980   0.8695600  -0.1822068  )
       167        C      tau( 167) = (  -0.0145658   0.7569824   0.3397271  )
       168        C      tau( 168) = (  -0.2078440   0.9483081   0.1463546  )
       169        C      tau( 169) = (  -0.3999362   1.1416857  -0.0461952  )
       170        C      tau( 170) = (  -0.5230328   0.2120585   0.3022599  )
       171        C      tau( 171) = (  -0.7150051   0.4049823   0.1098344  )
       172        C      tau( 172) = (  -0.9074851   0.5973467  -0.0825922  )
       173        C      tau( 173) = (  -0.3870194   0.4837726   0.4396511  )
       174        C      tau( 174) = (  -0.5766794   0.6771279   0.2458124  )
       175        C      tau( 175) = (  -0.7714279   0.8695169   0.0534743  )
       176        C      tau( 176) = (  -0.2508408   0.7566645   0.5734574  )
       177        C      tau( 177) = (  -0.4430977   0.9496010   0.3830154  )
       178        C      tau( 178) = (  -0.6356315   1.1417169   0.1892828  )
       179        C      tau( 179) = (  -0.7587306   0.2126462   0.5380552  )
       180        C      tau( 180) = (  -0.9507929   0.4046947   0.3452307  )
       181        C      tau( 181) = (  -1.1434454   0.5973803   0.1530692  )
       182        C      tau( 182) = (  -0.6226296   0.4847968   0.6741171  )
       183        C      tau( 183) = (  -0.8149331   0.6771460   0.4816567  )
       184        C      tau( 184) = (  -1.0072486   0.8699052   0.2886750  )
       185        C      tau( 185) = (  -0.4863813   0.7567934   0.8098798  )
       186        C      tau( 186) = (  -0.6788124   0.9492002   0.6176519  )
       187        C      tau( 187) = (  -0.8713386   1.1415772   0.4252482  )
       188        C      tau( 188) = (  -0.1017327   0.3492941   0.0169797  )
       189        C      tau( 189) = (  -0.2932191   0.5401236  -0.1763416  )
       190        C      tau( 190) = (  -0.4862551   0.7336128  -0.3681990  )
       191        C      tau( 191) = (   0.0356059   0.6199099   0.1524834  )
       192        C      tau( 192) = (  -0.1581813   0.8126230  -0.0389942  )
       193        C      tau( 193) = (  -0.3501114   1.0055613  -0.2321451  )
       194        C      tau( 194) = (   0.1708512   0.8930536   0.2889074  )
       195        C      tau( 195) = (  -0.0215179   1.0852915   0.0964485  )
       196        C      tau( 196) = (  -0.2140398   1.2776564  -0.0959716  )
       197        C      tau( 197) = (  -0.3369404   0.3469532   0.2527554  )
       198        C      tau( 198) = (  -0.5270931   0.5416506   0.0607462  )
       199        C      tau( 199) = (  -0.7216136   0.7334210  -0.1324370  )
       200        C      tau( 200) = (  -0.2017499   0.6205921   0.3860894  )
       201        C      tau( 201) = (  -0.3981967   0.8221185   0.1987173  )
       202        C      tau( 202) = (  -0.5856696   1.0055387   0.0035445  )
       203        C      tau( 203) = (  -0.0648539   0.8927776   0.5243227  )
       204        C      tau( 204) = (  -0.2571984   1.0852392   0.3320157  )
       205        C      tau( 205) = (  -0.4496280   1.2783086   0.1394583  )
       206        C      tau( 206) = (  -0.5729066   0.3483167   0.4883908  )
       207        C      tau( 207) = (  -0.7647971   0.5410182   0.2956629  )
       208        C      tau( 208) = (  -0.9572881   0.7334108   0.1032752  )
       209        C      tau( 209) = (  -0.4365972   0.6206529   0.6238628  )
       210        C      tau( 210) = (  -0.6288805   0.8131212   0.4315842  )
       211        C      tau( 211) = (  -0.8218407   1.0056912   0.2391769  )
       212        C      tau( 212) = (  -0.3005627   0.8927591   0.7600006  )
       213        C      tau( 213) = (  -0.4928821   1.0855100   0.5681354  )
       214        C      tau( 214) = (  -0.6853631   1.2777276   0.3753344  )
       215        N      tau( 215) = (  -0.3694546   0.5696790   0.2312273  )

   Crystallographic axes

     site n.     atom                  positions (cryst. coord.)
         1        C      tau(   1) = (  0.0001432  0.0000816  0.0000816  )
         2        C      tau(   2) = (  0.0002531  0.0003293  0.3334379  )
         3        C      tau(   3) = (  0.0000800  0.0000146  0.6667187  )
         4        C      tau(   4) = (  0.0002531  0.3334379  0.0003293  )
         5        C      tau(   5) = (  0.0007891  0.3340314  0.3340314  )
         6        C      tau(   6) = ( -0.0000288  0.3334271  0.6668034  )
         7        C      tau(   7) = (  0.0000800  0.6667187  0.0000146  )
         8        C      tau(   8) = ( -0.0000288  0.6668034  0.3334271  )
         9        C      tau(   9) = (  0.0005557  0.6662743  0.6662743  )
        10        C      tau(  10) = (  0.3333654  0.0001750  0.0001750  )
        11        C      tau(  11) = (  0.3333863 -0.0000025  0.3335397  )
        12        C      tau(  12) = (  0.3333926  0.0001618  0.6665490  )
        13        C      tau(  13) = (  0.3333863  0.3335397 -0.0000025  )
        14        C      tau(  14) = (  0.3372322  0.3339038  0.3339038  )
        15        C      tau(  15) = (  0.3313600  0.3350968  0.6653915  )
        16        C      tau(  16) = (  0.3333926  0.6665490  0.0001618  )
        17        C      tau(  17) = (  0.3313601  0.6653916  0.3350968  )
        18        C      tau(  18) = (  0.3349771  0.6659004  0.6659004  )
        19        C      tau(  19) = (  0.6666653  0.0000111  0.0000111  )
        20        C      tau(  20) = (  0.6667034 -0.0001816  0.3334083  )
        21        C      tau(  21) = (  0.6666185  0.0002449  0.6667023  )
        22        C      tau(  22) = (  0.6667033  0.3334083 -0.0001816  )
        23        C      tau(  23) = (  0.6673637  0.3330391  0.3330391  )
        24        C      tau(  24) = (  0.6656101  0.3338455  0.6657499  )
        25        C      tau(  25) = (  0.6666185  0.6667023  0.0002449  )
        26        C      tau(  26) = (  0.6656102  0.6657499  0.3338455  )
        27        C      tau(  27) = (  0.6667337  0.6667897  0.6667897  )
        28        C      tau(  28) = (  0.1667617  0.1668450  0.0002453  )
        29        C      tau(  29) = (  0.1677115  0.1678500  0.3338448  )
        30        C      tau(  30) = (  0.1666736  0.1667282  0.6667906  )
        31        C      tau(  31) = (  0.1669152  0.5000718  0.0001621  )
        32        C      tau(  32) = (  0.1680704  0.5021000  0.3350962  )
        33        C      tau(  33) = (  0.1675623  0.4984831  0.6659005  )
        34        C      tau(  34) = (  0.1667455  0.8333836  0.0000145  )
        35        C      tau(  35) = (  0.1666609  0.8334930  0.3334272  )
        36        C      tau(  36) = (  0.1671893  0.8329081  0.6662742  )
        37        C      tau(  37) = (  0.5000559  0.1667603 -0.0001816  )
        38        C      tau(  38) = (  0.5004245  0.1660986  0.3330383  )
        39        C      tau(  39) = (  0.4996173  0.1678512  0.6657508  )
        40        C      tau(  40) = (  0.4999244  0.5000781 -0.0000027  )
        41        C      tau(  41) = (  0.4995520  0.4962259  0.3339055  )
        42        C      tau(  42) = (  0.4983615  0.5021008  0.6653897  )
        43        C      tau(  43) = (  0.5000262  0.8332101  0.0003290  )
        44        C      tau(  44) = (  0.4994316  0.8326738  0.3340315  )
        45        C      tau(  45) = (  0.5000360  0.8334918  0.6668029  )
        46        C      tau(  46) = (  0.8334524  0.1667987  0.0000114  )
        47        C      tau(  47) = (  0.8336450  0.1667609  0.3334086  )
        48        C      tau(  48) = (  0.8332179  0.1668452  0.6667024  )
        49        C      tau(  49) = (  0.8332875  0.5000988  0.0001750  )
        50        C      tau(  50) = (  0.8334661  0.5000783  0.3335402  )
        51        C      tau(  51) = (  0.8333011  0.5000716  0.6665486  )
        52        C      tau(  52) = (  0.8333820  0.8333205  0.0000813  )
        53        C      tau(  53) = (  0.8331336  0.8332100  0.3334378  )
        54        C      tau(  54) = (  0.8334485  0.8333831  0.6667184  )
        55        C      tau(  55) = (  0.1667617  0.0002453  0.1668450  )
        56        C      tau(  56) = (  0.1669152  0.0001621  0.5000718  )
        57        C      tau(  57) = (  0.1667455  0.0000145  0.8333836  )
        58        C      tau(  58) = (  0.1677115  0.3338448  0.1678500  )
        59        C      tau(  59) = (  0.1680704  0.3350962  0.5021000  )
        60        C      tau(  60) = (  0.1666609  0.3334272  0.8334930  )
        61        C      tau(  61) = (  0.1666736  0.6667906  0.1667282  )
        62        C      tau(  62) = (  0.1675623  0.6659006  0.4984831  )
        63        C      tau(  63) = (  0.1671893  0.6662742  0.8329081  )
        64        C      tau(  64) = (  0.5000559 -0.0001816  0.1667603  )
        65        C      tau(  65) = (  0.4999244 -0.0000027  0.5000781  )
        66        C      tau(  66) = (  0.5000262  0.0003290  0.8332101  )
        67        C      tau(  67) = (  0.5004245  0.3330383  0.1660986  )
        68        C      tau(  68) = (  0.4995520  0.3339055  0.4962259  )
        69        C      tau(  69) = (  0.4994316  0.3340315  0.8326738  )
        70        C      tau(  70) = (  0.4996173  0.6657508  0.1678512  )
        71        C      tau(  71) = (  0.4983615  0.6653898  0.5021008  )
        72        C      tau(  72) = (  0.5000360  0.6668029  0.8334918  )
        73        C      tau(  73) = (  0.8334524  0.0000114  0.1667987  )
        74        C      tau(  74) = (  0.8332875  0.0001750  0.5000988  )
        75        C      tau(  75) = (  0.8333820  0.0000814  0.8333205  )
        76        C      tau(  76) = (  0.8336450  0.3334086  0.1667609  )
        77        C      tau(  77) = (  0.8334661  0.3335402  0.5000783  )
        78        C      tau(  78) = (  0.8331336  0.3334378  0.8332100  )
        79        C      tau(  79) = (  0.8332179  0.6667024  0.1668452  )
        80        C      tau(  80) = (  0.8333011  0.6665486  0.5000716  )
        81        C      tau(  81) = (  0.8334485  0.6667184  0.8333831  )
        82        C      tau(  82) = (  0.0004058  0.1670009  0.1670009  )
        83        C      tau(  83) = ( -0.0003709  0.1663490  0.5003494  )
        84        C      tau(  84) = (  0.0000939  0.1668115  0.8333702  )
        85        C      tau(  85) = ( -0.0003709  0.5003494  0.1663490  )
        86        C      tau(  86) = (  0.0007719  0.5001681  0.5001681  )
        87        C      tau(  87) = ( -0.0005585  0.4998276  0.8340222  )
        88        C      tau(  88) = (  0.0000939  0.8333702  0.1668115  )
        89        C      tau(  89) = ( -0.0005585  0.8340222  0.4998276  )
        90        C      tau(  90) = (  0.0002583  0.8332053  0.8332053  )
        91        C      tau(  91) = (  0.3336352  0.1663222  0.1663222  )
        92        C      tau(  92) = (  0.3334325  0.1673335  0.5000297  )
        93        C      tau(  93) = (  0.3331147  0.1663491  0.8338346  )
        94        C      tau(  94) = (  0.3334325  0.5000297  0.1673335  )
        95        C      tau(  95) = (  0.3332954  0.5001679  0.8326922  )
        96        C      tau(  96) = (  0.3331147  0.8338346  0.1663491  )
        97        C      tau(  97) = (  0.3332954  0.8326922  0.5001679  )
        98        C      tau(  98) = (  0.3336362  0.8340213  0.8340213  )
        99        C      tau(  99) = (  0.6668654  0.1665989  0.1665989  )
       100        C      tau( 100) = (  0.6671401  0.1663233  0.4998285  )
       101        C      tau( 101) = (  0.6664627  0.1670007  0.8330575  )
       102        C      tau( 102) = (  0.6671401  0.4998285  0.1663233  )
       103        C      tau( 103) = (  0.6661268  0.5000297  0.5000296  )
       104        C      tau( 104) = (  0.6671129  0.5003493  0.8338328  )
       105        C      tau( 105) = (  0.6664627  0.8330575  0.1670007  )
       106        C      tau( 106) = (  0.6671130  0.8338328  0.5003493  )
       107        C      tau( 107) = (  0.6666523  0.8333696  0.8333696  )
       108        C      tau( 108) = (  0.0835193  0.0835578  0.0835578  )
       109        C      tau( 109) = (  0.0837330  0.0838153  0.4169638  )
       110        C      tau( 110) = (  0.0834270  0.0833573  0.7500383  )
       111        C      tau( 111) = (  0.0837330  0.4169638  0.0838153  )
       112        C      tau( 112) = (  0.0845398  0.4173850  0.4173850  )
       113        C      tau( 113) = (  0.0824058  0.4172942  0.7510593  )
       114        C      tau( 114) = (  0.0834270  0.7500383  0.0833573  )
       115        C      tau( 115) = (  0.0824059  0.7510593  0.4172942  )
       116        C      tau( 116) = (  0.0836994  0.7497657  0.7497657  )
       117        C      tau( 117) = (  0.4167355  0.0832088  0.0832088  )
       118        C      tau( 118) = (  0.4167581  0.0833727  0.4167068  )
       119        C      tau( 119) = (  0.4165011  0.0838156  0.7497318  )
       120        C      tau( 120) = (  0.4167581  0.4167068  0.0833727  )
       121        C      tau( 121) = (  0.4160776  0.4173846  0.7489238  )
       122        C      tau( 122) = (  0.4165012  0.7497318  0.0838156  )
       123        C      tau( 123) = (  0.4160777  0.7489238  0.4173846  )
       124        C      tau( 124) = (  0.4161696  0.7510579  0.7510579  )
       125        C      tau( 125) = (  0.7501310  0.0833350  0.0833350  )
       126        C      tau( 126) = (  0.7502563  0.0832095  0.4167297  )
       127        C      tau( 127) = (  0.7499081  0.0835577  0.7499458  )
       128        C      tau( 128) = (  0.7502563  0.4167297  0.0832095  )
       129        C      tau( 129) = (  0.7500920  0.4167072  0.4167072  )
       130        C      tau( 130) = (  0.7496486  0.4169637  0.7497304  )
       131        C      tau( 131) = (  0.7499081  0.7499458  0.0835577  )
       132        C      tau( 132) = (  0.7496486  0.7497304  0.4169637  )
       133        C      tau( 133) = (  0.7501079  0.7500377  0.7500377  )
       134        C      tau( 134) = (  0.2502527  0.2502153  0.0836061  )
       135        C      tau( 135) = (  0.2514937  0.2518687  0.4177957  )
       136        C      tau( 136) = (  0.2505229  0.2493120  0.7508201  )
       137        C      tau( 137) = (  0.2500992  0.5833657  0.0836021  )
       138        C      tau( 138) = (  0.2436384  0.5898240  0.4113725  )
       139        C      tau( 139) = (  0.2504562  0.5830068  0.7491873  )
       140        C      tau( 140) = (  0.2501929  0.9170382  0.0832122  )
       141        C      tau( 141) = (  0.2500975  0.9166387  0.4168277  )
       142        C      tau( 142) = (  0.2501326  0.9167267  0.7500501  )
       143        C      tau( 143) = (  0.5835701  0.2498953  0.0830149  )
       144        C      tau( 144) = (  0.5845443  0.2489193  0.4164855  )
       145        C      tau( 145) = (  0.5828668  0.2505976  0.7495216  )
       146        C      tau( 146) = (  0.5832496  0.5832121  0.0836067  )
       147        C      tau( 147) = (  0.5815896  0.5819662  0.4177967  )
       148        C      tau( 148) = (  0.5841502  0.5829409  0.7508174  )
       149        C      tau( 149) = (  0.5832874  0.9164996  0.0835341  )
       150        C      tau( 150) = (  0.5832940  0.9165265  0.4168542  )
       151        C      tau( 151) = (  0.5833025  0.9168701  0.7499869  )
       152        C      tau( 152) = (  0.9169660  0.2501783  0.0835345  )
       153        C      tau( 153) = (  0.9169384  0.2501713  0.4168546  )
       154        C      tau( 154) = (  0.9165950  0.2501629  0.7499870  )
       155        C      tau( 155) = (  0.9164271  0.5832721  0.0832121  )
       156        C      tau( 156) = (  0.9168275  0.5833677  0.4168278  )
       157        C      tau( 157) = (  0.9167387  0.5833320  0.7500501  )
       158        C      tau( 158) = (  0.9167742  0.9166916  0.0834396  )
       159        C      tau( 159) = (  0.9163564  0.9171087  0.4169182  )
       160        C      tau( 160) = (  0.9168253  0.9166403  0.7499782  )
       161        C      tau( 161) = (  0.2502527  0.0836061  0.2502153  )
       162        C      tau( 162) = (  0.2500992  0.0836021  0.5833657  )
       163        C      tau( 163) = (  0.2501929  0.0832122  0.9170382  )
       164        C      tau( 164) = (  0.2514937  0.4177957  0.2518687  )
       165        C      tau( 165) = (  0.2436383  0.4113724  0.5898240  )
       166        C      tau( 166) = (  0.2500974  0.4168277  0.9166387  )
       167        C      tau( 167) = (  0.2505229  0.7508201  0.2493120  )
       168        C      tau( 168) = (  0.2504562  0.7491873  0.5830068  )
       169        C      tau( 169) = (  0.2501326  0.7500501  0.9167266  )
       170        C      tau( 170) = (  0.5835701  0.0830149  0.2498953  )
       171        C      tau( 171) = (  0.5832496  0.0836067  0.5832121  )
       172        C      tau( 172) = (  0.5832874  0.0835342  0.9164996  )
       173        C      tau( 173) = (  0.5845443  0.4164855  0.2489193  )
       174        C      tau( 174) = (  0.5815896  0.4177967  0.5819661  )
       175        C      tau( 175) = (  0.5832940  0.4168542  0.9165265  )
       176        C      tau( 176) = (  0.5828668  0.7495217  0.2505976  )
       177        C      tau( 177) = (  0.5841502  0.7508175  0.5829409  )
       178        C      tau( 178) = (  0.5833025  0.7499869  0.9168701  )
       179        C      tau( 179) = (  0.9169660  0.0835345  0.2501783  )
       180        C      tau( 180) = (  0.9164271  0.0832121  0.5832721  )
       181        C      tau( 181) = (  0.9167742  0.0834396  0.9166916  )
       182        C      tau( 182) = (  0.9169384  0.4168546  0.2501713  )
       183        C      tau( 183) = (  0.9168275  0.4168278  0.5833677  )
       184        C      tau( 184) = (  0.9163564  0.4169182  0.9171087  )
       185        C      tau( 185) = (  0.9165950  0.7499870  0.2501629  )
       186        C      tau( 186) = (  0.9167387  0.7500501  0.5833320  )
       187        C      tau( 187) = (  0.9168253  0.7499782  0.9166403  )
       188        C      tau( 188) = (  0.0839423  0.2505972  0.2505972  )
       189        C      tau( 189) = (  0.0826449  0.2493117  0.5829414  )
       190        C      tau( 190) = (  0.0834783  0.2501630  0.9168709  )
       191        C      tau( 191) = (  0.0826449  0.5829414  0.2493118  )
       192        C      tau( 192) = (  0.0842780  0.5830074  0.5830074  )
       193        C      tau( 193) = (  0.0834148  0.5833322  0.9167271  )
       194        C      tau( 194) = (  0.0834783  0.9168709  0.2501630  )
       195        C      tau( 195) = (  0.0834148  0.9167271  0.5833322  )
       196        C      tau( 196) = (  0.0834868  0.9166404  0.9166405  )
       197        C      tau( 197) = (  0.4169779  0.2489178  0.2489178  )
       198        C      tau( 198) = (  0.4156651  0.2518706  0.5819676  )
       199        C      tau( 199) = (  0.4166108  0.2501710  0.9165272  )
       200        C      tau( 200) = (  0.4156651  0.5819676  0.2518706  )
       201        C      tau( 201) = (  0.4220819  0.5898199  0.5898198  )
       202        C      tau( 202) = (  0.4166373  0.5833674  0.9166381  )
       203        C      tau( 203) = (  0.4166108  0.9165272  0.2501710  )
       204        C      tau( 204) = (  0.4166373  0.9166381  0.5833674  )
       205        C      tau( 205) = (  0.4165469  0.9171084  0.9171084  )
       206        C      tau( 206) = (  0.7504506  0.2498960  0.2498960  )
       207        C      tau( 207) = (  0.7498585  0.2502163  0.5832118  )
       208        C      tau( 208) = (  0.7499315  0.2501781  0.9164995  )
       209        C      tau( 209) = (  0.7498585  0.5832118  0.2502163  )
       210        C      tau( 210) = (  0.7498618  0.5833648  0.5833648  )
       211        C      tau( 211) = (  0.7502527  0.5832720  0.9170372  )
       212        C      tau( 212) = (  0.7499315  0.9164995  0.2501781  )
       213        C      tau( 213) = (  0.7502527  0.9170372  0.5832720  )
       214        C      tau( 214) = (  0.7500264  0.9166916  0.9166916  )
       215        N      tau( 215) = (  0.4247462  0.4087099  0.4087099  )

     number of k points=     1  Gaussian smearing, width (Ry)=  0.0050
                       cart. coord. in units 2pi/alat
        k(    1) = (   0.0000000   0.0000000   0.0000000), wk =   1.0000000

                       cryst. coord.
        k(    1) = (   0.0000000   0.0000000   0.0000000), wk =   1.0000000

     Dense  grid:   338755 G-vectors     FFT dimensions: (  90,  90,  90)

     Dynamical RAM for                 wfc:      19.91 MB

     Dynamical RAM for     wfc (w. buffer):      59.73 MB

     Dynamical RAM for           str. fact:       0.37 MB

     Dynamical RAM for           local pot:       0.00 MB

     Dynamical RAM for          nlocal pot:      39.68 MB

     Dynamical RAM for                qrad:       0.62 MB

     Dynamical RAM for          rho,v,vnew:       2.59 MB

     Dynamical RAM for               rhoin:       0.86 MB

     Dynamical RAM for            rho*nmix:       5.91 MB

     Dynamical RAM for           G-vectors:       0.78 MB

     Dynamical RAM for          h,s,v(r/c):       5.45 MB

     Dynamical RAM for          <psi|beta>:      22.65 MB

     Dynamical RAM for                 psi:      39.82 MB

     Dynamical RAM for                hpsi:      39.82 MB

     Dynamical RAM for                spsi:      39.82 MB

     Dynamical RAM for      wfcinit/wfcrot:      56.87 MB

     Dynamical RAM for           addusdens:      47.63 MB

     Dynamical RAM for          addusforce:     126.64 MB

     Dynamical RAM for         addusstress:       9.51 MB

     Estimated static dynamical RAM per process >     106.68 MB

     Estimated max dynamical RAM per process >     260.14 MB

     Estimated total dynamical RAM >       7.11 GB

     Check: negative core charge=   -0.000075
     Generating pointlists ...
     new r_m :   0.0566 (alat units)  1.1469 (a.u.) for type    1
     new r_m :   0.0566 (alat units)  1.1469 (a.u.) for type    2

     Initial potential from superposition of free atoms

     starting charge     860.9911, renormalised to     863.0000
     Starting wfcs are random
     Checking if some PAW data can be deallocated... 
       PAW data deallocated on   27 nodes for type:  2

     total cpu time spent up to now is        5.9 secs

     per-process dynamical memory:   156.8 Mb

     Self-consistent Calculation

     iteration #  1     ecut=    45.00 Ry     beta= 0.70
     Davidson diagonalization with overlap

---- Real-time Memory Report at c_bands before calling an iterative solver
           390 MiB given to the printing process from OS
           153 MiB allocation reported by mallinfo(arena+hblkhd)
         86772 MiB available memory on the node where the printing process lives
------------------
     ethr =  1.00E-02,  avg # of iterations =  8.5

     total cpu time spent up to now is       66.7 secs

     total energy              =   -3968.84196019 Ry
     estimated scf accuracy    <      12.97939844 Ry

     total magnetization       =     1.00 Bohr mag/cell
     absolute magnetization    =     1.19 Bohr mag/cell

     iteration #  2     ecut=    45.00 Ry     beta= 0.70
     Davidson diagonalization with overlap

---- Real-time Memory Report at c_bands before calling an iterative solver
           657 MiB given to the printing process from OS
           175 MiB allocation reported by mallinfo(arena+hblkhd)
         86305 MiB available memory on the node where the printing process lives
------------------
     ethr =  1.50E-03,  avg # of iterations =  8.0

     total cpu time spent up to now is       86.0 secs

     total energy              =   -3964.79291017 Ry
     estimated scf accuracy    <      11.24295249 Ry

     total magnetization       =     1.00 Bohr mag/cell
     absolute magnetization    =     1.05 Bohr mag/cell

     iteration #  3     ecut=    45.00 Ry     beta= 0.70
     Davidson diagonalization with overlap

---- Real-time Memory Report at c_bands before calling an iterative solver
           679 MiB given to the printing process from OS
           181 MiB allocation reported by mallinfo(arena+hblkhd)
         86202 MiB available memory on the node where the printing process lives
------------------
     ethr =  1.30E-03,  avg # of iterations =  3.0

     total cpu time spent up to now is      106.1 secs

     total energy              =   -3968.31512648 Ry
     estimated scf accuracy    <      20.41032910 Ry

     total magnetization       =     1.00 Bohr mag/cell
     absolute magnetization    =     1.06 Bohr mag/cell

     iteration #  4     ecut=    45.00 Ry     beta= 0.70
     Davidson diagonalization with overlap

---- Real-time Memory Report at c_bands before calling an iterative solver
           689 MiB given to the printing process from OS
           182 MiB allocation reported by mallinfo(arena+hblkhd)
         86177 MiB available memory on the node where the printing process lives
------------------
     ethr =  1.30E-03,  avg # of iterations =  5.0

     total cpu time spent up to now is      123.9 secs

     total energy              =   -3970.13381509 Ry
     estimated scf accuracy    <       1.35519594 Ry

     total magnetization       =     1.00 Bohr mag/cell
     absolute magnetization    =     1.02 Bohr mag/cell

     iteration #  5     ecut=    45.00 Ry     beta= 0.70
     Davidson diagonalization with overlap

---- Real-time Memory Report at c_bands before calling an iterative solver
           698 MiB given to the printing process from OS
           183 MiB allocation reported by mallinfo(arena+hblkhd)
         86108 MiB available memory on the node where the printing process lives
------------------
     ethr =  1.57E-04,  avg # of iterations = 12.0

     total cpu time spent up to now is      145.6 secs

     total energy              =   -3970.19766541 Ry
     estimated scf accuracy    <       0.57663894 Ry

     total magnetization       =     1.00 Bohr mag/cell
     absolute magnetization    =     1.05 Bohr mag/cell

     iteration #  6     ecut=    45.00 Ry     beta= 0.70
     Davidson diagonalization with overlap

---- Real-time Memory Report at c_bands before calling an iterative solver
           706 MiB given to the printing process from OS
           184 MiB allocation reported by mallinfo(arena+hblkhd)
         86118 MiB available memory on the node where the printing process lives
------------------
     ethr =  6.68E-05,  avg # of iterations =  2.0

     total cpu time spent up to now is      161.4 secs

     total energy              =   -3970.16777819 Ry
     estimated scf accuracy    <       0.40807281 Ry

     total magnetization       =     1.00 Bohr mag/cell
     absolute magnetization    =     1.07 Bohr mag/cell

     iteration #  7     ecut=    45.00 Ry     beta= 0.70
     Davidson diagonalization with overlap

---- Real-time Memory Report at c_bands before calling an iterative solver
           714 MiB given to the printing process from OS
           185 MiB allocation reported by mallinfo(arena+hblkhd)
         86017 MiB available memory on the node where the printing process lives
------------------
     ethr =  4.73E-05,  avg # of iterations =  6.0

     total cpu time spent up to now is      179.2 secs

     total energy              =   -3970.14125358 Ry
     estimated scf accuracy    <       0.16765804 Ry

     total magnetization       =     1.00 Bohr mag/cell
     absolute magnetization    =     1.06 Bohr mag/cell

     iteration #  8     ecut=    45.00 Ry     beta= 0.70
     Davidson diagonalization with overlap

---- Real-time Memory Report at c_bands before calling an iterative solver
           722 MiB given to the printing process from OS
           186 MiB allocation reported by mallinfo(arena+hblkhd)
         86011 MiB available memory on the node where the printing process lives
------------------
     ethr =  1.94E-05,  avg # of iterations =  9.0

     total cpu time spent up to now is      199.0 secs

     total energy              =   -3970.14529760 Ry
     estimated scf accuracy    <       0.05678487 Ry

     total magnetization       =     1.00 Bohr mag/cell
     absolute magnetization    =     1.10 Bohr mag/cell

     iteration #  9     ecut=    45.00 Ry     beta= 0.70
     Davidson diagonalization with overlap

---- Real-time Memory Report at c_bands before calling an iterative solver
           728 MiB given to the printing process from OS
           187 MiB allocation reported by mallinfo(arena+hblkhd)
         85989 MiB available memory on the node where the printing process lives
------------------
     ethr =  6.58E-06,  avg # of iterations = 12.5

     total cpu time spent up to now is      220.5 secs

     total energy              =   -3970.14565862 Ry
     estimated scf accuracy    <       0.05199696 Ry

     total magnetization       =     1.00 Bohr mag/cell
     absolute magnetization    =     1.12 Bohr mag/cell

     iteration # 10     ecut=    45.00 Ry     beta= 0.70
     Davidson diagonalization with overlap

---- Real-time Memory Report at c_bands before calling an iterative solver
           733 MiB given to the printing process from OS
           188 MiB allocation reported by mallinfo(arena+hblkhd)
         85996 MiB available memory on the node where the printing process lives
------------------
     ethr =  6.03E-06,  avg # of iterations =  3.0

     total cpu time spent up to now is      237.0 secs

     total energy              =   -3970.14918103 Ry
     estimated scf accuracy    <       0.00127698 Ry

     total magnetization       =     1.00 Bohr mag/cell
     absolute magnetization    =     1.12 Bohr mag/cell

     iteration # 11     ecut=    45.00 Ry     beta= 0.70
     Davidson diagonalization with overlap

---- Real-time Memory Report at c_bands before calling an iterative solver
           736 MiB given to the printing process from OS
           189 MiB allocation reported by mallinfo(arena+hblkhd)
         85879 MiB available memory on the node where the printing process lives
------------------
     ethr =  1.48E-07,  avg # of iterations = 13.0

     total cpu time spent up to now is      258.5 secs

     total energy              =   -3970.14935414 Ry
     estimated scf accuracy    <       0.00018201 Ry

     total magnetization       =     1.00 Bohr mag/cell
     absolute magnetization    =     1.13 Bohr mag/cell

     iteration # 12     ecut=    45.00 Ry     beta= 0.70
     Davidson diagonalization with overlap

---- Real-time Memory Report at c_bands before calling an iterative solver
           740 MiB given to the printing process from OS
           189 MiB allocation reported by mallinfo(arena+hblkhd)
         85946 MiB available memory on the node where the printing process lives
------------------
     ethr =  2.11E-08,  avg # of iterations =  2.0

     total cpu time spent up to now is      274.5 secs

     total energy              =   -3970.14937292 Ry
     estimated scf accuracy    <       0.00003192 Ry

     total magnetization       =     1.00 Bohr mag/cell
     absolute magnetization    =     1.13 Bohr mag/cell

     iteration # 13     ecut=    45.00 Ry     beta= 0.70
     Davidson diagonalization with overlap

---- Real-time Memory Report at c_bands before calling an iterative solver
           741 MiB given to the printing process from OS
           189 MiB allocation reported by mallinfo(arena+hblkhd)
         85881 MiB available memory on the node where the printing process lives
------------------
     ethr =  3.70E-09,  avg # of iterations =  2.0

     total cpu time spent up to now is      290.4 secs

     total energy              =   -3970.14937985 Ry
     estimated scf accuracy    <       0.00001319 Ry

     total magnetization       =     1.00 Bohr mag/cell
     absolute magnetization    =     1.13 Bohr mag/cell

     iteration # 14     ecut=    45.00 Ry     beta= 0.70
     Davidson diagonalization with overlap

---- Real-time Memory Report at c_bands before calling an iterative solver
           742 MiB given to the printing process from OS
           189 MiB allocation reported by mallinfo(arena+hblkhd)
         85868 MiB available memory on the node where the printing process lives
------------------
     ethr =  1.53E-09,  avg # of iterations =  2.0

     total cpu time spent up to now is      306.3 secs

     total energy              =   -3970.14938154 Ry
     estimated scf accuracy    <       0.00000192 Ry

     total magnetization       =     1.00 Bohr mag/cell
     absolute magnetization    =     1.14 Bohr mag/cell

     iteration # 15     ecut=    45.00 Ry     beta= 0.70
     Davidson diagonalization with overlap

---- Real-time Memory Report at c_bands before calling an iterative solver
           743 MiB given to the printing process from OS
           189 MiB allocation reported by mallinfo(arena+hblkhd)
         85886 MiB available memory on the node where the printing process lives
------------------
     ethr =  2.23E-10,  avg # of iterations =  2.5

     total cpu time spent up to now is      322.6 secs

     total energy              =   -3970.14938185 Ry
     estimated scf accuracy    <       0.00000249 Ry

     total magnetization       =     1.00 Bohr mag/cell
     absolute magnetization    =     1.14 Bohr mag/cell

     iteration # 16     ecut=    45.00 Ry     beta= 0.70
     Davidson diagonalization with overlap

---- Real-time Memory Report at c_bands before calling an iterative solver
           743 MiB given to the printing process from OS
           189 MiB allocation reported by mallinfo(arena+hblkhd)
         85857 MiB available memory on the node where the printing process lives
------------------
     ethr =  2.23E-10,  avg # of iterations =  2.0

     total cpu time spent up to now is      338.5 secs

     total energy              =   -3970.14938212 Ry
     estimated scf accuracy    <       0.00000028 Ry

     total magnetization       =     1.00 Bohr mag/cell
     absolute magnetization    =     1.14 Bohr mag/cell

     iteration # 17     ecut=    45.00 Ry     beta= 0.70
     Davidson diagonalization with overlap

---- Real-time Memory Report at c_bands before calling an iterative solver
           743 MiB given to the printing process from OS
           189 MiB allocation reported by mallinfo(arena+hblkhd)
         85875 MiB available memory on the node where the printing process lives
------------------
     ethr =  3.27E-11,  avg # of iterations =  2.5

     total cpu time spent up to now is      354.7 secs

     total energy              =   -3970.14938217 Ry
     estimated scf accuracy    <       0.00000007 Ry

     total magnetization       =     1.00 Bohr mag/cell
     absolute magnetization    =     1.14 Bohr mag/cell

     iteration # 18     ecut=    45.00 Ry     beta= 0.70
     Davidson diagonalization with overlap

---- Real-time Memory Report at c_bands before calling an iterative solver
           744 MiB given to the printing process from OS
           189 MiB allocation reported by mallinfo(arena+hblkhd)
         85845 MiB available memory on the node where the printing process lives
------------------
     ethr =  7.96E-12,  avg # of iterations =  2.5

     total cpu time spent up to now is      370.9 secs

     total energy              =   -3970.14938218 Ry
     estimated scf accuracy    <       0.00000007 Ry

     total magnetization       =     1.00 Bohr mag/cell
     absolute magnetization    =     1.14 Bohr mag/cell

     iteration # 19     ecut=    45.00 Ry     beta= 0.70
     Davidson diagonalization with overlap

---- Real-time Memory Report at c_bands before calling an iterative solver
           745 MiB given to the printing process from OS
           189 MiB allocation reported by mallinfo(arena+hblkhd)
         85851 MiB available memory on the node where the printing process lives
------------------
     ethr =  7.96E-12,  avg # of iterations =  2.0

     total cpu time spent up to now is      386.9 secs

     total energy              =   -3970.14938219 Ry
     estimated scf accuracy    <       0.00000003 Ry

     total magnetization       =     1.00 Bohr mag/cell
     absolute magnetization    =     1.14 Bohr mag/cell

     iteration # 20     ecut=    45.00 Ry     beta= 0.70
     Davidson diagonalization with overlap

---- Real-time Memory Report at c_bands before calling an iterative solver
           746 MiB given to the printing process from OS
           189 MiB allocation reported by mallinfo(arena+hblkhd)
         85838 MiB available memory on the node where the printing process lives
------------------
     ethr =  3.33E-12,  avg # of iterations =  2.0
 
     Magnetic moment per site  (integrated on atomic sphere of radius R)
     atom   1 (R=0.057)  charge=  1.8066  magn= -0.0000
     atom   2 (R=0.057)  charge=  1.8057  magn= -0.0001
     atom   3 (R=0.057)  charge=  1.8082  magn= -0.0001
     atom   4 (R=0.057)  charge=  1.8057  magn= -0.0001
     atom   5 (R=0.057)  charge=  1.8025  magn= -0.0003
     atom   6 (R=0.057)  charge=  1.8058  magn= -0.0005
     atom   7 (R=0.057)  charge=  1.8082  magn= -0.0001
     atom   8 (R=0.057)  charge=  1.8058  magn= -0.0005
     atom   9 (R=0.057)  charge=  1.8031  magn= -0.0002
     atom  10 (R=0.057)  charge=  1.8138  magn=  0.0006
     atom  11 (R=0.057)  charge=  1.8079  magn= -0.0001
     atom  12 (R=0.057)  charge=  1.8078  magn= -0.0001
     atom  13 (R=0.057)  charge=  1.8079  magn= -0.0001
     atom  14 (R=0.057)  charge=  1.7768  magn=  0.0003
     atom  15 (R=0.057)  charge=  1.8023  magn= -0.0018
     atom  16 (R=0.057)  charge=  1.8078  magn= -0.0001
     atom  17 (R=0.057)  charge=  1.8023  magn= -0.0018
     atom  18 (R=0.057)  charge=  1.8070  magn= -0.0037
     atom  19 (R=0.057)  charge=  1.8068  magn=  0.0000
     atom  20 (R=0.057)  charge=  1.8084  magn= -0.0000
     atom  21 (R=0.057)  charge=  1.8074  magn= -0.0001
     atom  22 (R=0.057)  charge=  1.8084  magn= -0.0000
     atom  23 (R=0.057)  charge=  1.8065  magn= -0.0000
     atom  24 (R=0.057)  charge=  1.7986  magn= -0.0001
     atom  25 (R=0.057)  charge=  1.8074  magn= -0.0001
     atom  26 (R=0.057)  charge=  1.7986  magn= -0.0001
     atom  27 (R=0.057)  charge=  1.8063  magn= -0.0005
     atom  28 (R=0.057)  charge=  1.8072  magn= -0.0001
     atom  29 (R=0.057)  charge=  1.7983  magn= -0.0001
     atom  30 (R=0.057)  charge=  1.8064  magn= -0.0005
     atom  31 (R=0.057)  charge=  1.8074  magn= -0.0001
     atom  32 (R=0.057)  charge=  1.8021  magn= -0.0018
     atom  33 (R=0.057)  charge=  1.8071  magn= -0.0037
     atom  34 (R=0.057)  charge=  1.8082  magn= -0.0001
     atom  35 (R=0.057)  charge=  1.8057  magn= -0.0005
     atom  36 (R=0.057)  charge=  1.8031  magn= -0.0002
     atom  37 (R=0.057)  charge=  1.8083  magn= -0.0000
     atom  38 (R=0.057)  charge=  1.8066  magn= -0.0000
     atom  39 (R=0.057)  charge=  1.7984  magn= -0.0001
     atom  40 (R=0.057)  charge=  1.8083  magn= -0.0001
     atom  41 (R=0.057)  charge=  1.7769  magn=  0.0003
     atom  42 (R=0.057)  charge=  1.8022  magn= -0.0018
     atom  43 (R=0.057)  charge=  1.8060  magn= -0.0001
     atom  44 (R=0.057)  charge=  1.8026  magn= -0.0003
     atom  45 (R=0.057)  charge=  1.8056  magn= -0.0005
     atom  46 (R=0.057)  charge=  1.8063  magn=  0.0000
     atom  47 (R=0.057)  charge=  1.8079  magn= -0.0000
     atom  48 (R=0.057)  charge=  1.8075  magn= -0.0001
     atom  49 (R=0.057)  charge=  1.8139  magn=  0.0006
     atom  50 (R=0.057)  charge=  1.8078  magn= -0.0001
     atom  51 (R=0.057)  charge=  1.8080  magn= -0.0001
     atom  52 (R=0.057)  charge=  1.8069  magn= -0.0000
     atom  53 (R=0.057)  charge=  1.8063  magn= -0.0001
     atom  54 (R=0.057)  charge=  1.8081  magn= -0.0001
     atom  55 (R=0.057)  charge=  1.8072  magn= -0.0001
     atom  56 (R=0.057)  charge=  1.8074  magn= -0.0001
     atom  57 (R=0.057)  charge=  1.8082  magn= -0.0001
     atom  58 (R=0.057)  charge=  1.7983  magn= -0.0001
     atom  59 (R=0.057)  charge=  1.8021  magn= -0.0018
     atom  60 (R=0.057)  charge=  1.8057  magn= -0.0005
     atom  61 (R=0.057)  charge=  1.8064  magn= -0.0005
     atom  62 (R=0.057)  charge=  1.8071  magn= -0.0037
     atom  63 (R=0.057)  charge=  1.8031  magn= -0.0002
     atom  64 (R=0.057)  charge=  1.8083  magn= -0.0000
     atom  65 (R=0.057)  charge=  1.8083  magn= -0.0001
     atom  66 (R=0.057)  charge=  1.8060  magn= -0.0001
     atom  67 (R=0.057)  charge=  1.8066  magn= -0.0000
     atom  68 (R=0.057)  charge=  1.7769  magn=  0.0003
     atom  69 (R=0.057)  charge=  1.8026  magn= -0.0003
     atom  70 (R=0.057)  charge=  1.7984  magn= -0.0001
     atom  71 (R=0.057)  charge=  1.8022  magn= -0.0018
     atom  72 (R=0.057)  charge=  1.8056  magn= -0.0005
     atom  73 (R=0.057)  charge=  1.8063  magn=  0.0000
     atom  74 (R=0.057)  charge=  1.8139  magn=  0.0006
     atom  75 (R=0.057)  charge=  1.8069  magn= -0.0000
     atom  76 (R=0.057)  charge=  1.8079  magn= -0.0000
     atom  77 (R=0.057)  charge=  1.8078  magn= -0.0001
     atom  78 (R=0.057)  charge=  1.8063  magn= -0.0001
     atom  79 (R=0.057)  charge=  1.8075  magn= -0.0001
     atom  80 (R=0.057)  charge=  1.8080  magn= -0.0001
     atom  81 (R=0.057)  charge=  1.8081  magn= -0.0001
     atom  82 (R=0.057)  charge=  1.8050  magn=  0.0000
     atom  83 (R=0.057)  charge=  1.8117  magn=  0.0015
     atom  84 (R=0.057)  charge=  1.8070  magn= -0.0001
     atom  85 (R=0.057)  charge=  1.8117  magn=  0.0015
     atom  86 (R=0.057)  charge=  1.8063  magn= -0.0005
     atom  87 (R=0.057)  charge=  1.8111  magn=  0.0008
     atom  88 (R=0.057)  charge=  1.8070  magn= -0.0001
     atom  89 (R=0.057)  charge=  1.8111  magn=  0.0008
     atom  90 (R=0.057)  charge=  1.8066  magn= -0.0000
     atom  91 (R=0.057)  charge=  1.8115  magn=  0.0001
     atom  92 (R=0.057)  charge=  1.8092  magn= -0.0003
     atom  93 (R=0.057)  charge=  1.8116  magn=  0.0015
     atom  94 (R=0.057)  charge=  1.8092  magn= -0.0003
     atom  95 (R=0.057)  charge=  1.8066  magn= -0.0005
     atom  96 (R=0.057)  charge=  1.8116  magn=  0.0015
     atom  97 (R=0.057)  charge=  1.8066  magn= -0.0005
     atom  98 (R=0.057)  charge=  1.8110  magn=  0.0008
     atom  99 (R=0.057)  charge=  1.8076  magn= -0.0000
     atom 100 (R=0.057)  charge=  1.8114  magn=  0.0001
     atom 101 (R=0.057)  charge=  1.8054  magn=  0.0000
     atom 102 (R=0.057)  charge=  1.8114  magn=  0.0001
     atom 103 (R=0.057)  charge=  1.8095  magn= -0.0003
     atom 104 (R=0.057)  charge=  1.8114  magn=  0.0015
     atom 105 (R=0.057)  charge=  1.8054  magn=  0.0000
     atom 106 (R=0.057)  charge=  1.8114  magn=  0.0015
     atom 107 (R=0.057)  charge=  1.8074  magn= -0.0001
     atom 108 (R=0.057)  charge=  1.8043  magn=  0.0001
     atom 109 (R=0.057)  charge=  1.8006  magn=  0.0001
     atom 110 (R=0.057)  charge=  1.8045  magn=  0.0005
     atom 111 (R=0.057)  charge=  1.8006  magn=  0.0001
     atom 112 (R=0.057)  charge=  1.8011  magn=  0.0030
     atom 113 (R=0.057)  charge=  1.8045  magn=  0.0083
     atom 114 (R=0.057)  charge=  1.8045  magn=  0.0005
     atom 115 (R=0.057)  charge=  1.8045  magn=  0.0083
     atom 116 (R=0.057)  charge=  1.8024  magn=  0.0000
     atom 117 (R=0.057)  charge=  1.8062  magn=  0.0001
     atom 118 (R=0.057)  charge=  1.8040  magn=  0.0004
     atom 119 (R=0.057)  charge=  1.8006  magn=  0.0001
     atom 120 (R=0.057)  charge=  1.8040  magn=  0.0004
     atom 121 (R=0.057)  charge=  1.8012  magn=  0.0030
     atom 122 (R=0.057)  charge=  1.8006  magn=  0.0001
     atom 123 (R=0.057)  charge=  1.8012  magn=  0.0030
     atom 124 (R=0.057)  charge=  1.8045  magn=  0.0083
     atom 125 (R=0.057)  charge=  1.8041  magn=  0.0001
     atom 126 (R=0.057)  charge=  1.8062  magn=  0.0001
     atom 127 (R=0.057)  charge=  1.8043  magn=  0.0001
     atom 128 (R=0.057)  charge=  1.8062  magn=  0.0001
     atom 129 (R=0.057)  charge=  1.8040  magn=  0.0004
     atom 130 (R=0.057)  charge=  1.8006  magn=  0.0001
     atom 131 (R=0.057)  charge=  1.8043  magn=  0.0001
     atom 132 (R=0.057)  charge=  1.8006  magn=  0.0001
     atom 133 (R=0.057)  charge=  1.8045  magn=  0.0005
     atom 134 (R=0.057)  charge=  1.8028  magn=  0.0001
     atom 135 (R=0.057)  charge=  1.7956  magn=  0.0019
     atom 136 (R=0.057)  charge=  1.8032  magn=  0.0090
     atom 137 (R=0.057)  charge=  1.8038  magn=  0.0004
     atom 138 (R=0.057)  charge=  1.8358  magn=  0.1194
     atom 139 (R=0.057)  charge=  1.8012  magn=  0.0035
     atom 140 (R=0.057)  charge=  1.8063  magn=  0.0008
     atom 141 (R=0.057)  charge=  1.8038  magn=  0.0007
     atom 142 (R=0.057)  charge=  1.8022  magn=  0.0001
     atom 143 (R=0.057)  charge=  1.8062  magn= -0.0000
     atom 144 (R=0.057)  charge=  1.8111  magn=  0.0001
     atom 145 (R=0.057)  charge=  1.8034  magn=  0.0001
     atom 146 (R=0.057)  charge=  1.8028  magn=  0.0001
     atom 147 (R=0.057)  charge=  1.7958  magn=  0.0019
     atom 148 (R=0.057)  charge=  1.8032  magn=  0.0090
     atom 149 (R=0.057)  charge=  1.8042  magn=  0.0000
     atom 150 (R=0.057)  charge=  1.8026  magn=  0.0000
     atom 151 (R=0.057)  charge=  1.8045  magn=  0.0005
     atom 152 (R=0.057)  charge=  1.8042  magn=  0.0000
     atom 153 (R=0.057)  charge=  1.8026  magn=  0.0000
     atom 154 (R=0.057)  charge=  1.8045  magn=  0.0005
     atom 155 (R=0.057)  charge=  1.8063  magn=  0.0008
     atom 156 (R=0.057)  charge=  1.8038  magn=  0.0007
     atom 157 (R=0.057)  charge=  1.8022  magn=  0.0001
     atom 158 (R=0.057)  charge=  1.8039  magn=  0.0002
     atom 159 (R=0.057)  charge=  1.8053  magn=  0.0006
     atom 160 (R=0.057)  charge=  1.8041  magn=  0.0000
     atom 161 (R=0.057)  charge=  1.8028  magn=  0.0001
     atom 162 (R=0.057)  charge=  1.8038  magn=  0.0004
     atom 163 (R=0.057)  charge=  1.8063  magn=  0.0008
     atom 164 (R=0.057)  charge=  1.7956  magn=  0.0019
     atom 165 (R=0.057)  charge=  1.8358  magn=  0.1194
     atom 166 (R=0.057)  charge=  1.8038  magn=  0.0007
     atom 167 (R=0.057)  charge=  1.8032  magn=  0.0090
     atom 168 (R=0.057)  charge=  1.8012  magn=  0.0035
     atom 169 (R=0.057)  charge=  1.8022  magn=  0.0001
     atom 170 (R=0.057)  charge=  1.8062  magn= -0.0000
     atom 171 (R=0.057)  charge=  1.8028  magn=  0.0001
     atom 172 (R=0.057)  charge=  1.8042  magn=  0.0000
     atom 173 (R=0.057)  charge=  1.8111  magn=  0.0001
     atom 174 (R=0.057)  charge=  1.7958  magn=  0.0019
     atom 175 (R=0.057)  charge=  1.8026  magn=  0.0000
     atom 176 (R=0.057)  charge=  1.8034  magn=  0.0001
     atom 177 (R=0.057)  charge=  1.8032  magn=  0.0090
     atom 178 (R=0.057)  charge=  1.8045  magn=  0.0005
     atom 179 (R=0.057)  charge=  1.8042  magn=  0.0000
     atom 180 (R=0.057)  charge=  1.8063  magn=  0.0008
     atom 181 (R=0.057)  charge=  1.8039  magn=  0.0002
     atom 182 (R=0.057)  charge=  1.8026  magn=  0.0000
     atom 183 (R=0.057)  charge=  1.8038  magn=  0.0007
     atom 184 (R=0.057)  charge=  1.8053  magn=  0.0006
     atom 185 (R=0.057)  charge=  1.8045  magn=  0.0005
     atom 186 (R=0.057)  charge=  1.8022  magn=  0.0000
     atom 187 (R=0.057)  charge=  1.8041  magn=  0.0000
     atom 188 (R=0.057)  charge=  1.8035  magn=  0.0001
     atom 189 (R=0.057)  charge=  1.8033  magn=  0.0090
     atom 190 (R=0.057)  charge=  1.8045  magn=  0.0005
     atom 191 (R=0.057)  charge=  1.8033  magn=  0.0090
     atom 192 (R=0.057)  charge=  1.8012  magn=  0.0035
     atom 193 (R=0.057)  charge=  1.8022  magn=  0.0001
     atom 194 (R=0.057)  charge=  1.8045  magn=  0.0005
     atom 195 (R=0.057)  charge=  1.8022  magn=  0.0001
     atom 196 (R=0.057)  charge=  1.8041  magn=  0.0000
     atom 197 (R=0.057)  charge=  1.8111  magn=  0.0001
     atom 198 (R=0.057)  charge=  1.7958  magn=  0.0019
     atom 199 (R=0.057)  charge=  1.8026  magn=  0.0000
     atom 200 (R=0.057)  charge=  1.7958  magn=  0.0019
     atom 201 (R=0.057)  charge=  1.8358  magn=  0.1194
     atom 202 (R=0.057)  charge=  1.8038  magn=  0.0007
     atom 203 (R=0.057)  charge=  1.8026  magn=  0.0000
     atom 204 (R=0.057)  charge=  1.8038  magn=  0.0007
     atom 205 (R=0.057)  charge=  1.8053  magn=  0.0006
     atom 206 (R=0.057)  charge=  1.8062  magn= -0.0000
     atom 207 (R=0.057)  charge=  1.8028  magn=  0.0001
     atom 208 (R=0.057)  charge=  1.8042  magn=  0.0000
     atom 209 (R=0.057)  charge=  1.8028  magn=  0.0001
     atom 210 (R=0.057)  charge=  1.8038  magn=  0.0004
     atom 211 (R=0.057)  charge=  1.8063  magn=  0.0008
     atom 212 (R=0.057)  charge=  1.8042  magn=  0.0000
     atom 213 (R=0.057)  charge=  1.8063  magn=  0.0008
     atom 214 (R=0.057)  charge=  1.8039  magn=  0.0002
     atom 215 (R=0.057)  charge=  2.8925  magn= -0.0001

     total cpu time spent up to now is      402.8 secs

     End of self-consistent calculation

 ------ SPIN UP ------------


          k = 0.0000 0.0000 0.0000 ( 42379 PWs)   bands (ev):

    -8.3353  -7.4845  -7.3354  -7.3354  -7.2731  -7.2731  -7.1765  -6.6538
    -6.3327  -6.3327  -6.3171  -6.3171  -6.3023  -6.2593  -6.2593  -6.2550
    -6.1723  -6.1723  -6.0020  -5.5558  -5.2792  -5.2626  -5.2626  -5.2236
    -5.2188  -5.2188  -5.0220  -4.4543  -4.3040  -4.3040  -4.2825  -4.2825
    -4.2368  -3.8795  -3.4299  -3.4251  -3.4251  -3.4165  -3.4165  -3.4045
    -3.3936  -3.3936  -3.3870  -3.3740  -3.3740  -3.3685  -3.3600  -3.3600
    -3.3106  -3.3106  -3.3092  -3.2921  -3.2921  -3.2832  -3.2001  -3.2001
    -3.0646  -2.8721  -2.6631  -2.6630  -2.6318  -2.6264  -2.6264  -2.6036
    -2.5972  -2.5964  -2.5963  -2.5595  -2.5594  -2.5300  -2.5155  -2.5155
    -2.5027  -2.5027  -2.4523  -2.4247  -2.4247  -2.3425  -2.1921  -2.1920
    -1.5738  -1.0865  -0.9299  -0.9299  -0.8836  -0.8836  -0.8806  -0.8595
    -0.8594  -0.8506  -0.7835  -0.7835  -0.3831   0.3260   0.3525   0.3525
     0.3682   0.3682   0.3949   0.6755   0.8171   0.8171   0.8210   0.8463
     0.8464   0.8549   0.8611   0.8615   0.8615   0.8887   0.8887   0.9150
     0.9150   0.9450   1.0010   1.0184   1.0185   1.0387   1.0388   1.0475
     1.0482   1.0745   1.0745   1.0796   1.0796   1.0824   1.0911   1.0988
     1.0988   1.1010   1.1418   1.1418   1.1457   1.1581   1.1581   1.1912
     1.1912   1.2033   1.2034   1.2078   1.2321   1.2321   1.2934   1.4890
     1.6022   1.6022   1.9195   2.1897   2.1897   2.1956   2.2275   2.2276
     2.2307   2.2557   2.2770   2.2770   2.4676   2.4676   3.4288   3.7005
     3.7005   3.7193   3.7584   3.7682   3.7682   3.7798   3.7799   3.7855
     3.7895   3.7903   3.8121   3.8121   3.8128   3.8351   3.8351   3.9508
     3.9508   3.9550   3.9979   4.3357   4.3358   4.3742   4.4055   4.4226
     4.4227   4.4230   4.4346   4.4347   4.4460   4.4460   4.4505   4.4680
     4.4680   4.4925   4.4967   4.4968   4.5015   4.5283   4.5283   4.5283
     4.7756   4.7757   5.2219   5.2237   5.2237   5.2549   5.2550   5.2561
     5.2638   5.2738   5.2738   5.2873   5.2934   5.2934   5.3282   5.3282
     5.4085   5.4086   5.4167   5.4311   5.4323   5.4706   5.4706   5.5013
     5.5191   5.5192   5.6224   5.7111   5.7111   5.8110   5.8110   5.8165
     5.8269   5.8349   5.8349   5.8574   5.8675   5.8675   5.8749   5.8773
     5.8873   5.8873   5.8969   5.9207   5.9324   5.9325   5.9440   5.9440
     5.9497   5.9897   5.9897   6.0223   6.0223   6.3395   6.3732   6.3732
     6.8411   6.8411   6.9009   6.9199   6.9442   6.9443   7.1004   7.3592
     7.3593   7.4333   7.4333   7.4346   7.4484   7.4577   7.4577   7.5099
     7.5511   7.5512   7.7012   7.7013   7.8291   7.8481   7.8517   7.8517
     7.8716   7.8717   7.8780   7.8988   7.9251   7.9252   7.9352   8.0276
     8.0439   8.0439   8.0487   8.0538   8.0539   8.0751   8.0751   8.0769
     8.0862   8.0863   8.0870   8.1008   8.1008   8.1255   8.1493   8.1493
     8.1633   8.1633   8.1687   8.1926   8.1954   8.1954   8.2517   8.2517
     8.2620   8.2663   8.2814   8.2825   8.2826   8.2887   8.2887   8.2974
     8.2974   8.3087   8.3169   8.3296   8.3373   8.3374   8.3451   8.3451
     8.3465   8.3488   8.3488   8.3633   8.3783   8.3783   8.3859   8.3859
     8.3874   8.4040   8.4102   8.4102   8.4481   8.4481   8.4586   8.4692
     8.4692   8.5237   8.5237   8.5350   8.5497   8.5734   8.5747   8.5747
     8.5883   8.7246   8.7247   8.8924   8.8924   8.8960   9.0643   9.0644
     9.1136   9.1201   9.1237   9.1237   9.1916   9.1919   9.1920   9.2038
     9.2360   9.2360   9.2533   9.2534   9.2592   9.2897   9.2898   9.3226
     9.4002   9.4003   9.4585  10.0816  10.2224  10.2226  10.5054  10.5055
    10.5492  10.5493  10.5503  10.5785  10.5869  10.6021  10.6022  10.6211
    10.6471  10.6471  10.6728  10.7489  10.7491  10.8079  10.8080  10.8091
    10.8258  10.8259  10.8444  10.8612  10.8613  10.8743  10.8743  10.9108
    10.9156  10.9156  10.9380  10.9422  10.9424  11.5019  11.5020  11.5046
    11.7227  11.7381  11.7382  11.7715  11.7951  11.7951  11.8491  11.9251
    11.9251  12.2729  13.0213  13.0265  13.0268  14.4349  15.9863  15.9864
    17.2581  17.2581  17.2835  17.3127  17.3127  17.3326  17.8540  17.9218
    17.9218  17.9336  17.9337  18.0077  18.0631  18.0631  18.1287  18.1642
    18.1642  18.1963  18.8267  18.8269  18.8439  19.3750  19.4353  19.4353
    19.4483  19.4773  19.4773  19.4884  19.4884  19.5029  19.5076  19.5076
    19.5355  19.9882  20.1454  20.1454  20.1670  20.1703  20.1704  20.1818
    20.1853  20.1854  20.1966  20.1966  20.2289  20.2289  20.2338  20.2499
    20.2739  20.2760  20.2760  20.3005  20.3005  20.3184  20.3379  20.3501
    20.3501  20.6245  20.6344  20.6346  20.6347  20.6502  20.6564  20.6565
    20.6713  20.6786  20.6787  20.6973  20.6974  20.7000  20.7425  20.7425
    20.7777  20.7778  20.7806  20.8078  20.8078  20.8194  20.8241  20.8390
    20.8390  20.8529  20.8529  20.8540  20.8714  20.8714  20.8749  20.8865
    20.8865  20.8935  20.8935  20.9322  20.9373  20.9829  20.9978  20.9979
    21.0573  21.0573  21.0648  21.1739  21.2630  21.2631  21.2756  21.3052
    21.3053  21.3056  21.3057  21.3087  21.3320  21.3363  21.3365  21.3502
    21.3503  21.3615  21.3734  21.3735  21.3802  21.3956  21.3956  21.4182
    21.4192  21.4193  21.4259  21.4261  21.4311  21.4528  21.4529  21.4736
    21.4737  21.4895  21.4951  21.5276  21.5276  21.5388  21.5717  21.5745
    21.5961  21.5961  21.6009  21.6350  21.6351  21.6592  21.6592  21.6819
    21.7121  21.7122  21.7152  21.7330  21.7330  21.7459  21.7994  21.7995
    21.8058  21.9485  21.9731  21.9731  22.0146  22.0146  22.0798  22.0799
    22.0962  22.1567  22.1567  22.1569  22.1940  22.1941  22.1999  22.3103
    22.3275  22.3276  22.4254  22.4540  22.4541  22.4798  22.4798  22.4822
    22.7148  22.7455  22.7455  22.9083  23.0097  23.0097  23.0116  23.0710
    23.0757  23.0758  23.0870  23.0871  23.0981  23.0982  23.1135  23.1203
    23.1219  23.1219  23.1455  23.2053  23.2312  23.2313  23.2526  23.3020
    23.3161  23.3162  23.3614  23.3614  23.4440  23.4635  23.4636  23.7334
    23.7424  23.7424  23.7542  23.7712  23.7907  23.7908  23.8059  23.8059
    23.8380  23.8381  23.8461  23.8462  23.8464  23.8670  23.8834  23.9441
    23.9784  23.9785  23.9896  24.0707  24.0707  24.1563  24.1563  24.1819
    24.2032  24.2096  24.2097  24.2213  24.2251  24.2251  24.2394  24.2394
    24.2488  24.3114  24.3143  24.3143  24.3568  24.3569  24.3734  24.3873
    24.3874  24.3992  24.4042  24.4042  24.4220  24.4460  24.4588  24.4588
    24.4725  24.4874  24.4875  24.4964  24.4965  24.5119  24.5165  24.5514
    24.5514  24.5671  24.5671  24.6333  24.6904  24.6904  24.7013  24.9448
    24.9449  24.9972  24.9973  25.5645  25.5808  25.5809  25.6488  25.7244
    25.7625  25.7625  25.7726  25.7726  25.9790  25.9965  25.9965  25.9983
    26.0519  26.0520  26.0944  26.1057  26.1484  26.1484  26.2194  26.3031
    26.3031  26.4203  26.5609  26.5609  26.5833  26.5996  26.6067  26.6160
    26.6160  26.6357  26.6357  26.6531  26.6531  26.6670  26.7266  26.7266
    26.7325  26.7398  26.7574  26.7574  26.8126  26.8126  26.8203  26.9430
    26.9431  27.0337  27.0356  27.0356  27.0446  27.0447  27.0484  27.0612
    27.0673  27.0702  27.0703  27.0713  27.0713  27.1183  27.1183  27.1525
    27.1581  27.1899  27.1899  27.2270  27.2270  27.2350  27.2350  27.2443
    27.2487  27.2613  27.2689  27.2764  27.2765  27.2786  27.2940  27.2941
    27.3013  27.3013  27.3070  27.3245  27.3245  27.3258  27.3406  27.3406
    27.3411  27.3589  27.3589  27.3746  27.3847  27.3848  27.4019  27.4275
    27.4391  27.4391  27.4452  27.4662  27.4663  27.5047  27.5047  27.5233
    27.5233  27.5265  27.5354  27.5502  27.5502  27.5522  27.5677  27.5830
    27.5830  27.5955  27.5968  27.6040  27.6040  27.6216  27.6216  27.6881
    27.6881  27.7229  27.7230  27.7695  27.7869  27.8549  27.8832  27.8832
    27.8904  27.9337  27.9337  27.9909  28.0658  28.0658  28.1281  28.1375
    28.1375  28.2126  28.2126  28.3000  28.3441  28.3838  28.3838  28.4539
    28.4999  28.4999  28.7298  28.8183  28.8183  28.8769  29.7400  29.7987
    29.7988  29.9403  29.9727  29.9734  30.0057  30.0484  30.0489

     occupation numbers 
     1.0000   1.0000   1.0000   1.0000   1.0000   1.0000   1.0000   1.0000
     1.0000   1.0000   1.0000   1.0000   1.0000   1.0000   1.0000   1.0000
     1.0000   1.0000   1.0000   1.0000   1.0000   1.0000   1.0000   1.0000
     1.0000   1.0000   1.0000   1.0000   1.0000   1.0000   1.0000   1.0000
     1.0000   1.0000   1.0000   1.0000   1.0000   1.0000   1.0000   1.0000
     1.0000   1.0000   1.0000   1.0000   1.0000   1.0000   1.0000   1.0000
     1.0000   1.0000   1.0000   1.0000   1.0000   1.0000   1.0000   1.0000
     1.0000   1.0000   1.0000   1.0000   1.0000   1.0000   1.0000   1.0000
     1.0000   1.0000   1.0000   1.0000   1.0000   1.0000   1.0000   1.0000
     1.0000   1.0000   1.0000   1.0000   1.0000   1.0000   1.0000   1.0000
     1.0000   1.0000   1.0000   1.0000   1.0000   1.0000   1.0000   1.0000
     1.0000   1.0000   1.0000   1.0000   1.0000   1.0000   1.0000   1.0000
     1.0000   1.0000   1.0000   1.0000   1.0000   1.0000   1.0000   1.0000
     1.0000   1.0000   1.0000   1.0000   1.0000   1.0000   1.0000   1.0000
     1.0000   1.0000   1.0000   1.0000   1.0000   1.0000   1.0000   1.0000
     1.0000   1.0000   1.0000   1.0000   1.0000   1.0000   1.0000   1.0000
     1.0000   1.0000   1.0000   1.0000   1.0000   1.0000   1.0000   1.0000
     1.0000   1.0000   1.0000   1.0000   1.0000   1.0000   1.0000   1.0000
     1.0000   1.0000   1.0000   1.0000   1.0000   1.0000   1.0000   1.0000
     1.0000   1.0000   1.0000   1.0000   1.0000   1.0000   1.0000   1.0000
     1.0000   1.0000   1.0000   1.0000   1.0000   1.0000   1.0000   1.0000
     1.0000   1.0000   1.0000   1.0000   1.0000   1.0000   1.0000   1.0000
     1.0000   1.0000   1.0000   1.0000   1.0000   1.0000   1.0000   1.0000
     1.0000   1.0000   1.0000   1.0000   1.0000   1.0000   1.0000   1.0000
     1.0000   1.0000   1.0000   1.0000   1.0000   1.0000   1.0000   1.0000
     1.0000   1.0000   1.0000   1.0000   1.0000   1.0000   1.0000   1.0000
     1.0000   1.0000   1.0000   1.0000   1.0000   1.0000   1.0000   1.0000
     1.0000   1.0000   1.0000   1.0000   1.0000   1.0000   1.0000   1.0000
     1.0000   1.0000   1.0000   1.0000   1.0000   1.0000   1.0000   1.0000
     1.0000   1.0000   1.0000   1.0000   1.0000   1.0000   1.0000   1.0000
     1.0000   1.0000   1.0000   1.0000   1.0000   1.0000   1.0000   1.0000
     1.0000   1.0000   1.0000   1.0000   1.0000   1.0000   1.0000   1.0000
     1.0000   1.0000   1.0000   1.0000   1.0000   1.0000   1.0000   1.0000
     1.0000   1.0000   1.0000   1.0000   1.0000   1.0000   1.0000   1.0000
     1.0000   1.0000   1.0000   1.0000   1.0000   1.0000   1.0000   1.0000
     1.0000   1.0000   1.0000   1.0000   1.0000   1.0000   1.0000   1.0000
     1.0000   1.0000   1.0000   1.0000   1.0000   1.0000   1.0000   1.0000
     1.0000   1.0000   1.0000   1.0000   1.0000   1.0000   1.0000   1.0000
     1.0000   1.0000   1.0000   1.0000   1.0000   1.0000   1.0000   1.0000
     1.0000   1.0000   1.0000   1.0000   1.0000   1.0000   1.0000   1.0000
     1.0000   1.0000   1.0000   1.0000   1.0000   1.0000   1.0000   1.0000
     1.0000   1.0000   1.0000   1.0000   1.0000   1.0000   1.0000   1.0000
     1.0000   1.0000   1.0000   1.0000   1.0000   1.0000   1.0000   1.0000
     1.0000   1.0000   1.0000   1.0000   1.0000   1.0000   1.0000   1.0000
     1.0000   1.0000   1.0000   1.0000   1.0000   1.0000   1.0000   1.0000
     1.0000   1.0000   1.0000   1.0000   1.0000   1.0000   1.0000   1.0000
     1.0000   1.0000   1.0000   1.0000   1.0000   1.0000   1.0000   1.0000
     1.0000   1.0000   1.0000   1.0000   1.0000   1.0000   1.0000   1.0000
     1.0000   1.0000   1.0000   1.0000   1.0000   1.0000   1.0000   1.0000
     1.0000   1.0000   1.0000   1.0000   1.0000   1.0000   1.0000   1.0000
     1.0000   1.0000   1.0000   1.0000   1.0000   1.0000   1.0000   1.0000
     1.0000   1.0000   1.0000   1.0000   1.0000   1.0000   1.0000   1.0000
     1.0000   1.0000   1.0000   1.0000   1.0000   1.0000   1.0000   1.0000
     1.0000   1.0000   1.0000   1.0000   1.0000   1.0000   1.0000   1.0000
     0.0000   0.0000   0.0000   0.0000   0.0000   0.0000   0.0000   0.0000
     0.0000   0.0000   0.0000   0.0000   0.0000   0.0000   0.0000   0.0000
     0.0000   0.0000   0.0000   0.0000   0.0000   0.0000   0.0000   0.0000
     0.0000   0.0000   0.0000   0.0000   0.0000   0.0000   0.0000   0.0000
     0.0000   0.0000   0.0000   0.0000   0.0000   0.0000   0.0000   0.0000
     0.0000   0.0000   0.0000   0.0000   0.0000   0.0000   0.0000   0.0000
     0.0000   0.0000   0.0000   0.0000   0.0000   0.0000   0.0000   0.0000
     0.0000   0.0000   0.0000   0.0000   0.0000   0.0000   0.0000   0.0000
     0.0000   0.0000   0.0000   0.0000   0.0000   0.0000   0.0000   0.0000
     0.0000   0.0000   0.0000   0.0000   0.0000   0.0000   0.0000   0.0000
     0.0000   0.0000   0.0000   0.0000   0.0000   0.0000   0.0000   0.0000
     0.0000   0.0000   0.0000   0.0000   0.0000   0.0000   0.0000   0.0000
     0.0000   0.0000   0.0000   0.0000   0.0000   0.0000   0.0000   0.0000
     0.0000   0.0000   0.0000   0.0000   0.0000   0.0000   0.0000   0.0000
     0.0000   0.0000   0.0000   0.0000   0.0000   0.0000   0.0000   0.0000
     0.0000   0.0000   0.0000   0.0000   0.0000   0.0000   0.0000   0.0000
     0.0000   0.0000   0.0000   0.0000   0.0000   0.0000   0.0000   0.0000
     0.0000   0.0000   0.0000   0.0000   0.0000   0.0000   0.0000   0.0000
     0.0000   0.0000   0.0000   0.0000   0.0000   0.0000   0.0000   0.0000
     0.0000   0.0000   0.0000   0.0000   0.0000   0.0000   0.0000   0.0000
     0.0000   0.0000   0.0000   0.0000   0.0000   0.0000   0.0000   0.0000
     0.0000   0.0000   0.0000   0.0000   0.0000   0.0000   0.0000   0.0000
     0.0000   0.0000   0.0000   0.0000   0.0000   0.0000   0.0000   0.0000
     0.0000   0.0000   0.0000   0.0000   0.0000   0.0000   0.0000   0.0000
     0.0000   0.0000   0.0000   0.0000   0.0000   0.0000   0.0000   0.0000
     0.0000   0.0000   0.0000   0.0000   0.0000   0.0000   0.0000   0.0000
     0.0000   0.0000   0.0000   0.0000   0.0000   0.0000   0.0000   0.0000
     0.0000   0.0000   0.0000   0.0000   0.0000   0.0000   0.0000   0.0000
     0.0000   0.0000   0.0000   0.0000   0.0000   0.0000   0.0000   0.0000
     0.0000   0.0000   0.0000   0.0000   0.0000   0.0000   0.0000   0.0000
     0.0000   0.0000   0.0000   0.0000   0.0000   0.0000   0.0000   0.0000
     0.0000   0.0000   0.0000   0.0000   0.0000   0.0000   0.0000   0.0000
     0.0000   0.0000   0.0000   0.0000   0.0000   0.0000   0.0000   0.0000
     0.0000   0.0000   0.0000   0.0000   0.0000   0.0000   0.0000   0.0000
     0.0000   0.0000   0.0000   0.0000   0.0000   0.0000   0.0000   0.0000
     0.0000   0.0000   0.0000   0.0000   0.0000   0.0000   0.0000   0.0000
     0.0000   0.0000   0.0000   0.0000   0.0000   0.0000   0.0000   0.0000
     0.0000   0.0000   0.0000   0.0000   0.0000   0.0000   0.0000   0.0000
     0.0000   0.0000   0.0000   0.0000   0.0000   0.0000   0.0000   0.0000
     0.0000   0.0000   0.0000   0.0000   0.0000   0.0000   0.0000   0.0000
     0.0000   0.0000   0.0000   0.0000   0.0000   0.0000   0.0000   0.0000
     0.0000   0.0000   0.0000   0.0000   0.0000   0.0000   0.0000   0.0000
     0.0000   0.0000   0.0000   0.0000   0.0000   0.0000   0.0000   0.0000
     0.0000   0.0000   0.0000   0.0000   0.0000   0.0000   0.0000   0.0000
     0.0000   0.0000   0.0000   0.0000   0.0000   0.0000   0.0000   0.0000
     0.0000   0.0000   0.0000   0.0000   0.0000   0.0000   0.0000   0.0000
     0.0000   0.0000   0.0000   0.0000   0.0000   0.0000   0.0000   0.0000
     0.0000   0.0000   0.0000   0.0000   0.0000   0.0000   0.0000   0.0000
     0.0000   0.0000   0.0000   0.0000   0.0000   0.0000   0.0000   0.0000
     0.0000   0.0000   0.0000   0.0000   0.0000   0.0000   0.0000   0.0000
     0.0000   0.0000   0.0000   0.0000   0.0000   0.0000   0.0000   0.0000
     0.0000   0.0000   0.0000   0.0000   0.0000   0.0000   0.0000   0.0000
     0.0000   0.0000   0.0000   0.0000   0.0000   0.0000   0.0000   0.0000
     0.0000   0.0000   0.0000   0.0000   0.0000   0.0000   0.0000

 ------ SPIN DOWN ----------


          k = 0.0000 0.0000 0.0000 ( 42379 PWs)   bands (ev):

    -8.3335  -7.4832  -7.3343  -7.3343  -7.2707  -7.2707  -7.1726  -6.6524
    -6.3319  -6.3318  -6.3162  -6.3162  -6.3003  -6.2571  -6.2571  -6.2538
    -6.1656  -6.1656  -5.9942  -5.5540  -5.2773  -5.2598  -5.2598  -5.2201
    -5.2117  -5.2117  -5.0114  -4.4495  -4.3017  -4.3017  -4.2791  -4.2791
    -4.2335  -3.8730  -3.4296  -3.4244  -3.4244  -3.4149  -3.4149  -3.4029
    -3.3921  -3.3921  -3.3865  -3.3731  -3.3731  -3.3676  -3.3581  -3.3581
    -3.3068  -3.3068  -3.3048  -3.2875  -3.2875  -3.2821  -3.1910  -3.1910
    -3.0599  -2.8704  -2.6623  -2.6623  -2.6307  -2.6242  -2.6242  -2.6026
    -2.5950  -2.5950  -2.5941  -2.5562  -2.5562  -2.5258  -2.5123  -2.5123
    -2.5008  -2.5008  -2.4460  -2.4171  -2.4171  -2.3375  -2.1626  -2.1625
    -1.5517  -1.0833  -0.9281  -0.9281  -0.8788  -0.8788  -0.8786  -0.8570
    -0.8569  -0.8478  -0.7675  -0.7675  -0.3546   0.3296   0.3536   0.3536
     0.3705   0.3705   0.3972   0.6863   0.8180   0.8180   0.8210   0.8473
     0.8474   0.8558   0.8620   0.8625   0.8625   0.8909   0.8909   0.9163
     0.9163   0.9481   1.0060   1.0206   1.0206   1.0419   1.0420   1.0499
     1.0507   1.0770   1.0771   1.0808   1.0808   1.0850   1.0920   1.1022
     1.1022   1.1024   1.1452   1.1453   1.1492   1.1636   1.1636   1.1938
     1.1938   1.2058   1.2058   1.2115   1.2472   1.2472   1.3105   1.4953
     1.6215   1.6216   1.9291   2.1923   2.1924   2.2045   2.2296   2.2297
     2.2321   2.2610   2.2800   2.2800   2.4994   2.4994   3.4554   3.7027
     3.7027   3.7231   3.7591   3.7694   3.7695   3.7815   3.7815   3.7885
     3.7907   3.7944   3.8141   3.8141   3.8167   3.8397   3.8398   3.9570
     3.9570   3.9603   4.0067   4.3386   4.3386   4.3839   4.4057   4.4236
     4.4237   4.4246   4.4368   4.4368   4.4483   4.4483   4.4521   4.4704
     4.4705   4.4999   4.4999   4.5006   4.5073   4.5331   4.5345   4.5345
     4.8042   4.8043   5.2249   5.2249   5.2258   5.2560   5.2561   5.2566
     5.2660   5.2749   5.2749   5.2883   5.2955   5.2955   5.3303   5.3303
     5.4110   5.4111   5.4199   5.4343   5.4356   5.4755   5.4755   5.5021
     5.5228   5.5228   5.6371   5.7135   5.7135   5.8119   5.8119   5.8219
     5.8292   5.8364   5.8364   5.8601   5.8715   5.8715   5.8796   5.8808
     5.8893   5.8893   5.9014   5.9226   5.9373   5.9373   5.9505   5.9505
     5.9606   5.9935   5.9935   6.0341   6.0341   6.3495   6.3910   6.3911
     6.8442   6.8443   6.9050   6.9238   6.9525   6.9526   7.1309   7.3641
     7.3642   7.4346   7.4346   7.4384   7.4504   7.4611   7.4611   7.5181
     7.5584   7.5584   7.7031   7.7031   7.8326   7.8500   7.8534   7.8534
     7.8765   7.8765   7.8863   7.9031   7.9303   7.9303   7.9440   8.0283
     8.0449   8.0449   8.0502   8.0560   8.0560   8.0756   8.0756   8.0774
     8.0877   8.0880   8.0881   8.1023   8.1023   8.1280   8.1517   8.1517
     8.1651   8.1652   8.1710   8.1949   8.2005   8.2005   8.2540   8.2540
     8.2624   8.2694   8.2824   8.2838   8.2838   8.2898   8.2899   8.2982
     8.2982   8.3097   8.3192   8.3363   8.3386   8.3386   8.3463   8.3463
     8.3490   8.3522   8.3522   8.3658   8.3815   8.3815   8.3888   8.3888
     8.3895   8.4125   8.4147   8.4147   8.4529   8.4529   8.4627   8.4738
     8.4738   8.5305   8.5305   8.5391   8.5634   8.5753   8.5857   8.5858
     8.5992   8.7398   8.7398   8.9003   8.9004   8.9020   9.0667   9.0667
     9.1149   9.1214   9.1253   9.1253   9.1939   9.1939   9.1940   9.2092
     9.2397   9.2397   9.2636   9.2637   9.2659   9.2987   9.2987   9.3263
     9.4214   9.4214   9.4785  10.0883  10.2485  10.2486  10.5105  10.5106
    10.5506  10.5507  10.5527  10.5802  10.6087  10.6088  10.6174  10.6379
    10.6494  10.6494  10.6778  10.7505  10.7507  10.8098  10.8099  10.8122
    10.8293  10.8295  10.8471  10.8664  10.8665  10.8798  10.8799  10.9200
    10.9215  10.9215  10.9499  10.9539  10.9541  11.5144  11.5154  11.5155
    11.7237  11.7417  11.7418  11.7740  11.7995  11.7996  11.8580  11.9362
    11.9363  12.3812  13.0403  13.0406  13.0706  14.7515  16.5350  16.5350
    17.2596  17.2596  17.2881  17.3213  17.3213  17.3369  17.8565  17.9247
    17.9248  17.9368  17.9369  18.0114  18.0654  18.0654  18.1389  18.1755
    18.1755  18.2045  18.8395  18.8398  18.8493  19.3780  19.4367  19.4367
    19.4494  19.4802  19.4802  19.4904  19.4905  19.5046  19.5102  19.5102
    19.5386  19.9901  20.1462  20.1462  20.1676  20.1715  20.1715  20.1827
    20.1865  20.1866  20.2004  20.2005  20.2312  20.2312  20.2360  20.2514
    20.2760  20.2786  20.2786  20.3038  20.3038  20.3224  20.3413  20.3535
    20.3535  20.6266  20.6350  20.6362  20.6363  20.6510  20.6573  20.6574
    20.6726  20.6797  20.6797  20.6984  20.6985  20.7008  20.7439  20.7439
    20.7793  20.7793  20.7822  20.8104  20.8104  20.8232  20.8262  20.8446
    20.8446  20.8557  20.8572  20.8572  20.8751  20.8752  20.8764  20.8891
    20.8892  20.8956  20.8957  20.9339  20.9416  20.9874  21.0001  21.0001
    21.0608  21.0609  21.0678  21.1757  21.2646  21.2647  21.2772  21.3068
    21.3068  21.3073  21.3073  21.3104  21.3338  21.3387  21.3388  21.3520
    21.3521  21.3631  21.3750  21.3751  21.3834  21.3974  21.3975  21.4217
    21.4227  21.4228  21.4301  21.4302  21.4337  21.4623  21.4623  21.4780
    21.4781  21.4955  21.5026  21.5370  21.5371  21.5419  21.5740  21.5778
    21.6009  21.6009  21.6023  21.6414  21.6414  21.6632  21.6632  21.6846
    21.7160  21.7161  21.7253  21.7350  21.7350  21.7485  21.8066  21.8067
    21.8162  21.9521  21.9804  21.9805  22.0247  22.0247  22.0813  22.0814
    22.0973  22.1587  22.1616  22.1616  22.1997  22.1998  22.2056  22.3144
    22.3329  22.3330  22.4344  22.4584  22.4586  22.4819  22.4820  22.4870
    22.7212  22.7623  22.7623  22.9362  23.0147  23.0147  23.0184  23.0718
    23.0790  23.0790  23.0880  23.0880  23.1016  23.1017  23.1162  23.1231
    23.1232  23.1232  23.1479  23.2099  23.2378  23.2379  23.2630  23.3206
    23.3390  23.3390  23.3718  23.3719  23.4517  23.4770  23.4771  23.7346
    23.7438  23.7438  23.7554  23.7730  23.7927  23.7928  23.8078  23.8079
    23.8436  23.8436  23.8508  23.8524  23.8525  23.8734  23.8869  23.9627
    23.9869  23.9870  23.9948  24.0747  24.0748  24.1607  24.1607  24.1843
    24.2048  24.2120  24.2120  24.2247  24.2269  24.2269  24.2419  24.2419
    24.2516  24.3140  24.3168  24.3169  24.3607  24.3607  24.3757  24.3932
    24.3932  24.4030  24.4093  24.4093  24.4228  24.4487  24.4637  24.4637
    24.4777  24.4948  24.4948  24.4985  24.4985  24.5177  24.5192  24.5605
    24.5605  24.5716  24.5717  24.6459  24.7123  24.7123  24.7148  25.0004
    25.0004  25.0360  25.0361  25.5860  25.6000  25.6000  25.6576  25.7272
    25.7692  25.7692  25.7790  25.7790  25.9798  25.9989  25.9990  26.0008
    26.0561  26.0562  26.1081  26.1110  26.1574  26.1574  26.2303  26.3190
    26.3190  26.4259  26.5637  26.5637  26.5885  26.6025  26.6096  26.6186
    26.6186  26.6384  26.6384  26.6566  26.6566  26.6725  26.7298  26.7298
    26.7378  26.7429  26.7606  26.7606  26.8192  26.8192  26.8220  26.9528
    26.9529  27.0345  27.0374  27.0375  27.0458  27.0459  27.0505  27.0621
    27.0696  27.0716  27.0717  27.0732  27.0732  27.1210  27.1210  27.1559
    27.1601  27.1918  27.1919  27.2295  27.2295  27.2372  27.2372  27.2465
    27.2506  27.2639  27.2728  27.2794  27.2795  27.2830  27.2967  27.2967
    27.3053  27.3053  27.3094  27.3272  27.3304  27.3305  27.3429  27.3429
    27.3438  27.3625  27.3625  27.3789  27.3885  27.3885  27.4065  27.4331
    27.4415  27.4416  27.4488  27.4692  27.4692  27.5093  27.5093  27.5280
    27.5280  27.5302  27.5380  27.5534  27.5534  27.5546  27.5711  27.5863
    27.5863  27.5983  27.5999  27.6084  27.6084  27.6242  27.6243  27.7075
    27.7075  27.7340  27.7340  27.7862  27.8056  27.8603  27.8950  27.9020
    27.9020  27.9423  27.9423  28.0065  28.0748  28.0749  28.1338  28.1479
    28.1479  28.2304  28.2304  28.3038  28.3495  28.4205  28.4205  28.5114
    28.5480  28.5480  28.7785  28.8765  28.8765  28.9294  29.7516  29.8076
    29.8078  29.9521  29.9838  29.9841  30.0111  30.0518  30.0531

     occupation numbers 
     1.0000   1.0000   1.0000   1.0000   1.0000   1.0000   1.0000   1.0000
     1.0000   1.0000   1.0000   1.0000   1.0000   1.0000   1.0000   1.0000
     1.0000   1.0000   1.0000   1.0000   1.0000   1.0000   1.0000   1.0000
     1.0000   1.0000   1.0000   1.0000   1.0000   1.0000   1.0000   1.0000
     1.0000   1.0000   1.0000   1.0000   1.0000   1.0000   1.0000   1.0000
     1.0000   1.0000   1.0000   1.0000   1.0000   1.0000   1.0000   1.0000
     1.0000   1.0000   1.0000   1.0000   1.0000   1.0000   1.0000   1.0000
     1.0000   1.0000   1.0000   1.0000   1.0000   1.0000   1.0000   1.0000
     1.0000   1.0000   1.0000   1.0000   1.0000   1.0000   1.0000   1.0000
     1.0000   1.0000   1.0000   1.0000   1.0000   1.0000   1.0000   1.0000
     1.0000   1.0000   1.0000   1.0000   1.0000   1.0000   1.0000   1.0000
     1.0000   1.0000   1.0000   1.0000   1.0000   1.0000   1.0000   1.0000
     1.0000   1.0000   1.0000   1.0000   1.0000   1.0000   1.0000   1.0000
     1.0000   1.0000   1.0000   1.0000   1.0000   1.0000   1.0000   1.0000
     1.0000   1.0000   1.0000   1.0000   1.0000   1.0000   1.0000   1.0000
     1.0000   1.0000   1.0000   1.0000   1.0000   1.0000   1.0000   1.0000
     1.0000   1.0000   1.0000   1.0000   1.0000   1.0000   1.0000   1.0000
     1.0000   1.0000   1.0000   1.0000   1.0000   1.0000   1.0000   1.0000
     1.0000   1.0000   1.0000   1.0000   1.0000   1.0000   1.0000   1.0000
     1.0000   1.0000   1.0000   1.0000   1.0000   1.0000   1.0000   1.0000
     1.0000   1.0000   1.0000   1.0000   1.0000   1.0000   1.0000   1.0000
     1.0000   1.0000   1.0000   1.0000   1.0000   1.0000   1.0000   1.0000
     1.0000   1.0000   1.0000   1.0000   1.0000   1.0000   1.0000   1.0000
     1.0000   1.0000   1.0000   1.0000   1.0000   1.0000   1.0000   1.0000
     1.0000   1.0000   1.0000   1.0000   1.0000   1.0000   1.0000   1.0000
     1.0000   1.0000   1.0000   1.0000   1.0000   1.0000   1.0000   1.0000
     1.0000   1.0000   1.0000   1.0000   1.0000   1.0000   1.0000   1.0000
     1.0000   1.0000   1.0000   1.0000   1.0000   1.0000   1.0000   1.0000
     1.0000   1.0000   1.0000   1.0000   1.0000   1.0000   1.0000   1.0000
     1.0000   1.0000   1.0000   1.0000   1.0000   1.0000   1.0000   1.0000
     1.0000   1.0000   1.0000   1.0000   1.0000   1.0000   1.0000   1.0000
     1.0000   1.0000   1.0000   1.0000   1.0000   1.0000   1.0000   1.0000
     1.0000   1.0000   1.0000   1.0000   1.0000   1.0000   1.0000   1.0000
     1.0000   1.0000   1.0000   1.0000   1.0000   1.0000   1.0000   1.0000
     1.0000   1.0000   1.0000   1.0000   1.0000   1.0000   1.0000   1.0000
     1.0000   1.0000   1.0000   1.0000   1.0000   1.0000   1.0000   1.0000
     1.0000   1.0000   1.0000   1.0000   1.0000   1.0000   1.0000   1.0000
     1.0000   1.0000   1.0000   1.0000   1.0000   1.0000   1.0000   1.0000
     1.0000   1.0000   1.0000   1.0000   1.0000   1.0000   1.0000   1.0000
     1.0000   1.0000   1.0000   1.0000   1.0000   1.0000   1.0000   1.0000
     1.0000   1.0000   1.0000   1.0000   1.0000   1.0000   1.0000   1.0000
     1.0000   1.0000   1.0000   1.0000   1.0000   1.0000   1.0000   1.0000
     1.0000   1.0000   1.0000   1.0000   1.0000   1.0000   1.0000   1.0000
     1.0000   1.0000   1.0000   1.0000   1.0000   1.0000   1.0000   1.0000
     1.0000   1.0000   1.0000   1.0000   1.0000   1.0000   1.0000   1.0000
     1.0000   1.0000   1.0000   1.0000   1.0000   1.0000   1.0000   1.0000
     1.0000   1.0000   1.0000   1.0000   1.0000   1.0000   1.0000   1.0000
     1.0000   1.0000   1.0000   1.0000   1.0000   1.0000   1.0000   1.0000
     1.0000   1.0000   1.0000   1.0000   1.0000   1.0000   1.0000   1.0000
     1.0000   1.0000   1.0000   1.0000   1.0000   1.0000   1.0000   1.0000
     1.0000   1.0000   1.0000   1.0000   1.0000   1.0000   1.0000   1.0000
     1.0000   1.0000   1.0000   1.0000   1.0000   1.0000   1.0000   1.0000
     1.0000   1.0000   1.0000   1.0000   1.0000   1.0000   1.0000   1.0000
     1.0000   1.0000   1.0000   1.0000   1.0000   1.0000   0.5001   0.4999
     0.0000   0.0000   0.0000   0.0000   0.0000   0.0000   0.0000   0.0000
     0.0000   0.0000   0.0000   0.0000   0.0000   0.0000   0.0000   0.0000
     0.0000   0.0000   0.0000   0.0000   0.0000   0.0000   0.0000   0.0000
     0.0000   0.0000   0.0000   0.0000   0.0000   0.0000   0.0000   0.0000
     0.0000   0.0000   0.0000   0.0000   0.0000   0.0000   0.0000   0.0000
     0.0000   0.0000   0.0000   0.0000   0.0000   0.0000   0.0000   0.0000
     0.0000   0.0000   0.0000   0.0000   0.0000   0.0000   0.0000   0.0000
     0.0000   0.0000   0.0000   0.0000   0.0000   0.0000   0.0000   0.0000
     0.0000   0.0000   0.0000   0.0000   0.0000   0.0000   0.0000   0.0000
     0.0000   0.0000   0.0000   0.0000   0.0000   0.0000   0.0000   0.0000
     0.0000   0.0000   0.0000   0.0000   0.0000   0.0000   0.0000   0.0000
     0.0000   0.0000   0.0000   0.0000   0.0000   0.0000   0.0000   0.0000
     0.0000   0.0000   0.0000   0.0000   0.0000   0.0000   0.0000   0.0000
     0.0000   0.0000   0.0000   0.0000   0.0000   0.0000   0.0000   0.0000
     0.0000   0.0000   0.0000   0.0000   0.0000   0.0000   0.0000   0.0000
     0.0000   0.0000   0.0000   0.0000   0.0000   0.0000   0.0000   0.0000
     0.0000   0.0000   0.0000   0.0000   0.0000   0.0000   0.0000   0.0000
     0.0000   0.0000   0.0000   0.0000   0.0000   0.0000   0.0000   0.0000
     0.0000   0.0000   0.0000   0.0000   0.0000   0.0000   0.0000   0.0000
     0.0000   0.0000   0.0000   0.0000   0.0000   0.0000   0.0000   0.0000
     0.0000   0.0000   0.0000   0.0000   0.0000   0.0000   0.0000   0.0000
     0.0000   0.0000   0.0000   0.0000   0.0000   0.0000   0.0000   0.0000
     0.0000   0.0000   0.0000   0.0000   0.0000   0.0000   0.0000   0.0000
     0.0000   0.0000   0.0000   0.0000   0.0000   0.0000   0.0000   0.0000
     0.0000   0.0000   0.0000   0.0000   0.0000   0.0000   0.0000   0.0000
     0.0000   0.0000   0.0000   0.0000   0.0000   0.0000   0.0000   0.0000
     0.0000   0.0000   0.0000   0.0000   0.0000   0.0000   0.0000   0.0000
     0.0000   0.0000   0.0000   0.0000   0.0000   0.0000   0.0000   0.0000
     0.0000   0.0000   0.0000   0.0000   0.0000   0.0000   0.0000   0.0000
     0.0000   0.0000   0.0000   0.0000   0.0000   0.0000   0.0000   0.0000
     0.0000   0.0000   0.0000   0.0000   0.0000   0.0000   0.0000   0.0000
     0.0000   0.0000   0.0000   0.0000   0.0000   0.0000   0.0000   0.0000
     0.0000   0.0000   0.0000   0.0000   0.0000   0.0000   0.0000   0.0000
     0.0000   0.0000   0.0000   0.0000   0.0000   0.0000   0.0000   0.0000
     0.0000   0.0000   0.0000   0.0000   0.0000   0.0000   0.0000   0.0000
     0.0000   0.0000   0.0000   0.0000   0.0000   0.0000   0.0000   0.0000
     0.0000   0.0000   0.0000   0.0000   0.0000   0.0000   0.0000   0.0000
     0.0000   0.0000   0.0000   0.0000   0.0000   0.0000   0.0000   0.0000
     0.0000   0.0000   0.0000   0.0000   0.0000   0.0000   0.0000   0.0000
     0.0000   0.0000   0.0000   0.0000   0.0000   0.0000   0.0000   0.0000
     0.0000   0.0000   0.0000   0.0000   0.0000   0.0000   0.0000   0.0000
     0.0000   0.0000   0.0000   0.0000   0.0000   0.0000   0.0000   0.0000
     0.0000   0.0000   0.0000   0.0000   0.0000   0.0000   0.0000   0.0000
     0.0000   0.0000   0.0000   0.0000   0.0000   0.0000   0.0000   0.0000
     0.0000   0.0000   0.0000   0.0000   0.0000   0.0000   0.0000   0.0000
     0.0000   0.0000   0.0000   0.0000   0.0000   0.0000   0.0000   0.0000
     0.0000   0.0000   0.0000   0.0000   0.0000   0.0000   0.0000   0.0000
     0.0000   0.0000   0.0000   0.0000   0.0000   0.0000   0.0000   0.0000
     0.0000   0.0000   0.0000   0.0000   0.0000   0.0000   0.0000   0.0000
     0.0000   0.0000   0.0000   0.0000   0.0000   0.0000   0.0000   0.0000
     0.0000   0.0000   0.0000   0.0000   0.0000   0.0000   0.0000   0.0000
     0.0000   0.0000   0.0000   0.0000   0.0000   0.0000   0.0000   0.0000
     0.0000   0.0000   0.0000   0.0000   0.0000   0.0000   0.0000   0.0000
     0.0000   0.0000   0.0000   0.0000   0.0000   0.0000   0.0000

     the spin up/dw Fermi energies are    16.4486   16.5350 ev

!    total energy              =   -3970.14938219 Ry
     total all-electron energy =    -16412.964985 Ry
     estimated scf accuracy    <          7.4E-09 Ry
     smearing contrib. (-TS)   =      -0.00282095 Ry
     internal energy E=F+TS    =   -3970.14656124 Ry

     The total energy is F=E-TS. E is the sum of the following terms:
     one-electron contribution =     888.09803658 Ry
     hartree contribution      =     218.05772074 Ry
     xc contribution           =   -1010.10754885 Ry
     ewald contribution        =   -2739.40587755 Ry
     one-center paw contrib.   =   -1326.78889216 Ry
      -> PAW hartree energy AE =      71.84832006 Ry
      -> PAW hartree energy PS =     -71.78296989 Ry
      -> PAW xc energy AE      =     -84.35558713 Ry
      -> PAW xc energy PS      =      34.98888832 Ry
      -> total E_H with PAW    =     218.12307091 Ry
      -> total E_XC with PAW   =   -1059.47424766 Ry

     total magnetization       =     1.00 Bohr mag/cell
     absolute magnetization    =     1.14 Bohr mag/cell

     convergence has been achieved in  20 iterations

     Forces acting on atoms (cartesian axes, Ry/au):

     atom    1 type  1   force =     0.00008711    0.00008701   -0.00010807
     atom    2 type  1   force =    -0.00004969   -0.00004494    0.00004880
     atom    3 type  1   force =    -0.00001324    0.00016336   -0.00002851
     atom    4 type  1   force =    -0.00003815   -0.00004240    0.00006014
     atom    5 type  1   force =    -0.00014289   -0.00002910    0.00015024
     atom    6 type  1   force =     0.00002601    0.00010150    0.00019508
     atom    7 type  1   force =    -0.00001126    0.00016378   -0.00002632
     atom    8 type  1   force =    -0.00021305    0.00004360   -0.00004351
     atom    9 type  1   force =    -0.00005035    0.00014588    0.00001512
     atom   10 type  1   force =    -0.00000553    0.00002034    0.00000064
     atom   11 type  1   force =    -0.00002223   -0.00004481    0.00002403
     atom   12 type  1   force =     0.00004509    0.00005571   -0.00004226
     atom   13 type  1   force =    -0.00001340   -0.00004261    0.00003295
     atom   14 type  1   force =     0.00000997   -0.00013418    0.00002273
     atom   15 type  1   force =    -0.00007696    0.00001133    0.00002710
     atom   16 type  1   force =     0.00002929    0.00005186   -0.00005813
     atom   17 type  1   force =    -0.00002923    0.00002131    0.00006544
     atom   18 type  1   force =     0.00011350    0.00020198   -0.00016303
     atom   19 type  1   force =    -0.00008823   -0.00006824    0.00010505
     atom   20 type  1   force =     0.00002636   -0.00009877    0.00008701
     atom   21 type  1   force =     0.00000240   -0.00001213   -0.00005338
     atom   22 type  1   force =    -0.00006046   -0.00011995    0.00000017
     atom   23 type  1   force =     0.00001148   -0.00007384    0.00000644
     atom   24 type  1   force =     0.00016105   -0.00006211   -0.00003696
     atom   25 type  1   force =     0.00005486    0.00000059   -0.00000089
     atom   26 type  1   force =     0.00005503   -0.00008791   -0.00014284
     atom   27 type  1   force =     0.00017704   -0.00007500   -0.00015881
     atom   28 type  1   force =     0.00005743    0.00001990    0.00002331
     atom   29 type  1   force =    -0.00000809    0.00011688    0.00013237
     atom   30 type  1   force =     0.00009802    0.00017103    0.00016078
     atom   31 type  1   force =     0.00002273    0.00006895   -0.00003174
     atom   32 type  1   force =     0.00001483   -0.00006298   -0.00004959
     atom   33 type  1   force =     0.00010957    0.00026200   -0.00012000
     atom   34 type  1   force =     0.00002741    0.00008187   -0.00014521
     atom   35 type  1   force =    -0.00019295    0.00000471   -0.00010343
     atom   36 type  1   force =     0.00000211    0.00002775   -0.00015410
     atom   37 type  1   force =    -0.00008191   -0.00004684    0.00009183
     atom   38 type  1   force =    -0.00000236   -0.00002211    0.00007558
     atom   39 type  1   force =     0.00012002    0.00006323    0.00012506
     atom   40 type  1   force =    -0.00001365   -0.00005421    0.00001967
     atom   41 type  1   force =    -0.00002560   -0.00006359    0.00011544
     atom   42 type  1   force =    -0.00005380   -0.00003558   -0.00003076
     atom   43 type  1   force =    -0.00002640   -0.00006886    0.00001420
     atom   44 type  1   force =    -0.00008771   -0.00018051   -0.00005865
     atom   45 type  1   force =     0.00011553   -0.00013613   -0.00012962
     atom   46 type  1   force =    -0.00006697   -0.00013215    0.00002747
     atom   47 type  1   force =     0.00002134   -0.00010047    0.00008895
     atom   48 type  1   force =    -0.00002678    0.00005413    0.00004488
     atom   49 type  1   force =    -0.00001591    0.00000129   -0.00000770
     atom   50 type  1   force =    -0.00003295   -0.00004903    0.00003024
     atom   51 type  1   force =     0.00002876    0.00005962   -0.00002056
     atom   52 type  1   force =     0.00005411    0.00016076   -0.00000830
     atom   53 type  1   force =    -0.00004749   -0.00006853    0.00002471
     atom   54 type  1   force =     0.00000820    0.00008644   -0.00012900
     atom   55 type  1   force =    -0.00002575   -0.00000020   -0.00005967
     atom   56 type  1   force =     0.00001528    0.00006727   -0.00003917
     atom   57 type  1   force =     0.00012269    0.00010496   -0.00005011
     atom   58 type  1   force =    -0.00015621    0.00008097   -0.00001603
     atom   59 type  1   force =     0.00006915   -0.00005785    0.00000183
     atom   60 type  1   force =     0.00009374    0.00007431    0.00018313
     atom   61 type  1   force =    -0.00019400    0.00010027   -0.00013100
     atom   62 type  1   force =     0.00005875    0.00024290   -0.00016708
     atom   63 type  1   force =     0.00014298    0.00006197   -0.00001288
     atom   64 type  1   force =    -0.00008033   -0.00004648    0.00009339
     atom   65 type  1   force =    -0.00000678   -0.00005255    0.00002649
     atom   66 type  1   force =     0.00000187   -0.00006204    0.00004246
     atom   67 type  1   force =    -0.00006820   -0.00003814    0.00000970
     atom   68 type  1   force =    -0.00009747   -0.00008118    0.00004340
     atom   69 type  1   force =     0.00009706   -0.00013550    0.00012625
     atom   70 type  1   force =    -0.00013281    0.00000186   -0.00012793
     atom   71 type  1   force =     0.00003800   -0.00001578    0.00006020
     atom   72 type  1   force =     0.00016145   -0.00012513   -0.00008375
     atom   73 type  1   force =     0.00000260   -0.00011513    0.00009712
     atom   74 type  1   force =     0.00000671    0.00000685    0.00001494
     atom   75 type  1   force =    -0.00002809    0.00014087   -0.00009058
     atom   76 type  1   force =    -0.00006201   -0.00012089    0.00000552
     atom   77 type  1   force =    -0.00001884   -0.00004547    0.00004455
     atom   78 type  1   force =    -0.00000920   -0.00005946    0.00006292
     atom   79 type  1   force =    -0.00005716    0.00004671    0.00001455
     atom   80 type  1   force =     0.00000681    0.00005431   -0.00004266
     atom   81 type  1   force =     0.00010530    0.00010995   -0.00003188
     atom   82 type  1   force =     0.00007789   -0.00023457   -0.00002090
     atom   83 type  1   force =     0.00002090    0.00002995    0.00015918
     atom   84 type  1   force =     0.00004374    0.00008880    0.00008223
     atom   85 type  1   force =    -0.00016050   -0.00001405   -0.00002261
     atom   86 type  1   force =    -0.00005109    0.00007767    0.00003235
     atom   87 type  1   force =     0.00006769    0.00013616    0.00011218
     atom   88 type  1   force =    -0.00009955    0.00005412   -0.00006095
     atom   89 type  1   force =    -0.00013863    0.00008594   -0.00009441
     atom   90 type  1   force =     0.00013807    0.00037832   -0.00022973
     atom   91 type  1   force =    -0.00001796    0.00003906    0.00000856
     atom   92 type  1   force =     0.00003773    0.00005189    0.00010319
     atom   93 type  1   force =     0.00003917    0.00002846    0.00015370
     atom   94 type  1   force =    -0.00011146    0.00001580   -0.00004601
     atom   95 type  1   force =     0.00010029    0.00000795    0.00001346
     atom   96 type  1   force =    -0.00015440   -0.00001861   -0.00004053
     atom   97 type  1   force =    -0.00001207   -0.00001946   -0.00009899
     atom   98 type  1   force =     0.00013880   -0.00003111   -0.00013117
     atom   99 type  1   force =    -0.00006293   -0.00014987    0.00009939
     atom  100 type  1   force =     0.00004252    0.00001054    0.00001333
     atom  101 type  1   force =    -0.00023391   -0.00008957    0.00001411
     atom  102 type  1   force =    -0.00001420   -0.00000328   -0.00004348
     atom  103 type  1   force =     0.00007542   -0.00007479   -0.00005725
     atom  104 type  1   force =     0.00008275   -0.00012681   -0.00004549
     atom  105 type  1   force =     0.00000081   -0.00003257    0.00024873
     atom  106 type  1   force =     0.00007655   -0.00012842   -0.00005195
     atom  107 type  1   force =     0.00008304   -0.00002490   -0.00007686
     atom  108 type  1   force =     0.00009198   -0.00017044   -0.00005045
     atom  109 type  1   force =     0.00000761    0.00007096    0.00012985
     atom  110 type  1   force =     0.00009017    0.00018038    0.00010451
     atom  111 type  1   force =    -0.00014269    0.00003460   -0.00002041
     atom  112 type  1   force =    -0.00009727    0.00003554    0.00008831
     atom  113 type  1   force =     0.00008090    0.00014315    0.00014052
     atom  114 type  1   force =    -0.00014131    0.00012426   -0.00012708
     atom  115 type  1   force =    -0.00016855    0.00008372   -0.00010924
     atom  116 type  1   force =     0.00009981    0.00025687   -0.00016206
     atom  117 type  1   force =    -0.00002171    0.00000963    0.00001946
     atom  118 type  1   force =    -0.00001091   -0.00002929    0.00005653
     atom  119 type  1   force =     0.00006554    0.00004116    0.00012713
     atom  120 type  1   force =    -0.00004833   -0.00003859    0.00001924
     atom  121 type  1   force =     0.00010962   -0.00005042    0.00007215
     atom  122 type  1   force =    -0.00013119   -0.00000657   -0.00006993
     atom  123 type  1   force =    -0.00005519   -0.00008991   -0.00009316
     atom  124 type  1   force =     0.00014815   -0.00005454   -0.00013499
     atom  125 type  1   force =    -0.00006060   -0.00017594    0.00010346
     atom  126 type  1   force =     0.00003150   -0.00000858   -0.00000061
     atom  127 type  1   force =    -0.00018657   -0.00004224   -0.00003396
     atom  128 type  1   force =     0.00000348   -0.00001561   -0.00002864
     atom  129 type  1   force =     0.00001300   -0.00006429    0.00000256
     atom  130 type  1   force =     0.00011926   -0.00007711   -0.00005667
     atom  131 type  1   force =     0.00003773    0.00001212    0.00019026
     atom  132 type  1   force =     0.00007655   -0.00008739   -0.00009933
     atom  133 type  1   force =     0.00017167   -0.00001086   -0.00016897
     atom  134 type  1   force =    -0.00003337    0.00006762   -0.00001258
     atom  135 type  1   force =     0.00000655    0.00008281    0.00013151
     atom  136 type  1   force =     0.00006184    0.00008252    0.00020205
     atom  137 type  1   force =    -0.00004863    0.00009452   -0.00007463
     atom  138 type  1   force =    -0.00007823    0.00002957   -0.00006098
     atom  139 type  1   force =     0.00011122    0.00008543   -0.00002273
     atom  140 type  1   force =    -0.00009963   -0.00002760   -0.00004612
     atom  141 type  1   force =    -0.00005398   -0.00001137   -0.00006206
     atom  142 type  1   force =     0.00008097   -0.00001135   -0.00012816
     atom  143 type  1   force =    -0.00008251   -0.00007856    0.00003213
     atom  144 type  1   force =    -0.00001777   -0.00003533    0.00001189
     atom  145 type  1   force =    -0.00003442   -0.00008425    0.00004700
     atom  146 type  1   force =    -0.00001053    0.00003059   -0.00006828
     atom  147 type  1   force =     0.00007419   -0.00008254   -0.00010624
     atom  148 type  1   force =     0.00013859   -0.00012674   -0.00010416
     atom  149 type  1   force =     0.00001035   -0.00007647    0.00022779
     atom  150 type  1   force =    -0.00000062   -0.00018793   -0.00002278
     atom  151 type  1   force =     0.00005441   -0.00015646   -0.00010122
     atom  152 type  1   force =     0.00007560   -0.00023085    0.00000546
     atom  153 type  1   force =    -0.00004566   -0.00004631    0.00017020
     atom  154 type  1   force =    -0.00001551    0.00005159    0.00017262
     atom  155 type  1   force =    -0.00009853    0.00001612   -0.00000294
     atom  156 type  1   force =    -0.00005967    0.00004551    0.00000094
     atom  157 type  1   force =     0.00004302    0.00014267    0.00006458
     atom  158 type  1   force =    -0.00000560    0.00002171   -0.00002592
     atom  159 type  1   force =    -0.00011699   -0.00000635   -0.00003866
     atom  160 type  1   force =     0.00010152    0.00028000   -0.00019117
     atom  161 type  1   force =    -0.00000452    0.00007454    0.00001616
     atom  162 type  1   force =     0.00004895    0.00011822    0.00002292
     atom  163 type  1   force =     0.00004860    0.00000836    0.00010191
     atom  164 type  1   force =    -0.00014754    0.00004582   -0.00002210
     atom  165 type  1   force =     0.00004686    0.00006442    0.00006567
     atom  166 type  1   force =     0.00006152    0.00001654    0.00005346
     atom  167 type  1   force =    -0.00021459    0.00001546   -0.00007243
     atom  168 type  1   force =     0.00000491    0.00005912   -0.00012834
     atom  169 type  1   force =     0.00012959    0.00000045   -0.00007959
     atom  170 type  1   force =    -0.00001493   -0.00006203    0.00009961
     atom  171 type  1   force =     0.00005869    0.00004749    0.00000108
     atom  172 type  1   force =    -0.00020288   -0.00012823    0.00001465
     atom  173 type  1   force =    -0.00000371   -0.00003206    0.00002597
     atom  174 type  1   force =     0.00012503   -0.00007044   -0.00005599
     atom  175 type  1   force =     0.00006635   -0.00017190    0.00004430
     atom  176 type  1   force =    -0.00002672   -0.00008239    0.00005466
     atom  177 type  1   force =     0.00013448   -0.00012711   -0.00010810
     atom  178 type  1   force =     0.00013685   -0.00013651   -0.00001886
     atom  179 type  1   force =     0.00005134   -0.00023664   -0.00001885
     atom  180 type  1   force =    -0.00000383    0.00003925    0.00009173
     atom  181 type  1   force =     0.00002009    0.00002791   -0.00000024
     atom  182 type  1   force =    -0.00015578   -0.00007309    0.00006029
     atom  183 type  1   force =    -0.00001338    0.00005663    0.00004715
     atom  184 type  1   force =     0.00003559    0.00003036    0.00011388
     atom  185 type  1   force =    -0.00018031    0.00001164    0.00000800
     atom  186 type  1   force =    -0.00009506    0.00010916   -0.00007338
     atom  187 type  1   force =     0.00012277    0.00028511   -0.00016996
     atom  188 type  1   force =    -0.00002855   -0.00008608    0.00004952
     atom  189 type  1   force =     0.00005407    0.00008893    0.00019716
     atom  190 type  1   force =     0.00008386    0.00000207    0.00017146
     atom  191 type  1   force =    -0.00021153    0.00002263   -0.00006867
     atom  192 type  1   force =    -0.00001476    0.00014071   -0.00001946
     atom  193 type  1   force =     0.00009683    0.00011277    0.00006889
     atom  194 type  1   force =    -0.00016457   -0.00005830   -0.00007704
     atom  195 type  1   force =    -0.00009059    0.00006712   -0.00011856
     atom  196 type  1   force =     0.00011590    0.00026918   -0.00018102
     atom  197 type  1   force =    -0.00001026   -0.00003822    0.00001966
     atom  198 type  1   force =     0.00007924    0.00004716    0.00011906
     atom  199 type  1   force =     0.00002936   -0.00008585    0.00017363
     atom  200 type  1   force =    -0.00012447   -0.00000251   -0.00008491
     atom  201 type  1   force =     0.00006848   -0.00001850   -0.00007010
     atom  202 type  1   force =     0.00007552   -0.00001903    0.00000034
     atom  203 type  1   force =    -0.00014740   -0.00012880   -0.00000347
     atom  204 type  1   force =     0.00000632   -0.00003558   -0.00006864
     atom  205 type  1   force =     0.00006742   -0.00009677   -0.00004389
     atom  206 type  1   force =     0.00001363   -0.00012142    0.00001588
     atom  207 type  1   force =     0.00007281    0.00002239   -0.00003982
     atom  208 type  1   force =    -0.00020294   -0.00010540    0.00003272
     atom  209 type  1   force =     0.00003548    0.00001331   -0.00007715
     atom  210 type  1   force =     0.00009067    0.00004368   -0.00010115
     atom  211 type  1   force =     0.00009307   -0.00006772   -0.00002315
     atom  212 type  1   force =    -0.00001270   -0.00005906    0.00022292
     atom  213 type  1   force =     0.00004111   -0.00008027   -0.00007510
     atom  214 type  1   force =     0.00003021    0.00000246   -0.00003059
     atom  215 type  2   force =    -0.00005003   -0.00014197    0.00008397
     The non-local contrib.  to forces
     atom    1 type  1   force =     0.00409353    0.00339592   -0.00491439
     atom    2 type  1   force =     0.01181016    0.00049830   -0.00274795
     atom    3 type  1   force =     0.00570247    0.00615451   -0.01269128
     atom    4 type  1   force =     0.00288910   -0.00166841   -0.01166835
     atom    5 type  1   force =     0.03258062   -0.05094538   -0.02022111
     atom    6 type  1   force =     0.02198549   -0.00638900   -0.04152066
     atom    7 type  1   force =     0.01104172    0.00744943   -0.00735188
     atom    8 type  1   force =     0.04246423   -0.00141797   -0.02103778
     atom    9 type  1   force =     0.02356307    0.04772584   -0.03514254
     atom   10 type  1   force =    -0.00424983    0.00668868    0.00262829
     atom   11 type  1   force =     0.00892510    0.00031365    0.01502587
     atom   12 type  1   force =    -0.00522371    0.01183833   -0.00458840
     atom   13 type  1   force =    -0.01441578   -0.00535179   -0.00831408
     atom   14 type  1   force =    -0.10514113    0.13852689    0.07152914
     atom   15 type  1   force =    -0.18782292   -0.05145072   -0.02360669
     atom   16 type  1   force =     0.00151838    0.01347338    0.00215280
     atom   17 type  1   force =     0.02968703    0.00132588    0.19389423
     atom   18 type  1   force =     0.04973775    0.15461943   -0.08725311
     atom   19 type  1   force =    -0.00337393    0.00289012    0.00267537
     atom   20 type  1   force =     0.00138526   -0.00046239    0.01460354
     atom   21 type  1   force =    -0.00413648    0.00671138    0.00567762
     atom   22 type  1   force =    -0.01403745   -0.00420842   -0.00081869
     atom   23 type  1   force =    -0.00626151   -0.00961176    0.00859208
     atom   24 type  1   force =    -0.02845219   -0.00310576    0.00200392
     atom   25 type  1   force =    -0.00721389    0.00596257    0.00259894
     atom   26 type  1   force =    -0.00202954    0.00330722    0.02842627
     atom   27 type  1   force =    -0.03285422    0.00988501    0.03045628
     atom   28 type  1   force =    -0.00424576   -0.00213114   -0.00845528
     atom   29 type  1   force =     0.00844530   -0.02526584   -0.01060120
     atom   30 type  1   force =    -0.01735095   -0.03245171   -0.02737659
     atom   31 type  1   force =     0.00538852    0.00289728   -0.01229183
     atom   32 type  1   force =     0.09199154   -0.16885219   -0.03859438
     atom   33 type  1   force =     0.05394759    0.14317848   -0.10293004
     atom   34 type  1   force =     0.00942411    0.01188395   -0.00129706
     atom   35 type  1   force =     0.03131622    0.02905715    0.02058362
     atom   36 type  1   force =     0.02139014    0.05367338   -0.02702100
     atom   37 type  1   force =    -0.01408474   -0.00407169   -0.00063811
     atom   38 type  1   force =    -0.00517944   -0.01254390    0.00457905
     atom   39 type  1   force =    -0.02600151   -0.00978270   -0.00711946
     atom   40 type  1   force =    -0.01720600    0.00226707    0.00209397
     atom   41 type  1   force =    -0.03812588   -0.04458921   -0.17861534
     atom   42 type  1   force =    -0.19147540   -0.04145584   -0.00995093
     atom   43 type  1   force =    -0.00166778    0.01079017    0.00534015
     atom   44 type  1   force =     0.01049634    0.00939815    0.06219193
     atom   45 type  1   force =     0.00461686    0.04105521    0.02328370
     atom   46 type  1   force =    -0.00148212   -0.00228249   -0.00438025
     atom   47 type  1   force =     0.00600844   -0.01311170   -0.00266298
     atom   48 type  1   force =    -0.00024466   -0.00393057   -0.00884877
     atom   49 type  1   force =    -0.00137583   -0.00119302   -0.00812747
     atom   50 type  1   force =     0.01320055   -0.01140604   -0.00097024
     atom   51 type  1   force =    -0.00340946    0.00685224   -0.01139053
     atom   52 type  1   force =     0.00290700    0.00662796   -0.00050395
     atom   53 type  1   force =     0.00994918    0.00556212    0.00416970
     atom   54 type  1   force =     0.00245355    0.01501948   -0.00058459
     atom   55 type  1   force =     0.00859547    0.00098544    0.00438550
     atom   56 type  1   force =     0.01141088    0.00436000   -0.00626994
     atom   57 type  1   force =    -0.00126951    0.00928880   -0.01199059
     atom   58 type  1   force =     0.01649304   -0.02331266   -0.00255157
     atom   59 type  1   force =     0.07992443   -0.17178756   -0.05066802
     atom   60 type  1   force =    -0.02594916    0.01516092   -0.03668246
     atom   61 type  1   force =     0.03374436   -0.02005231    0.02371997
     atom   62 type  1   force =     0.06778014    0.14652958   -0.08909064
     atom   63 type  1   force =     0.01421109    0.05193132   -0.03420116
     atom   64 type  1   force =     0.00117803   -0.00036678    0.01462344
     atom   65 type  1   force =    -0.00306182    0.00570217    0.01623849
     atom   66 type  1   force =    -0.00777750    0.00930786   -0.00076806
     atom   67 type  1   force =    -0.00164002   -0.01168673    0.00811861
     atom   68 type  1   force =     0.18292657    0.00904741    0.04243774
     atom   69 type  1   force =    -0.06233029   -0.00827555   -0.01063254
     atom   70 type  1   force =     0.00847833   -0.00141698    0.02735757
     atom   71 type  1   force =     0.01396253    0.00839254    0.19548483
     atom   72 type  1   force =    -0.03216088    0.03212964   -0.01349464
     atom   73 type  1   force =     0.00475207   -0.00076798    0.00185360
     atom   74 type  1   force =     0.00813624    0.00111751    0.00138466
     atom   75 type  1   force =    -0.00098692    0.00568320   -0.00439756
     atom   76 type  1   force =     0.00584791   -0.01315220   -0.00282294
     atom   77 type  1   force =     0.00400644   -0.01363705   -0.01016505
     atom   78 type  1   force =    -0.00507648    0.00191243   -0.01085688
     atom   79 type  1   force =     0.00951433   -0.00156241    0.00091100
     atom   80 type  1   force =     0.00935056    0.00995022    0.00137022
     atom   81 type  1   force =    -0.00290014    0.01371889   -0.00593890
     atom   82 type  1   force =     0.00842635   -0.01138146   -0.00566444
     atom   83 type  1   force =     0.02854248   -0.04456551   -0.01271461
     atom   84 type  1   force =    -0.00186959   -0.00066636   -0.01545792
     atom   85 type  1   force =     0.02366979   -0.04574845   -0.01758598
     atom   86 type  1   force =     0.04166027   -0.00651255   -0.04008207
     atom   87 type  1   force =     0.01726875    0.04437005   -0.02639016
     atom   88 type  1   force =     0.01511988    0.00345767    0.00153227
     atom   89 type  1   force =     0.01567037    0.04398432   -0.02798732
     atom   90 type  1   force =     0.00767082    0.01990691   -0.01249796
     atom   91 type  1   force =     0.00540353   -0.01291566   -0.00226923
     atom   92 type  1   force =    -0.01343757   -0.02882790   -0.00475099
     atom   93 type  1   force =    -0.05372402   -0.00758296   -0.00440549
     atom   94 type  1   force =     0.01102400   -0.02289288    0.01971095
     atom   95 type  1   force =    -0.03858515    0.02956203   -0.03197305
     atom   96 type  1   force =     0.00453106    0.00655315    0.05384797
     atom   97 type  1   force =     0.02298679    0.04450393    0.02959913
     atom   98 type  1   force =     0.01775209    0.04305282   -0.02819620
     atom   99 type  1   force =    -0.00250462   -0.00646830    0.00407455
     atom  100 type  1   force =    -0.01347492   -0.00443250   -0.00035193
     atom  101 type  1   force =    -0.01487109   -0.00090054   -0.00330708
     atom  102 type  1   force =     0.00100061   -0.00092194    0.01412294
     atom  103 type  1   force =    -0.02087094   -0.00855213    0.02294445
     atom  104 type  1   force =    -0.05225289   -0.01161306   -0.00991075
     atom  105 type  1   force =     0.00300066    0.00343766    0.01456335
     atom  106 type  1   force =     0.01086982    0.00370612    0.05321124
     atom  107 type  1   force =    -0.00702449    0.01341606    0.00377183
     atom  108 type  1   force =     0.00724549   -0.00440975   -0.00617437
     atom  109 type  1   force =     0.00914473   -0.01535423    0.00234688
     atom  110 type  1   force =    -0.00287714    0.00025854   -0.02958228
     atom  111 type  1   force =     0.00160006   -0.01718673   -0.00519801
     atom  112 type  1   force =     0.06810692   -0.01261400   -0.06504489
     atom  113 type  1   force =    -0.03186388   -0.04207552   -0.12816382
     atom  114 type  1   force =     0.02859219    0.00789474    0.00188938
     atom  115 type  1   force =     0.13350918   -0.00194674    0.03720522
     atom  116 type  1   force =     0.00939508    0.02434696   -0.01530044
     atom  117 type  1   force =    -0.00856504   -0.00141672    0.00891042
     atom  118 type  1   force =    -0.00510044   -0.01473760    0.01515516
     atom  119 type  1   force =    -0.01695187   -0.00363195    0.00498513
     atom  120 type  1   force =    -0.01139407   -0.01626589    0.00886057
     atom  121 type  1   force =    -0.06447119    0.04698494   -0.05164902
     atom  122 type  1   force =    -0.00447025   -0.00060254    0.01746583
     atom  123 type  1   force =     0.03725436    0.07166651    0.05007380
     atom  124 type  1   force =    -0.08200305    0.09492849    0.05897136
     atom  125 type  1   force =    -0.00118476   -0.00308058    0.00193423
     atom  126 type  1   force =     0.00599742   -0.00795951    0.00742321
     atom  127 type  1   force =    -0.00900704    0.00289717   -0.00454504
     atom  128 type  1   force =    -0.00516363   -0.01067072   -0.00373858
     atom  129 type  1   force =    -0.00318162   -0.01995756    0.00802196
     atom  130 type  1   force =    -0.01466258   -0.00987675   -0.00356628
     atom  131 type  1   force =     0.00347574    0.00592591    0.00793790
     atom  132 type  1   force =     0.00537194   -0.00501268    0.01646799
     atom  133 type  1   force =    -0.01240515    0.02632495    0.00601967
     atom  134 type  1   force =    -0.00198044   -0.01209557   -0.00388681
     atom  135 type  1   force =    -0.01771765   -0.08882167    0.02857475
     atom  136 type  1   force =     0.00285042   -0.01549551   -0.12937862
     atom  137 type  1   force =     0.00579528   -0.00859740    0.00785676
     atom  138 type  1   force =     0.55720218    0.06683738    0.10035732
     atom  139 type  1   force =    -0.05191151    0.06314249   -0.06011031
     atom  140 type  1   force =     0.01987279    0.00533371   -0.00456489
     atom  141 type  1   force =     0.02672808    0.01623321    0.01401832
     atom  142 type  1   force =     0.00288709    0.02152087    0.00046023
     atom  143 type  1   force =    -0.01042672   -0.01005158    0.00456455
     atom  144 type  1   force =    -0.00911802   -0.06376322    0.04423581
     atom  145 type  1   force =    -0.02383949   -0.01094956    0.00162784
     atom  146 type  1   force =    -0.00604256   -0.00096959    0.01131257
     atom  147 type  1   force =    -0.02828225   -0.05992686    0.06805597
     atom  148 type  1   force =    -0.04432712    0.11336318    0.04663347
     atom  149 type  1   force =    -0.00330592    0.00447490    0.01127317
     atom  150 type  1   force =     0.00397262    0.01213158    0.01784508
     atom  151 type  1   force =    -0.01876791    0.02656086    0.01099654
     atom  152 type  1   force =     0.00184427   -0.00957720   -0.00793356
     atom  153 type  1   force =     0.01252958   -0.01123741   -0.01407897
     atom  154 type  1   force =    -0.00694524   -0.00574125   -0.03314017
     atom  155 type  1   force =     0.01788663    0.01079519    0.00288207
     atom  156 type  1   force =     0.03298681   -0.00082612   -0.00929511
     atom  157 type  1   force =     0.00804754    0.00746823   -0.01874730
     atom  158 type  1   force =     0.00920282    0.00286183    0.00036971
     atom  159 type  1   force =     0.02522349   -0.00420913    0.00983511
     atom  160 type  1   force =     0.00126361    0.01137963   -0.00800012
     atom  161 type  1   force =     0.00656958   -0.01002010    0.00466410
     atom  162 type  1   force =    -0.00544057   -0.01132320   -0.00337938
     atom  163 type  1   force =     0.00374740    0.00141996   -0.02069135
     atom  164 type  1   force =    -0.00732860   -0.08630029    0.03896197
     atom  165 type  1   force =    -0.09729934   -0.09196162   -0.55408377
     atom  166 type  1   force =    -0.01667993    0.00569889   -0.02938921
     atom  167 type  1   force =     0.12941636    0.01521592   -0.00281579
     atom  168 type  1   force =     0.04202459    0.08593402    0.03382403
     atom  169 type  1   force =    -0.00543599    0.01950144   -0.00786176
     atom  170 type  1   force =    -0.00236315   -0.00809348    0.01262842
     atom  171 type  1   force =    -0.01093477   -0.00215537    0.00642199
     atom  172 type  1   force =    -0.01209762    0.00234081    0.00248170
     atom  173 type  1   force =    -0.02820375   -0.06839492    0.02514890
     atom  174 type  1   force =    -0.05279578   -0.06587515    0.04354293
     atom  175 type  1   force =    -0.02008098    0.00629267   -0.00620794
     atom  176 type  1   force =     0.00031824   -0.00508657    0.02578337
     atom  177 type  1   force =    -0.07328697    0.10633714    0.01767148
     atom  178 type  1   force =    -0.01747663    0.02687327    0.01228752
     atom  179 type  1   force =     0.01001617   -0.00759197    0.00023908
     atom  180 type  1   force =    -0.00483330    0.00528478   -0.01983899
     atom  181 type  1   force =    -0.00076786    0.00044125   -0.00960204
     atom  182 type  1   force =     0.01668223   -0.01023077   -0.00992575
     atom  183 type  1   force =     0.01016665   -0.00636421   -0.03211585
     atom  184 type  1   force =    -0.00784033   -0.01223632   -0.02322923
     atom  185 type  1   force =     0.03334514    0.00403726    0.00715174
     atom  186 type  1   force =     0.01668159    0.00956541   -0.01011292
     atom  187 type  1   force =     0.00512713    0.01231595   -0.00413570
     atom  188 type  1   force =     0.00763312   -0.02508890   -0.00154565
     atom  189 type  1   force =    -0.03491674    0.00148819   -0.12555725
     atom  190 type  1   force =    -0.00526723   -0.00649887   -0.03330151
     atom  191 type  1   force =     0.12062166    0.03922654    0.02997672
     atom  192 type  1   force =     0.07052792    0.00810451   -0.07249309
     atom  193 type  1   force =    -0.00281037    0.01234480   -0.01764160
     atom  194 type  1   force =     0.03372901    0.00296641    0.00569645
     atom  195 type  1   force =     0.01414755    0.01646128   -0.00068501
     atom  196 type  1   force =     0.00628533    0.00911785   -0.00849528
     atom  197 type  1   force =    -0.03400293   -0.05256575    0.04675677
     atom  198 type  1   force =    -0.04963736   -0.07449547    0.03179302
     atom  199 type  1   force =    -0.01882536    0.00284968   -0.01090022
     atom  200 type  1   force =    -0.01474405   -0.06602849    0.06668343
     atom  201 type  1   force =    -0.29585623    0.45034061    0.18658020
     atom  202 type  1   force =    -0.02359822    0.02460553   -0.00356719
     atom  203 type  1   force =     0.00937894    0.00969431    0.01730332
     atom  204 type  1   force =    -0.00300903    0.02960266    0.01702184
     atom  205 type  1   force =    -0.01787583    0.01515865    0.01420065
     atom  206 type  1   force =     0.00008833   -0.01477828    0.00349639
     atom  207 type  1   force =    -0.00834244   -0.00923990   -0.00326206
     atom  208 type  1   force =    -0.00961357   -0.00442906   -0.00677820
     atom  209 type  1   force =     0.00510667   -0.00597687    0.01018649
     atom  210 type  1   force =    -0.00883611   -0.00201388    0.00932391
     atom  211 type  1   force =    -0.00313075    0.02024103    0.00500171
     atom  212 type  1   force =     0.00735322   -0.00030902    0.01018901
     atom  213 type  1   force =    -0.00971896    0.01864579   -0.00158670
     atom  214 type  1   force =    -0.00378747    0.00869756    0.00168072
     atom  215 type  2   force =    -0.41940027   -1.08645915    0.68301998
     The ionic contribution  to forces
     atom    1 type  1   force =    -0.01770494   -0.00780773    0.01959965
     atom    2 type  1   force =    -0.09146851    0.02526727    0.03288074
     atom    3 type  1   force =    -0.05100402   -0.02667199    0.06028743
     atom    4 type  1   force =    -0.04051145    0.03763250    0.08383825
     atom    5 type  1   force =    -0.20578984    0.20668371    0.15564067
     atom    6 type  1   force =    -0.02584806    0.03820449    0.26304825
     atom    7 type  1   force =    -0.05373555   -0.02733512    0.05755616
     atom    8 type  1   force =    -0.26526986   -0.01989013    0.02362605
     atom    9 type  1   force =    -0.15512139   -0.18714826    0.20053040
     atom   10 type  1   force =     0.01047257   -0.02846372   -0.00356637
     atom   11 type  1   force =    -0.05445477   -0.00245903   -0.11425028
     atom   12 type  1   force =     0.03578580   -0.06575956    0.02161209
     atom   13 type  1   force =     0.11000571    0.03744651    0.05021065
     atom   14 type  1   force =     0.88836731    0.37519653   -0.97940516
     atom   15 type  1   force =     0.43360740    0.24384197    0.94946248
     atom   16 type  1   force =    -0.00447131   -0.07552814   -0.01864532
     atom   17 type  1   force =    -0.96738563   -0.09609868   -0.45153432
     atom   18 type  1   force =     0.44786666   -1.05095505   -0.19286557
     atom   19 type  1   force =     0.02129725   -0.02963783   -0.01410554
     atom   20 type  1   force =    -0.02466755   -0.04116252   -0.08370983
     atom   21 type  1   force =     0.05368850   -0.01069040   -0.05082108
     atom   22 type  1   force =     0.09031387   -0.01326285    0.03127088
     atom   23 type  1   force =    -0.07359094    0.12236956    0.04389976
     atom   24 type  1   force =     0.27757880    0.10506645   -0.03293466
     atom   25 type  1   force =     0.05342265   -0.01075534   -0.05108690
     atom   26 type  1   force =     0.01516584    0.04139319   -0.29534664
     atom   27 type  1   force =     0.14873804   -0.14283703   -0.11408116
     atom   28 type  1   force =     0.02905626    0.05594725    0.04010809
     atom   29 type  1   force =    -0.07435472    0.28625430    0.03943238
     atom   30 type  1   force =     0.06258756    0.09265011    0.20753280
     atom   31 type  1   force =    -0.02866710   -0.00917961    0.07192730
     atom   32 type  1   force =    -1.05495802    0.14333264   -0.12462038
     atom   33 type  1   force =     0.08723114   -0.06517529    1.15371988
     atom   34 type  1   force =    -0.03645476   -0.07468458   -0.00703253
     atom   35 type  1   force =    -0.23860846   -0.09291936   -0.07608843
     atom   36 type  1   force =    -0.12013687   -0.28287193    0.06977856
     atom   37 type  1   force =     0.08932261   -0.01079379    0.03470726
     atom   38 type  1   force =    -0.02262955   -0.01713126   -0.14645794
     atom   39 type  1   force =     0.26725066    0.13282528    0.00509215
     atom   40 type  1   force =     0.12598978   -0.00627413   -0.00953132
     atom   41 type  1   force =     0.57392732    1.23395512    0.19349997
     atom   42 type  1   force =     0.77084862   -0.67726019   -0.30884126
     atom   43 type  1   force =     0.00006265   -0.07372925   -0.06822085
     atom   44 type  1   force =    -0.08529789   -0.12312552   -0.29479555
     atom   45 type  1   force =     0.07330277   -0.23316987   -0.10748879
     atom   46 type  1   force =     0.00752120    0.00822161    0.03758633
     atom   47 type  1   force =    -0.06031395    0.05650735    0.04967718
     atom   48 type  1   force =     0.02941264    0.05590943    0.04006663
     atom   49 type  1   force =     0.00151058   -0.00356227    0.03027834
     atom   50 type  1   force =    -0.08816363    0.09006841    0.01191486
     atom   51 type  1   force =     0.02388417   -0.03273968    0.06656279
     atom   52 type  1   force =    -0.01152210   -0.02477446   -0.00360422
     atom   53 type  1   force =    -0.06618565   -0.04391336   -0.06171046
     atom   54 type  1   force =    -0.03287367   -0.07627819   -0.00743131
     atom   55 type  1   force =    -0.05131662    0.03644484   -0.04026505
     atom   56 type  1   force =    -0.06852630   -0.01885162    0.03206779
     atom   57 type  1   force =     0.02339196   -0.06016272    0.05281414
     atom   58 type  1   force =    -0.10790137    0.27811506    0.00588603
     atom   59 type  1   force =     0.05710873    0.41316091    0.98744382
     atom   60 type  1   force =     0.08899048   -0.01342942    0.25151141
     atom   61 type  1   force =    -0.22164608    0.02368234   -0.07670130
     atom   62 type  1   force =    -1.10287127   -0.35394574   -0.03638414
     atom   63 type  1   force =    -0.00454636   -0.25482554    0.18537003
     atom   64 type  1   force =    -0.02861582   -0.03941093   -0.08323096
     atom   65 type  1   force =     0.01434026   -0.03336469   -0.12118071
     atom   66 type  1   force =     0.08364969   -0.05344708    0.01536621
     atom   67 type  1   force =     0.14566113    0.02370306    0.02183282
     atom   68 type  1   force =    -0.46240219    0.98250008   -0.84282891
     atom   69 type  1   force =     0.31294886   -0.02649380    0.10345007
     atom   70 type  1   force =    -0.02861148    0.06103576   -0.29076985
     atom   71 type  1   force =     0.48168302   -0.74742446   -0.59800336
     atom   72 type  1   force =     0.16146892   -0.21177760   -0.01932268
     atom   73 type  1   force =    -0.03823380   -0.00288072   -0.00816859
     atom   74 type  1   force =    -0.02852920   -0.01085215    0.00023866
     atom   75 type  1   force =     0.00901109   -0.01979185    0.01692885
     atom   76 type  1   force =    -0.06329953    0.05578327    0.04669162
     atom   77 type  1   force =    -0.03532399    0.10288978    0.06475420
     atom   78 type  1   force =     0.06840421   -0.01125542    0.07287898
     atom   79 type  1   force =    -0.05125758    0.03633476   -0.04060335
     atom   80 type  1   force =    -0.05625988   -0.05218645   -0.01358095
     atom   81 type  1   force =     0.02425722   -0.06241577    0.04969959
     atom   82 type  1   force =    -0.07408683    0.10439813    0.04875616
     atom   83 type  1   force =    -0.01670694    0.06128121    0.17204292
     atom   84 type  1   force =     0.01555761    0.01543480    0.08491291
     atom   85 type  1   force =    -0.18204494    0.02116456    0.00670565
     atom   86 type  1   force =    -0.28710115    0.01834232    0.28265086
     atom   87 type  1   force =     0.01475053   -0.01130919    0.19589253
     atom   88 type  1   force =    -0.08567758   -0.00912991   -0.01632238
     atom   89 type  1   force =    -0.18720321   -0.06031242   -0.00606155
     atom   90 type  1   force =    -0.04207877   -0.10903044    0.06853344
     atom   91 type  1   force =     0.09355914    0.05883594   -0.10783464
     atom   92 type  1   force =     0.08977349    0.21433785   -0.06417649
     atom   93 type  1   force =     0.08494206    0.01554956    0.16194439
     atom   94 type  1   force =     0.01438861    0.19604639   -0.13956172
     atom   95 type  1   force =     0.24717613   -0.22187550    0.22884407
     atom   96 type  1   force =    -0.15854907   -0.04353247   -0.08154750
     atom   97 type  1   force =    -0.16293565   -0.32138603   -0.18126828
     atom   98 type  1   force =     0.07582731   -0.17858491   -0.03249631
     atom   99 type  1   force =    -0.00287402   -0.00726838    0.00463841
     atom  100 type  1   force =    -0.03509069    0.11683898   -0.09483468
     atom  101 type  1   force =     0.13382544    0.01103438    0.02788278
     atom  102 type  1   force =     0.06358047    0.14078030    0.00383637
     atom  103 type  1   force =     0.11266275    0.15199359   -0.14954301
     atom  104 type  1   force =     0.13520864   -0.12143444   -0.02522091
     atom  105 type  1   force =    -0.02585932   -0.02771244   -0.13180151
     atom  106 type  1   force =     0.05698827   -0.14041448   -0.10344011
     atom  107 type  1   force =     0.04615159   -0.06842407   -0.02954968
     atom  108 type  1   force =    -0.00441850    0.03555262   -0.00420795
     atom  109 type  1   force =    -0.03097015    0.08489583    0.14784122
     atom  110 type  1   force =     0.00482079   -0.00719951    0.07900606
     atom  111 type  1   force =    -0.16450886    0.05249388    0.01430244
     atom  112 type  1   force =    -0.56405196    0.24320202    0.50504223
     atom  113 type  1   force =     0.03719628    0.00145085    0.36115505
     atom  114 type  1   force =    -0.07491284   -0.02654695   -0.00072719
     atom  115 type  1   force =    -0.35010596   -0.09252581   -0.02614727
     atom  116 type  1   force =    -0.08285676   -0.21484591    0.13498634
     atom  117 type  1   force =    -0.00922148   -0.01391992    0.01259964
     atom  118 type  1   force =     0.01611996    0.07093342   -0.15456331
     atom  119 type  1   force =     0.10770371    0.02252613    0.13401917
     atom  120 type  1   force =     0.13388605    0.09950799   -0.03679747
     atom  121 type  1   force =     0.63087802   -0.29410637    0.38442001
     atom  122 type  1   force =    -0.13241589   -0.03573794   -0.10610113
     atom  123 type  1   force =    -0.28606471   -0.51659398   -0.53252395
     atom  124 type  1   force =     0.15453606   -0.31954966   -0.07700151
     atom  125 type  1   force =    -0.01244934   -0.03251821    0.02033979
     atom  126 type  1   force =    -0.00215049   -0.01696558    0.01171862
     atom  127 type  1   force =     0.02874604    0.02068769   -0.00756529
     atom  128 type  1   force =    -0.00744581   -0.01825078    0.00642303
     atom  129 type  1   force =    -0.01931759    0.16844581   -0.02155394
     atom  130 type  1   force =     0.14841146   -0.08824763   -0.01738591
     atom  131 type  1   force =     0.00329429    0.01451092   -0.03301673
     atom  132 type  1   force =     0.04193217   -0.11408433   -0.12386457
     atom  133 type  1   force =     0.02907971   -0.07338243   -0.01127522
     atom  134 type  1   force =     0.06699076    0.13280682   -0.03179883
     atom  135 type  1   force =     0.27945150    0.68449951    0.08725476
     atom  136 type  1   force =     0.11682123    0.06891039    0.33859492
     atom  137 type  1   force =    -0.11653877    0.02743935   -0.05121682
     atom  138 type  1   force =    -3.78704994   -0.43029644   -0.69985848
     atom  139 type  1   force =     0.30093125   -0.60064951    0.52031233
     atom  140 type  1   force =    -0.01229433   -0.03207839   -0.07221514
     atom  141 type  1   force =    -0.16784722   -0.08859516   -0.08215168
     atom  142 type  1   force =     0.02428557   -0.19071253    0.02087430
     atom  143 type  1   force =     0.04523049   -0.03878127    0.04055509
     atom  144 type  1   force =    -0.19650300    0.07136764   -0.10475600
     atom  145 type  1   force =     0.20411451    0.05734837    0.01274195
     atom  146 type  1   force =     0.08279702    0.08967297   -0.09083691
     atom  147 type  1   force =     0.45068620    0.21688379   -0.55129402
     atom  148 type  1   force =     0.23620132   -0.25707138   -0.10644450
     atom  149 type  1   force =    -0.03057135   -0.04378593   -0.03552925
     atom  150 type  1   force =     0.01768848   -0.13192760   -0.16082531
     atom  151 type  1   force =     0.04680869   -0.06491234   -0.03403908
     atom  152 type  1   force =    -0.05017773    0.01029282    0.03818863
     atom  153 type  1   force =    -0.06952669    0.10686683    0.16509519
     atom  154 type  1   force =     0.01555593    0.02079031    0.08279761
     atom  155 type  1   force =    -0.04293437    0.05208689    0.04257877
     atom  156 type  1   force =    -0.20170612    0.00437743    0.04463286
     atom  157 type  1   force =    -0.01730342   -0.07668266    0.17656708
     atom  158 type  1   force =    -0.02722546   -0.01581879    0.00409868
     atom  159 type  1   force =    -0.02984513   -0.06928452    0.04250739
     atom  160 type  1   force =    -0.04576061   -0.04622276    0.02138365
     atom  161 type  1   force =     0.00150314    0.11691665   -0.09728657
     atom  162 type  1   force =     0.03995208    0.06541107    0.10527448
     atom  163 type  1   force =     0.07735935   -0.01032411    0.01743849
     atom  164 type  1   force =    -0.23810540    0.55891889   -0.43030191
     atom  165 type  1   force =     0.67297348    0.65189100    3.76016860
     atom  166 type  1   force =     0.09588499   -0.02460246    0.18158147
     atom  167 type  1   force =    -0.34181354   -0.04237470   -0.12004116
     atom  168 type  1   force =    -0.35525389   -0.75986600   -0.13587271
     atom  169 type  1   force =     0.02536809   -0.19045057    0.02195655
     atom  170 type  1   force =    -0.02896069   -0.05678315   -0.03363590
     atom  171 type  1   force =     0.06947062    0.08644063   -0.10416311
     atom  172 type  1   force =     0.04395945   -0.02570112    0.03900173
     atom  173 type  1   force =     0.07932066    0.13829363    0.17106704
     atom  174 type  1   force =     0.49729630    0.22819458   -0.50468363
     atom  175 type  1   force =     0.18782810   -0.09064509    0.00931400
     atom  176 type  1   force =    -0.02005783    0.00295378   -0.21143026
     atom  177 type  1   force =     0.17074491   -0.27295169   -0.17189898
     atom  178 type  1   force =     0.04970387   -0.06421081   -0.03114420
     atom  179 type  1   force =    -0.04095730    0.01252993    0.04740922
     atom  180 type  1   force =    -0.05486641    0.04919264    0.03064610
     atom  181 type  1   force =    -0.00103172   -0.00946275    0.03029197
     atom  182 type  1   force =    -0.18755039    0.07822912    0.04707149
     atom  183 type  1   force =    -0.05015580    0.04115028    0.19618289
     atom  184 type  1   force =    -0.02581501   -0.06830641    0.04653713
     atom  185 type  1   force =    -0.08488635   -0.00358206   -0.01764373
     atom  186 type  1   force =    -0.15393895   -0.10983623    0.03993149
     atom  187 type  1   force =    -0.01118680   -0.03783415    0.05595763
     atom  188 type  1   force =    -0.08794013    0.18870929    0.04215240
     atom  189 type  1   force =     0.03161068    0.10729424    0.34712820
     atom  190 type  1   force =     0.01931032    0.01906037    0.08248316
     atom  191 type  1   force =    -0.36158880    0.01188734   -0.04606997
     atom  192 type  1   force =    -0.55423296   -0.21619317    0.60668993
     atom  193 type  1   force =    -0.01596053   -0.07728202    0.17648457
     atom  194 type  1   force =    -0.08406497   -0.00602344   -0.02089205
     atom  195 type  1   force =    -0.15367852   -0.11069807    0.03876594
     atom  196 type  1   force =    -0.00076730   -0.06645547    0.01689140
     atom  197 type  1   force =     0.16285444   -0.09027507   -0.14094910
     atom  198 type  1   force =     0.34020591    0.65711852    0.08113726
     atom  199 type  1   force =     0.15198811    0.00715974    0.14294922
     atom  200 type  1   force =    -0.22397218    0.52022365   -0.48304211
     atom  201 type  1   force =     2.02519164   -3.04287673   -1.28687032
     atom  202 type  1   force =     0.14178937   -0.15016093    0.01013439
     atom  203 type  1   force =    -0.13620175   -0.06276765   -0.14524149
     atom  204 type  1   force =     0.02960293   -0.17738099   -0.10205192
     atom  205 type  1   force =    -0.02477580   -0.07165743    0.04216249
     atom  206 type  1   force =    -0.05130737    0.00469932    0.05016765
     atom  207 type  1   force =     0.04974497    0.14066394   -0.03021226
     atom  208 type  1   force =     0.04685410   -0.03335610    0.02843891
     atom  209 type  1   force =    -0.00238395    0.12801426   -0.08234101
     atom  210 type  1   force =     0.08765461   -0.06439801   -0.07202971
     atom  211 type  1   force =     0.07387637   -0.00051825    0.03079456
     atom  212 type  1   force =    -0.01842402   -0.04919566   -0.03683873
     atom  213 type  1   force =    -0.02768039   -0.02515904   -0.07076167
     atom  214 type  1   force =     0.00686198   -0.03115577    0.00069728
     atom  215 type  2   force =     1.64786912    4.26979146   -2.68389266
     The local contribution  to forces
     atom    1 type  1   force =     0.01376539    0.00458059   -0.01486986
     atom    2 type  1   force =     0.07976359   -0.02578727   -0.03018795
     atom    3 type  1   force =     0.04540839    0.02082270   -0.04784392
     atom    4 type  1   force =     0.03768200   -0.03600682   -0.07227312
     atom    5 type  1   force =     0.17365265   -0.15666080   -0.13564007
     atom    6 type  1   force =     0.00422247   -0.03181449   -0.22192926
     atom    7 type  1   force =     0.04286396    0.02020544   -0.05038224
     atom    8 type  1   force =     0.22317977    0.02132430   -0.00294211
     atom    9 type  1   force =     0.13193417    0.14044327   -0.16600186
     atom   10 type  1   force =    -0.00631396    0.02193191    0.00099709
     atom   11 type  1   force =     0.04565395    0.00211240    0.09951608
     atom   12 type  1   force =    -0.03064239    0.05417453   -0.01717272
     atom   13 type  1   force =    -0.09586740   -0.03222812   -0.04200391
     atom   14 type  1   force =    -0.78489601   -0.51055478    0.90878526
     atom   15 type  1   force =    -0.24976670   -0.19334400   -0.92590711
     atom   16 type  1   force =     0.00303610    0.06234985    0.01650454
     atom   17 type  1   force =     0.93786091    0.09482078    0.26167102
     atom   18 type  1   force =    -0.49614405    0.89948419    0.27790654
     atom   19 type  1   force =    -0.01805544    0.02674553    0.01157560
     atom   20 type  1   force =     0.02330874    0.04157087    0.06945377
     atom   21 type  1   force =    -0.04963207    0.00406167    0.04519247
     atom   22 type  1   force =    -0.07660042    0.01731790   -0.03045536
     atom   23 type  1   force =     0.07982224   -0.11288158   -0.05243904
     atom   24 type  1   force =    -0.24941302   -0.10195880    0.03101697
     atom   25 type  1   force =    -0.04627168    0.00487296    0.04854994
     atom   26 type  1   force =    -0.01323270   -0.04464605    0.26719058
     atom   27 type  1   force =    -0.11618472    0.13300317    0.08391638
     atom   28 type  1   force =    -0.02483212   -0.05384443   -0.03174407
     atom   29 type  1   force =     0.06593000   -0.26123257   -0.02894729
     atom   30 type  1   force =    -0.04541544   -0.06052066   -0.18038443
     atom   31 type  1   force =     0.02342159    0.00640160   -0.05986619
     atom   32 type  1   force =     0.96447114    0.02194456    0.16228724
     atom   33 type  1   force =    -0.13979737   -0.07447519   -1.05262560
     atom   34 type  1   force =     0.02720388    0.06313461    0.00816692
     atom   35 type  1   force =     0.20751467    0.06430045    0.05572249
     atom   36 type  1   force =     0.09912428    0.23020852   -0.04338384
     atom   37 type  1   force =    -0.07557547    0.01475943   -0.03401698
     atom   38 type  1   force =     0.02776438    0.02959471    0.14199707
     atom   39 type  1   force =    -0.24149632   -0.12317028    0.00194458
     atom   40 type  1   force =    -0.10910656    0.00399958    0.00750903
     atom   41 type  1   force =    -0.53627996   -1.18949748   -0.01850377
     atom   42 type  1   force =    -0.58319094    0.71752465    0.31841486
     atom   43 type  1   force =     0.00161749    0.06305334    0.06298541
     atom   44 type  1   force =     0.07489428    0.11374790    0.23365773
     atom   45 type  1   force =    -0.07772946    0.19255474    0.08443003
     atom   46 type  1   force =    -0.00612467   -0.00608424   -0.03324437
     atom   47 type  1   force =     0.05442232   -0.04370822   -0.04701085
     atom   48 type  1   force =    -0.02921568   -0.05199482   -0.03130129
     atom   49 type  1   force =    -0.00017860    0.00474167   -0.02230973
     atom   50 type  1   force =     0.07515578   -0.07889955   -0.01092931
     atom   51 type  1   force =    -0.02053511    0.02609798   -0.05537974
     atom   52 type  1   force =     0.00872091    0.01843810    0.00408965
     atom   53 type  1   force =     0.05629619    0.03844203    0.05763734
     atom   54 type  1   force =     0.03050133    0.06163405    0.00786711
     atom   55 type  1   force =     0.04281487   -0.03742658    0.03590648
     atom   56 type  1   force =     0.05731108    0.01462312   -0.02597857
     atom   57 type  1   force =    -0.02203038    0.05118478   -0.04107136
     atom   58 type  1   force =     0.09157652   -0.25500786   -0.00330118
     atom   59 type  1   force =    -0.13520740   -0.24492349   -0.93742151
     atom   60 type  1   force =    -0.06335916   -0.00142549   -0.21516059
     atom   61 type  1   force =     0.18817179   -0.00382859    0.05321426
     atom   62 type  1   force =     1.03608481    0.21081274    0.12328712
     atom   63 type  1   force =    -0.00927720    0.20390829   -0.15178384
     atom   64 type  1   force =     0.02740754    0.03975082    0.06896312
     atom   65 type  1   force =    -0.01136150    0.02772118    0.10525595
     atom   66 type  1   force =    -0.07599462    0.04421993   -0.01462332
     atom   67 type  1   force =    -0.14411862   -0.01211336   -0.02988966
     atom   68 type  1   force =     0.28299702   -0.99071082    0.80079144
     atom   69 type  1   force =    -0.25165464    0.03450882   -0.09287874
     atom   70 type  1   force =     0.02023921   -0.05965913    0.26366642
     atom   71 type  1   force =    -0.49509686    0.73889560    0.40649110
     atom   72 type  1   force =    -0.12961815    0.17996217    0.03254254
     atom   73 type  1   force =     0.03355444    0.00355030    0.00643672
     atom   74 type  1   force =     0.02054442    0.00978086   -0.00158650
     atom   75 type  1   force =    -0.00805953    0.01436536   -0.01269263
     atom   76 type  1   force =     0.05752119   -0.04296155   -0.04391126
     atom   77 type  1   force =     0.03135903   -0.08952813   -0.05473029
     atom   78 type  1   force =    -0.06343935    0.00937544   -0.06210394
     atom   79 type  1   force =     0.04181969   -0.03475584    0.03973950
     atom   80 type  1   force =     0.04705375    0.04250452    0.01221360
     atom   81 type  1   force =    -0.02128967    0.04906224   -0.04392467
     atom   82 type  1   force =     0.06588786   -0.09344038   -0.04321462
     atom   83 type  1   force =    -0.01122373   -0.01756502   -0.15930529
     atom   84 type  1   force =    -0.01367479   -0.01467166   -0.06962841
     atom   85 type  1   force =     0.15855643    0.02363497    0.01048702
     atom   86 type  1   force =     0.24620331   -0.01187051   -0.24331359
     atom   87 type  1   force =    -0.03156904   -0.03197340   -0.16975629
     atom   88 type  1   force =     0.07069638    0.00580895    0.01475346
     atom   89 type  1   force =     0.17153006    0.01731191    0.03335129
     atom   90 type  1   force =     0.03468886    0.08988933   -0.05648958
     atom   91 type  1   force =    -0.09880612   -0.04608940    0.10998979
     atom   92 type  1   force =    -0.07663956   -0.18612795    0.06884535
     atom   93 type  1   force =    -0.03226619   -0.00806981   -0.15734140
     atom   94 type  1   force =    -0.02520074   -0.17363525    0.12027464
     atom   95 type  1   force =    -0.20926166    0.19291010   -0.19745663
     atom   96 type  1   force =     0.15381909    0.03708699    0.02873768
     atom   97 type  1   force =     0.14036068    0.27773569    0.15215601
     atom   98 type  1   force =    -0.09299262    0.13624984    0.05994131
     atom   99 type  1   force =     0.00528003    0.01352108   -0.00856004
     atom  100 type  1   force =     0.04829160   -0.11238015    0.09511843
     atom  101 type  1   force =    -0.11946030   -0.01022409   -0.02461847
     atom  102 type  1   force =    -0.06453186   -0.13975995   -0.01770971
     atom  103 type  1   force =    -0.09224104   -0.14362107    0.12708484
     atom  104 type  1   force =    -0.08386436    0.13258614    0.03485392
     atom  105 type  1   force =     0.02291185    0.02432727    0.11774929
     atom  106 type  1   force =    -0.06750765    0.13656651    0.05120966
     atom  107 type  1   force =    -0.03914870    0.05521678    0.02576185
     atom  108 type  1   force =    -0.00251832   -0.03153251    0.01017318
     atom  109 type  1   force =     0.02212129   -0.06994221   -0.15003063
     atom  110 type  1   force =    -0.00187655    0.00714041   -0.04986981
     atom  111 type  1   force =     0.16285064   -0.03579312   -0.00929713
     atom  112 type  1   force =     0.49726969   -0.23113774   -0.44117357
     atom  113 type  1   force =    -0.00603034    0.03941908   -0.23473586
     atom  114 type  1   force =     0.04670210    0.01893394   -0.00128404
     atom  115 type  1   force =     0.21853220    0.09390814   -0.01014184
     atom  116 type  1   force =     0.07380052    0.19132105   -0.12021280
     atom  117 type  1   force =     0.01755920    0.01537483   -0.02128755
     atom  118 type  1   force =    -0.01108865   -0.05643686    0.13969130
     atom  119 type  1   force =    -0.09118984   -0.01897335   -0.13876255
     atom  120 type  1   force =    -0.12271512   -0.08352402    0.02806300
     atom  121 type  1   force =    -0.56784487    0.24782255   -0.33364988
     atom  122 type  1   force =     0.13666095    0.03631671    0.08907935
     atom  123 type  1   force =     0.24946558    0.44613157    0.48363582
     atom  124 type  1   force =    -0.07403740    0.22559711    0.01930640
     atom  125 type  1   force =     0.01357465    0.03535689   -0.02214757
     atom  126 type  1   force =    -0.00359164    0.02475645   -0.01899439
     atom  127 type  1   force =    -0.02021192   -0.02361840    0.01196481
     atom  128 type  1   force =     0.01251032    0.02865442   -0.00289247
     atom  129 type  1   force =     0.02250046   -0.14886197    0.01361216
     atom  130 type  1   force =    -0.13405614    0.09776123    0.02077159
     atom  131 type  1   force =    -0.00662936   -0.02032102    0.02554563
     atom  132 type  1   force =    -0.04705872    0.11888155    0.10777104
     atom  133 type  1   force =    -0.01667920    0.04751932    0.00515721
     atom  134 type  1   force =    -0.06496190   -0.12093424    0.03554629
     atom  135 type  1   force =    -0.26149016   -0.59769014   -0.11548288
     atom  136 type  1   force =    -0.11893593   -0.05352215   -0.21120000
     atom  137 type  1   force =     0.11081127   -0.01893680    0.04343459
     atom  138 type  1   force =     3.23622828    0.36418367    0.60069387
     atom  139 type  1   force =    -0.24969342    0.53887476   -0.46136039
     atom  140 type  1   force =    -0.00729792    0.02673064    0.07645718
     atom  141 type  1   force =     0.14153051    0.07259048    0.06830996
     atom  142 type  1   force =    -0.02701035    0.16945729   -0.02148202
     atom  143 type  1   force =    -0.03510853    0.04866386   -0.04510718
     atom  144 type  1   force =     0.20585368   -0.00858903    0.06128060
     atom  145 type  1   force =    -0.18112656   -0.04672445   -0.01438316
     atom  146 type  1   force =    -0.07678985   -0.08865688    0.07974491
     atom  147 type  1   force =    -0.42255075   -0.15785303    0.48504998
     atom  148 type  1   force =    -0.19185409    0.14563911    0.06061041
     atom  149 type  1   force =     0.03387292    0.03934269    0.02483375
     atom  150 type  1   force =    -0.02152887    0.11978072    0.14329960
     atom  151 type  1   force =    -0.02840610    0.03860097    0.02310828
     atom  152 type  1   force =     0.04854407   -0.00126100   -0.03047190
     atom  153 type  1   force =     0.05724812   -0.09593005   -0.15107826
     atom  154 type  1   force =    -0.00884443   -0.01514292   -0.05008256
     atom  155 type  1   force =     0.02521267   -0.06253625   -0.04531264
     atom  156 type  1   force =     0.16924026   -0.00354833   -0.03549318
     atom  157 type  1   force =     0.00945591    0.06947157   -0.15801124
     atom  158 type  1   force =     0.01822755    0.01300464   -0.00447864
     atom  159 type  1   force =     0.00491904    0.07315782   -0.05205472
     atom  160 type  1   force =     0.04465416    0.03537303   -0.01376800
     atom  161 type  1   force =    -0.00788448   -0.10708433    0.09262295
     atom  162 type  1   force =    -0.03456631   -0.05422013   -0.10194359
     atom  163 type  1   force =    -0.08077856    0.00889772    0.00297576
     atom  164 type  1   force =     0.24557805   -0.47463652    0.39158620
     atom  165 type  1   force =    -0.57681447   -0.56102603   -3.21241806
     atom  166 type  1   force =    -0.07942737    0.01897853   -0.15264680
     atom  167 type  1   force =     0.21434963    0.02735312    0.12209195
     atom  168 type  1   force =     0.31402470    0.67564242    0.10235652
     atom  169 type  1   force =    -0.01984110    0.17119888   -0.01431245
     atom  170 type  1   force =     0.03134289    0.06479345    0.02134324
     atom  171 type  1   force =    -0.05877020   -0.08428117    0.09777139
     atom  172 type  1   force =    -0.03242431    0.02325284   -0.04145915
     atom  173 type  1   force =    -0.05161940   -0.07106483   -0.19619675
     atom  174 type  1   force =    -0.44606305   -0.16356155    0.46154717
     atom  175 type  1   force =    -0.16805267    0.08421695   -0.00322138
     atom  176 type  1   force =     0.01980718    0.00203611    0.18653980
     atom  177 type  1   force =    -0.09868728    0.16824992    0.15377572
     atom  178 type  1   force =    -0.03234954    0.03764245    0.01916253
     atom  179 type  1   force =     0.03128532   -0.00544362   -0.04773128
     atom  180 type  1   force =     0.05947818   -0.05422276   -0.01105451
     atom  181 type  1   force =     0.00181532    0.00901791   -0.02089312
     atom  182 type  1   force =     0.17099703   -0.06832863   -0.03732120
     atom  183 type  1   force =     0.04015876   -0.03487517   -0.16458884
     atom  184 type  1   force =     0.03346330    0.08007306   -0.02351583
     atom  185 type  1   force =     0.05195637   -0.00038023    0.01073013
     atom  186 type  1   force =     0.13738911    0.10051775   -0.03007132
     atom  187 type  1   force =     0.00632234    0.02607117   -0.05209933
     atom  188 type  1   force =     0.08065154   -0.16448310   -0.04074142
     atom  189 type  1   force =     0.00244307   -0.10816203   -0.22340060
     atom  190 type  1   force =    -0.01398084   -0.01279600   -0.04962292
     atom  191 type  1   force =     0.24254250   -0.04988546    0.01673367
     atom  192 type  1   force =     0.48498540    0.20857965   -0.53557571
     atom  193 type  1   force =     0.01885193    0.06523896   -0.15900673
     atom  194 type  1   force =     0.05081287    0.00293169    0.01517640
     atom  195 type  1   force =     0.13962258    0.09454125   -0.03823599
     atom  196 type  1   force =    -0.00524136    0.05780678   -0.00877551
     atom  197 type  1   force =    -0.12958772    0.14229610    0.09506074
     atom  198 type  1   force =    -0.29217533   -0.58381421   -0.11240823
     atom  199 type  1   force =    -0.13351790   -0.01004848   -0.13202569
     atom  200 type  1   force =     0.23844767   -0.45505306    0.41818835
     atom  201 type  1   force =    -1.73278660    2.59770212    1.10249334
     atom  202 type  1   force =    -0.11851223    0.12592582   -0.00660649
     atom  203 type  1   force =     0.12680057    0.05311939    0.12828470
     atom  204 type  1   force =    -0.02665179    0.14821630    0.08525347
     atom  205 type  1   force =     0.04229518    0.05644206   -0.05598326
     atom  206 type  1   force =     0.05134625    0.00971829   -0.05370786
     atom  207 type  1   force =    -0.04158287   -0.13153605    0.03333179
     atom  208 type  1   force =    -0.03775325    0.03756541   -0.02180382
     atom  209 type  1   force =    -0.00257052   -0.12206766    0.07234481
     atom  210 type  1   force =    -0.07887804    0.06639478    0.06276716
     atom  211 type  1   force =    -0.07050646   -0.01940944   -0.03565586
     atom  212 type  1   force =     0.01124631    0.04946592    0.02719520
     atom  213 type  1   force =     0.03719570    0.00673164    0.07204832
     atom  214 type  1   force =    -0.00311065    0.02261016   -0.00236357
     atom  215 type  2   force =    -1.23521695   -3.20074313    2.01185837
     The core correction contribution to forces
     atom    1 type  1   force =    -0.00005936   -0.00006423    0.00007490
     atom    2 type  1   force =    -0.00016139   -0.00001122    0.00011209
     atom    3 type  1   force =    -0.00013739   -0.00012091    0.00021397
     atom    4 type  1   force =    -0.00011085    0.00000106    0.00016262
     atom    5 type  1   force =    -0.00060212    0.00090835    0.00038175
     atom    6 type  1   force =    -0.00034332    0.00011803    0.00059191
     atom    7 type  1   force =    -0.00018330   -0.00013205    0.00016806
     atom    8 type  1   force =    -0.00061256    0.00005267    0.00032260
     atom    9 type  1   force =    -0.00043991   -0.00085155    0.00064652
     atom   10 type  1   force =     0.00007660   -0.00012568   -0.00004612
     atom   11 type  1   force =    -0.00016505    0.00000623   -0.00026572
     atom   12 type  1   force =     0.00010513   -0.00018963    0.00011224
     atom   13 type  1   force =     0.00025195    0.00010744    0.00015126
     atom   14 type  1   force =     0.00166316   -0.00326923   -0.00086991
     atom   15 type  1   force =     0.00386598    0.00098785    0.00010796
     atom   16 type  1   force =    -0.00006134   -0.00023001   -0.00005421
     atom   17 type  1   force =    -0.00022713   -0.00000531   -0.00398502
     atom   18 type  1   force =    -0.00137035   -0.00295773    0.00208799
     atom   19 type  1   force =     0.00002799   -0.00005196   -0.00001542
     atom   20 type  1   force =    -0.00000992   -0.00003128   -0.00025204
     atom   21 type  1   force =     0.00006396   -0.00007113   -0.00010508
     atom   22 type  1   force =     0.00025192    0.00003232    0.00000980
     atom   23 type  1   force =     0.00003715    0.00007419   -0.00005513
     atom   24 type  1   force =     0.00044567   -0.00004445   -0.00012611
     atom   25 type  1   force =     0.00012064   -0.00005734   -0.00004837
     atom   26 type  1   force =     0.00014575   -0.00011726   -0.00042604
     atom   27 type  1   force =     0.00048784   -0.00011254   -0.00046054
     atom   28 type  1   force =     0.00007726    0.00006064    0.00011264
     atom   29 type  1   force =    -0.00003622    0.00038141    0.00025866
     atom   30 type  1   force =     0.00026094    0.00050681    0.00038618
     atom   31 type  1   force =    -0.00013253   -0.00003571    0.00021100
     atom   32 type  1   force =    -0.00151917    0.00355184    0.00089728
     atom   33 type  1   force =    -0.00127332   -0.00321861    0.00173708
     atom   34 type  1   force =    -0.00014548   -0.00023576    0.00002633
     atom   35 type  1   force =    -0.00043995   -0.00041946   -0.00032239
     atom   36 type  1   force =    -0.00039525   -0.00097443    0.00047893
     atom   37 type  1   force =     0.00023848    0.00006889    0.00005985
     atom   38 type  1   force =     0.00003211    0.00008890   -0.00003398
     atom   39 type  1   force =     0.00035049    0.00021483    0.00022149
     atom   40 type  1   force =     0.00030393   -0.00003423   -0.00004203
     atom   41 type  1   force =     0.00043763    0.00010213    0.00371731
     atom   42 type  1   force =     0.00379445    0.00118250    0.00037014
     atom   43 type  1   force =    -0.00004878   -0.00016869   -0.00006909
     atom   44 type  1   force =    -0.00020237   -0.00018778   -0.00111934
     atom   45 type  1   force =    -0.00008910   -0.00057694   -0.00035788
     atom   46 type  1   force =     0.00000560    0.00000983    0.00006825
     atom   47 type  1   force =    -0.00010301    0.00022276    0.00009441
     atom   48 type  1   force =     0.00000375    0.00009338    0.00011981
     atom   49 type  1   force =     0.00002186    0.00002436    0.00015895
     atom   50 type  1   force =    -0.00023923    0.00021037    0.00001275
     atom   51 type  1   force =     0.00008513   -0.00013407    0.00018834
     atom   52 type  1   force =    -0.00004662   -0.00009807    0.00002865
     atom   53 type  1   force =    -0.00011410   -0.00013983   -0.00006264
     atom   54 type  1   force =    -0.00008541   -0.00026280    0.00002011
     atom   55 type  1   force =    -0.00012153    0.00001240   -0.00008612
     atom   56 type  1   force =    -0.00020033   -0.00005217    0.00014321
     atom   57 type  1   force =     0.00002580   -0.00019419    0.00019761
     atom   58 type  1   force =    -0.00034216    0.00030716   -0.00004732
     atom   59 type  1   force =    -0.00175231    0.00349540    0.00066429
     atom   60 type  1   force =     0.00039947   -0.00021577    0.00051704
     atom   61 type  1   force =    -0.00048710    0.00032528   -0.00036188
     atom   62 type  1   force =    -0.00096514   -0.00314375    0.00204513
     atom   63 type  1   force =    -0.00024690   -0.00093844    0.00062732
     atom   64 type  1   force =    -0.00006757   -0.00000540   -0.00024618
     atom   65 type  1   force =     0.00005760   -0.00009405   -0.00028836
     atom   66 type  1   force =     0.00010547   -0.00013127    0.00008513
     atom   67 type  1   force =     0.00001298    0.00008429   -0.00005311
     atom   68 type  1   force =    -0.00362257   -0.00088305   -0.00034288
     atom   69 type  1   force =     0.00112584    0.00013455    0.00020883
     atom   70 type  1   force =    -0.00025577    0.00006773   -0.00038473
     atom   71 type  1   force =    -0.00052975    0.00013323   -0.00395406
     atom   72 type  1   force =     0.00048105   -0.00043857    0.00021229
     atom   73 type  1   force =    -0.00006848   -0.00000817   -0.00000582
     atom   74 type  1   force =    -0.00015951   -0.00001968   -0.00002243
     atom   75 type  1   force =    -0.00000609   -0.00008823    0.00006918
     atom   76 type  1   force =    -0.00014714    0.00021207    0.00005027
     atom   77 type  1   force =    -0.00006878    0.00025173    0.00018321
     atom   78 type  1   force =     0.00009053   -0.00009012    0.00014200
     atom   79 type  1   force =    -0.00013827    0.00005891   -0.00002223
     atom   80 type  1   force =    -0.00014889   -0.00019088   -0.00004570
     atom   81 type  1   force =     0.00003994   -0.00023237    0.00014547
     atom   82 type  1   force =    -0.00015288    0.00019503    0.00010556
     atom   83 type  1   force =    -0.00060200    0.00089649    0.00013980
     atom   84 type  1   force =     0.00002091    0.00000456    0.00024520
     atom   85 type  1   force =    -0.00036429    0.00095417    0.00037749
     atom   86 type  1   force =    -0.00082628    0.00014279    0.00079168
     atom   87 type  1   force =    -0.00038867   -0.00093675    0.00038006
     atom   88 type  1   force =    -0.00023868   -0.00005845   -0.00001439
     atom   89 type  1   force =    -0.00015950   -0.00088117    0.00060921
     atom   90 type  1   force =    -0.00014547   -0.00036409    0.00023377
     atom   91 type  1   force =    -0.00018679    0.00023454    0.00012988
     atom   92 type  1   force =     0.00032443    0.00068911    0.00020071
     atom   93 type  1   force =     0.00107253    0.00014527   -0.00002923
     atom   94 type  1   force =    -0.00034809    0.00052594   -0.00047182
     atom   95 type  1   force =     0.00076649   -0.00057327    0.00063033
     atom   96 type  1   force =     0.00002482   -0.00010896   -0.00107691
     atom   97 type  1   force =    -0.00045525   -0.00086975   -0.00059142
     atom   98 type  1   force =    -0.00045546   -0.00074964    0.00063732
     atom   99 type  1   force =     0.00002258    0.00007157   -0.00003995
     atom  100 type  1   force =     0.00030953    0.00001226    0.00007999
     atom  101 type  1   force =     0.00025282    0.00001248    0.00006444
     atom  102 type  1   force =    -0.00007173   -0.00008023   -0.00030127
     atom  103 type  1   force =     0.00052927    0.00013063   -0.00056095
     atom  104 type  1   force =     0.00100074    0.00034079    0.00023955
     atom  105 type  1   force =    -0.00005833   -0.00006304   -0.00024668
     atom  106 type  1   force =    -0.00028440    0.00002892   -0.00104557
     atom  107 type  1   force =     0.00009977   -0.00021073   -0.00004867
     atom  108 type  1   force =    -0.00021242    0.00023130    0.00015629
     atom  109 type  1   force =    -0.00029864    0.00048756   -0.00002011
     atom  110 type  1   force =     0.00001219   -0.00000209    0.00054256
     atom  111 type  1   force =    -0.00010393    0.00053484    0.00017462
     atom  112 type  1   force =    -0.00143147    0.00060569    0.00128447
     atom  113 type  1   force =     0.00077028    0.00137010    0.00188522
     atom  114 type  1   force =    -0.00052619   -0.00013273    0.00000415
     atom  115 type  1   force =    -0.00213236    0.00066578   -0.00101730
     atom  116 type  1   force =    -0.00024949   -0.00055124    0.00038321
     atom  117 type  1   force =     0.00019078   -0.00001293   -0.00018766
     atom  118 type  1   force =     0.00004277    0.00023607   -0.00021947
     atom  119 type  1   force =     0.00048518    0.00013511   -0.00009936
     atom  120 type  1   force =     0.00015878    0.00026423   -0.00010345
     atom  121 type  1   force =     0.00153952   -0.00072977    0.00098670
     atom  122 type  1   force =     0.00007853    0.00003642   -0.00050599
     atom  123 type  1   force =    -0.00074246   -0.00128343   -0.00129523
     atom  124 type  1   force =     0.00164786   -0.00103775   -0.00139609
     atom  125 type  1   force =    -0.00001220    0.00006770   -0.00000425
     atom  126 type  1   force =    -0.00023258    0.00017817   -0.00014442
     atom  127 type  1   force =     0.00026626    0.00001551    0.00010817
     atom  128 type  1   force =     0.00009165    0.00025688    0.00017982
     atom  129 type  1   force =     0.00000682    0.00033264   -0.00008750
     atom  130 type  1   force =     0.00042738    0.00029565    0.00012073
     atom  131 type  1   force =    -0.00010113   -0.00007363   -0.00025923
     atom  132 type  1   force =    -0.00017473    0.00014952   -0.00048137
     atom  133 type  1   force =     0.00017531   -0.00044842   -0.00006653
     atom  134 type  1   force =    -0.00009319    0.00031201    0.00012899
     atom  135 type  1   force =    -0.00024785    0.00211125   -0.00019638
     atom  136 type  1   force =    -0.00069455    0.00020533    0.00218890
     atom  137 type  1   force =    -0.00013458    0.00021046   -0.00014242
     atom  138 type  1   force =    -0.00649449   -0.00066810   -0.00123918
     atom  139 type  1   force =     0.00077751   -0.00125934    0.00117332
     atom  140 type  1   force =    -0.00038762    0.00000117    0.00028163
     atom  141 type  1   force =    -0.00048929   -0.00022863   -0.00024072
     atom  142 type  1   force =    -0.00009629   -0.00027472    0.00002483
     atom  143 type  1   force =     0.00020585    0.00009848    0.00003012
     atom  144 type  1   force =    -0.00025545    0.00097915   -0.00074654
     atom  145 type  1   force =     0.00080833    0.00025894    0.00007160
     atom  146 type  1   force =     0.00001819    0.00000668   -0.00028748
     atom  147 type  1   force =     0.00021535    0.00084379   -0.00194324
     atom  148 type  1   force =     0.00013658   -0.00205333   -0.00089689
     atom  149 type  1   force =     0.00000092   -0.00009185   -0.00032619
     atom  150 type  1   force =    -0.00014998   -0.00016094   -0.00034796
     atom  151 type  1   force =     0.00040380   -0.00038995   -0.00016079
     atom  152 type  1   force =    -0.00014692    0.00031082    0.00022308
     atom  153 type  1   force =    -0.00030803    0.00027071    0.00024061
     atom  154 type  1   force =     0.00020310    0.00015867    0.00058862
     atom  155 type  1   force =    -0.00027379   -0.00030823   -0.00013980
     atom  156 type  1   force =    -0.00059875    0.00006737    0.00016396
     atom  157 type  1   force =    -0.00016271   -0.00009463    0.00027138
     atom  158 type  1   force =    -0.00020189   -0.00000320   -0.00000307
     atom  159 type  1   force =    -0.00042875    0.00034541   -0.00032019
     atom  160 type  1   force =    -0.00006778   -0.00022240    0.00019291
     atom  161 type  1   force =    -0.00020149    0.00028571    0.00002066
     atom  162 type  1   force =     0.00008490    0.00026370    0.00007706
     atom  163 type  1   force =    -0.00028497    0.00002609    0.00038430
     atom  164 type  1   force =    -0.00031397    0.00209521   -0.00026246
     atom  165 type  1   force =     0.00117530    0.00119273    0.00642923
     atom  166 type  1   force =     0.00027374   -0.00004346    0.00052230
     atom  167 type  1   force =    -0.00219469   -0.00015868    0.00068888
     atom  168 type  1   force =    -0.00082070   -0.00164711   -0.00042486
     atom  169 type  1   force =     0.00003786   -0.00024218    0.00015897
     atom  170 type  1   force =    -0.00004658    0.00003721   -0.00022232
     atom  171 type  1   force =     0.00027822    0.00006976   -0.00002747
     atom  172 type  1   force =     0.00033850   -0.00000992    0.00001139
     atom  173 type  1   force =     0.00048712    0.00115933   -0.00000395
     atom  174 type  1   force =     0.00169498    0.00120280   -0.00046362
     atom  175 type  1   force =     0.00037167   -0.00003434    0.00017367
     atom  176 type  1   force =    -0.00010748    0.00003670   -0.00084416
     atom  177 type  1   force =     0.00135911   -0.00175669    0.00032570
     atom  178 type  1   force =     0.00025961   -0.00042493   -0.00030497
     atom  179 type  1   force =    -0.00029414    0.00027506    0.00007583
     atom  180 type  1   force =     0.00020064   -0.00019316    0.00033463
     atom  181 type  1   force =    -0.00000207    0.00004531    0.00019677
     atom  182 type  1   force =    -0.00030634    0.00027114    0.00024230
     atom  183 type  1   force =    -0.00019227    0.00016601    0.00057044
     atom  184 type  1   force =     0.00021735    0.00050225    0.00032592
     atom  185 type  1   force =    -0.00060336   -0.00003705   -0.00021785
     atom  186 type  1   force =    -0.00024598   -0.00011487    0.00018811
     atom  187 type  1   force =    -0.00013693   -0.00023916    0.00012374
     atom  188 type  1   force =    -0.00038484    0.00079493    0.00019196
     atom  189 type  1   force =     0.00090710   -0.00051825    0.00202210
     atom  190 type  1   force =     0.00001468    0.00024380    0.00060751
     atom  191 type  1   force =    -0.00181633   -0.00117903   -0.00070119
     atom  192 type  1   force =    -0.00130552   -0.00032057    0.00138329
     atom  193 type  1   force =     0.00001219   -0.00017312    0.00025345
     atom  194 type  1   force =    -0.00064716    0.00008315   -0.00005436
     atom  195 type  1   force =    -0.00020505   -0.00022586    0.00003622
     atom  196 type  1   force =    -0.00015740   -0.00018189    0.00020150
     atom  197 type  1   force =     0.00071084    0.00053731   -0.00084120
     atom  198 type  1   force =     0.00166529    0.00126121   -0.00038071
     atom  199 type  1   force =     0.00037231   -0.00003564    0.00017123
     atom  200 type  1   force =     0.00012016    0.00088630   -0.00192580
     atom  201 type  1   force =     0.00351537   -0.00517472   -0.00225969
     atom  202 type  1   force =     0.00039742   -0.00038080    0.00006242
     atom  203 type  1   force =    -0.00014729   -0.00016173   -0.00034836
     atom  204 type  1   force =     0.00004048   -0.00046742   -0.00029451
     atom  205 type  1   force =     0.00041305   -0.00003372   -0.00040491
     atom  206 type  1   force =    -0.00012335    0.00024754    0.00006331
     atom  207 type  1   force =     0.00024583    0.00015946    0.00009522
     atom  208 type  1   force =     0.00029364    0.00011210    0.00017856
     atom  209 type  1   force =    -0.00012304    0.00006996   -0.00027363
     atom  210 type  1   force =     0.00015171    0.00008101   -0.00017135
     atom  211 type  1   force =    -0.00014060   -0.00036740   -0.00015242
     atom  212 type  1   force =    -0.00019147   -0.00000566   -0.00030656
     atom  213 type  1   force =     0.00023063   -0.00027737    0.00021883
     atom  214 type  1   force =     0.00005864   -0.00012051   -0.00002945
     atom  215 type  2   force =     0.00668549    0.01731716   -0.01088740
     The Hubbard contrib.    to forces
     atom    1 type  1   force =     0.00000000    0.00000000    0.00000000
     atom    2 type  1   force =     0.00000000    0.00000000    0.00000000
     atom    3 type  1   force =     0.00000000    0.00000000    0.00000000
     atom    4 type  1   force =     0.00000000    0.00000000    0.00000000
     atom    5 type  1   force =     0.00000000    0.00000000    0.00000000
     atom    6 type  1   force =     0.00000000    0.00000000    0.00000000
     atom    7 type  1   force =     0.00000000    0.00000000    0.00000000
     atom    8 type  1   force =     0.00000000    0.00000000    0.00000000
     atom    9 type  1   force =     0.00000000    0.00000000    0.00000000
     atom   10 type  1   force =     0.00000000    0.00000000    0.00000000
     atom   11 type  1   force =     0.00000000    0.00000000    0.00000000
     atom   12 type  1   force =     0.00000000    0.00000000    0.00000000
     atom   13 type  1   force =     0.00000000    0.00000000    0.00000000
     atom   14 type  1   force =     0.00000000    0.00000000    0.00000000
     atom   15 type  1   force =     0.00000000    0.00000000    0.00000000
     atom   16 type  1   force =     0.00000000    0.00000000    0.00000000
     atom   17 type  1   force =     0.00000000    0.00000000    0.00000000
     atom   18 type  1   force =     0.00000000    0.00000000    0.00000000
     atom   19 type  1   force =     0.00000000    0.00000000    0.00000000
     atom   20 type  1   force =     0.00000000    0.00000000    0.00000000
     atom   21 type  1   force =     0.00000000    0.00000000    0.00000000
     atom   22 type  1   force =     0.00000000    0.00000000    0.00000000
     atom   23 type  1   force =     0.00000000    0.00000000    0.00000000
     atom   24 type  1   force =     0.00000000    0.00000000    0.00000000
     atom   25 type  1   force =     0.00000000    0.00000000    0.00000000
     atom   26 type  1   force =     0.00000000    0.00000000    0.00000000
     atom   27 type  1   force =     0.00000000    0.00000000    0.00000000
     atom   28 type  1   force =     0.00000000    0.00000000    0.00000000
     atom   29 type  1   force =     0.00000000    0.00000000    0.00000000
     atom   30 type  1   force =     0.00000000    0.00000000    0.00000000
     atom   31 type  1   force =     0.00000000    0.00000000    0.00000000
     atom   32 type  1   force =     0.00000000    0.00000000    0.00000000
     atom   33 type  1   force =     0.00000000    0.00000000    0.00000000
     atom   34 type  1   force =     0.00000000    0.00000000    0.00000000
     atom   35 type  1   force =     0.00000000    0.00000000    0.00000000
     atom   36 type  1   force =     0.00000000    0.00000000    0.00000000
     atom   37 type  1   force =     0.00000000    0.00000000    0.00000000
     atom   38 type  1   force =     0.00000000    0.00000000    0.00000000
     atom   39 type  1   force =     0.00000000    0.00000000    0.00000000
     atom   40 type  1   force =     0.00000000    0.00000000    0.00000000
     atom   41 type  1   force =     0.00000000    0.00000000    0.00000000
     atom   42 type  1   force =     0.00000000    0.00000000    0.00000000
     atom   43 type  1   force =     0.00000000    0.00000000    0.00000000
     atom   44 type  1   force =     0.00000000    0.00000000    0.00000000
     atom   45 type  1   force =     0.00000000    0.00000000    0.00000000
     atom   46 type  1   force =     0.00000000    0.00000000    0.00000000
     atom   47 type  1   force =     0.00000000    0.00000000    0.00000000
     atom   48 type  1   force =     0.00000000    0.00000000    0.00000000
     atom   49 type  1   force =     0.00000000    0.00000000    0.00000000
     atom   50 type  1   force =     0.00000000    0.00000000    0.00000000
     atom   51 type  1   force =     0.00000000    0.00000000    0.00000000
     atom   52 type  1   force =     0.00000000    0.00000000    0.00000000
     atom   53 type  1   force =     0.00000000    0.00000000    0.00000000
     atom   54 type  1   force =     0.00000000    0.00000000    0.00000000
     atom   55 type  1   force =     0.00000000    0.00000000    0.00000000
     atom   56 type  1   force =     0.00000000    0.00000000    0.00000000
     atom   57 type  1   force =     0.00000000    0.00000000    0.00000000
     atom   58 type  1   force =     0.00000000    0.00000000    0.00000000
     atom   59 type  1   force =     0.00000000    0.00000000    0.00000000
     atom   60 type  1   force =     0.00000000    0.00000000    0.00000000
     atom   61 type  1   force =     0.00000000    0.00000000    0.00000000
     atom   62 type  1   force =     0.00000000    0.00000000    0.00000000
     atom   63 type  1   force =     0.00000000    0.00000000    0.00000000
     atom   64 type  1   force =     0.00000000    0.00000000    0.00000000
     atom   65 type  1   force =     0.00000000    0.00000000    0.00000000
     atom   66 type  1   force =     0.00000000    0.00000000    0.00000000
     atom   67 type  1   force =     0.00000000    0.00000000    0.00000000
     atom   68 type  1   force =     0.00000000    0.00000000    0.00000000
     atom   69 type  1   force =     0.00000000    0.00000000    0.00000000
     atom   70 type  1   force =     0.00000000    0.00000000    0.00000000
     atom   71 type  1   force =     0.00000000    0.00000000    0.00000000
     atom   72 type  1   force =     0.00000000    0.00000000    0.00000000
     atom   73 type  1   force =     0.00000000    0.00000000    0.00000000
     atom   74 type  1   force =     0.00000000    0.00000000    0.00000000
     atom   75 type  1   force =     0.00000000    0.00000000    0.00000000
     atom   76 type  1   force =     0.00000000    0.00000000    0.00000000
     atom   77 type  1   force =     0.00000000    0.00000000    0.00000000
     atom   78 type  1   force =     0.00000000    0.00000000    0.00000000
     atom   79 type  1   force =     0.00000000    0.00000000    0.00000000
     atom   80 type  1   force =     0.00000000    0.00000000    0.00000000
     atom   81 type  1   force =     0.00000000    0.00000000    0.00000000
     atom   82 type  1   force =     0.00000000    0.00000000    0.00000000
     atom   83 type  1   force =     0.00000000    0.00000000    0.00000000
     atom   84 type  1   force =     0.00000000    0.00000000    0.00000000
     atom   85 type  1   force =     0.00000000    0.00000000    0.00000000
     atom   86 type  1   force =     0.00000000    0.00000000    0.00000000
     atom   87 type  1   force =     0.00000000    0.00000000    0.00000000
     atom   88 type  1   force =     0.00000000    0.00000000    0.00000000
     atom   89 type  1   force =     0.00000000    0.00000000    0.00000000
     atom   90 type  1   force =     0.00000000    0.00000000    0.00000000
     atom   91 type  1   force =     0.00000000    0.00000000    0.00000000
     atom   92 type  1   force =     0.00000000    0.00000000    0.00000000
     atom   93 type  1   force =     0.00000000    0.00000000    0.00000000
     atom   94 type  1   force =     0.00000000    0.00000000    0.00000000
     atom   95 type  1   force =     0.00000000    0.00000000    0.00000000
     atom   96 type  1   force =     0.00000000    0.00000000    0.00000000
     atom   97 type  1   force =     0.00000000    0.00000000    0.00000000
     atom   98 type  1   force =     0.00000000    0.00000000    0.00000000
     atom   99 type  1   force =     0.00000000    0.00000000    0.00000000
     atom  100 type  1   force =     0.00000000    0.00000000    0.00000000
     atom  101 type  1   force =     0.00000000    0.00000000    0.00000000
     atom  102 type  1   force =     0.00000000    0.00000000    0.00000000
     atom  103 type  1   force =     0.00000000    0.00000000    0.00000000
     atom  104 type  1   force =     0.00000000    0.00000000    0.00000000
     atom  105 type  1   force =     0.00000000    0.00000000    0.00000000
     atom  106 type  1   force =     0.00000000    0.00000000    0.00000000
     atom  107 type  1   force =     0.00000000    0.00000000    0.00000000
     atom  108 type  1   force =     0.00000000    0.00000000    0.00000000
     atom  109 type  1   force =     0.00000000    0.00000000    0.00000000
     atom  110 type  1   force =     0.00000000    0.00000000    0.00000000
     atom  111 type  1   force =     0.00000000    0.00000000    0.00000000
     atom  112 type  1   force =     0.00000000    0.00000000    0.00000000
     atom  113 type  1   force =     0.00000000    0.00000000    0.00000000
     atom  114 type  1   force =     0.00000000    0.00000000    0.00000000
     atom  115 type  1   force =     0.00000000    0.00000000    0.00000000
     atom  116 type  1   force =     0.00000000    0.00000000    0.00000000
     atom  117 type  1   force =     0.00000000    0.00000000    0.00000000
     atom  118 type  1   force =     0.00000000    0.00000000    0.00000000
     atom  119 type  1   force =     0.00000000    0.00000000    0.00000000
     atom  120 type  1   force =     0.00000000    0.00000000    0.00000000
     atom  121 type  1   force =     0.00000000    0.00000000    0.00000000
     atom  122 type  1   force =     0.00000000    0.00000000    0.00000000
     atom  123 type  1   force =     0.00000000    0.00000000    0.00000000
     atom  124 type  1   force =     0.00000000    0.00000000    0.00000000
     atom  125 type  1   force =     0.00000000    0.00000000    0.00000000
     atom  126 type  1   force =     0.00000000    0.00000000    0.00000000
     atom  127 type  1   force =     0.00000000    0.00000000    0.00000000
     atom  128 type  1   force =     0.00000000    0.00000000    0.00000000
     atom  129 type  1   force =     0.00000000    0.00000000    0.00000000
     atom  130 type  1   force =     0.00000000    0.00000000    0.00000000
     atom  131 type  1   force =     0.00000000    0.00000000    0.00000000
     atom  132 type  1   force =     0.00000000    0.00000000    0.00000000
     atom  133 type  1   force =     0.00000000    0.00000000    0.00000000
     atom  134 type  1   force =     0.00000000    0.00000000    0.00000000
     atom  135 type  1   force =     0.00000000    0.00000000    0.00000000
     atom  136 type  1   force =     0.00000000    0.00000000    0.00000000
     atom  137 type  1   force =     0.00000000    0.00000000    0.00000000
     atom  138 type  1   force =     0.00000000    0.00000000    0.00000000
     atom  139 type  1   force =     0.00000000    0.00000000    0.00000000
     atom  140 type  1   force =     0.00000000    0.00000000    0.00000000
     atom  141 type  1   force =     0.00000000    0.00000000    0.00000000
     atom  142 type  1   force =     0.00000000    0.00000000    0.00000000
     atom  143 type  1   force =     0.00000000    0.00000000    0.00000000
     atom  144 type  1   force =     0.00000000    0.00000000    0.00000000
     atom  145 type  1   force =     0.00000000    0.00000000    0.00000000
     atom  146 type  1   force =     0.00000000    0.00000000    0.00000000
     atom  147 type  1   force =     0.00000000    0.00000000    0.00000000
     atom  148 type  1   force =     0.00000000    0.00000000    0.00000000
     atom  149 type  1   force =     0.00000000    0.00000000    0.00000000
     atom  150 type  1   force =     0.00000000    0.00000000    0.00000000
     atom  151 type  1   force =     0.00000000    0.00000000    0.00000000
     atom  152 type  1   force =     0.00000000    0.00000000    0.00000000
     atom  153 type  1   force =     0.00000000    0.00000000    0.00000000
     atom  154 type  1   force =     0.00000000    0.00000000    0.00000000
     atom  155 type  1   force =     0.00000000    0.00000000    0.00000000
     atom  156 type  1   force =     0.00000000    0.00000000    0.00000000
     atom  157 type  1   force =     0.00000000    0.00000000    0.00000000
     atom  158 type  1   force =     0.00000000    0.00000000    0.00000000
     atom  159 type  1   force =     0.00000000    0.00000000    0.00000000
     atom  160 type  1   force =     0.00000000    0.00000000    0.00000000
     atom  161 type  1   force =     0.00000000    0.00000000    0.00000000
     atom  162 type  1   force =     0.00000000    0.00000000    0.00000000
     atom  163 type  1   force =     0.00000000    0.00000000    0.00000000
     atom  164 type  1   force =     0.00000000    0.00000000    0.00000000
     atom  165 type  1   force =     0.00000000    0.00000000    0.00000000
     atom  166 type  1   force =     0.00000000    0.00000000    0.00000000
     atom  167 type  1   force =     0.00000000    0.00000000    0.00000000
     atom  168 type  1   force =     0.00000000    0.00000000    0.00000000
     atom  169 type  1   force =     0.00000000    0.00000000    0.00000000
     atom  170 type  1   force =     0.00000000    0.00000000    0.00000000
     atom  171 type  1   force =     0.00000000    0.00000000    0.00000000
     atom  172 type  1   force =     0.00000000    0.00000000    0.00000000
     atom  173 type  1   force =     0.00000000    0.00000000    0.00000000
     atom  174 type  1   force =     0.00000000    0.00000000    0.00000000
     atom  175 type  1   force =     0.00000000    0.00000000    0.00000000
     atom  176 type  1   force =     0.00000000    0.00000000    0.00000000
     atom  177 type  1   force =     0.00000000    0.00000000    0.00000000
     atom  178 type  1   force =     0.00000000    0.00000000    0.00000000
     atom  179 type  1   force =     0.00000000    0.00000000    0.00000000
     atom  180 type  1   force =     0.00000000    0.00000000    0.00000000
     atom  181 type  1   force =     0.00000000    0.00000000    0.00000000
     atom  182 type  1   force =     0.00000000    0.00000000    0.00000000
     atom  183 type  1   force =     0.00000000    0.00000000    0.00000000
     atom  184 type  1   force =     0.00000000    0.00000000    0.00000000
     atom  185 type  1   force =     0.00000000    0.00000000    0.00000000
     atom  186 type  1   force =     0.00000000    0.00000000    0.00000000
     atom  187 type  1   force =     0.00000000    0.00000000    0.00000000
     atom  188 type  1   force =     0.00000000    0.00000000    0.00000000
     atom  189 type  1   force =     0.00000000    0.00000000    0.00000000
     atom  190 type  1   force =     0.00000000    0.00000000    0.00000000
     atom  191 type  1   force =     0.00000000    0.00000000    0.00000000
     atom  192 type  1   force =     0.00000000    0.00000000    0.00000000
     atom  193 type  1   force =     0.00000000    0.00000000    0.00000000
     atom  194 type  1   force =     0.00000000    0.00000000    0.00000000
     atom  195 type  1   force =     0.00000000    0.00000000    0.00000000
     atom  196 type  1   force =     0.00000000    0.00000000    0.00000000
     atom  197 type  1   force =     0.00000000    0.00000000    0.00000000
     atom  198 type  1   force =     0.00000000    0.00000000    0.00000000
     atom  199 type  1   force =     0.00000000    0.00000000    0.00000000
     atom  200 type  1   force =     0.00000000    0.00000000    0.00000000
     atom  201 type  1   force =     0.00000000    0.00000000    0.00000000
     atom  202 type  1   force =     0.00000000    0.00000000    0.00000000
     atom  203 type  1   force =     0.00000000    0.00000000    0.00000000
     atom  204 type  1   force =     0.00000000    0.00000000    0.00000000
     atom  205 type  1   force =     0.00000000    0.00000000    0.00000000
     atom  206 type  1   force =     0.00000000    0.00000000    0.00000000
     atom  207 type  1   force =     0.00000000    0.00000000    0.00000000
     atom  208 type  1   force =     0.00000000    0.00000000    0.00000000
     atom  209 type  1   force =     0.00000000    0.00000000    0.00000000
     atom  210 type  1   force =     0.00000000    0.00000000    0.00000000
     atom  211 type  1   force =     0.00000000    0.00000000    0.00000000
     atom  212 type  1   force =     0.00000000    0.00000000    0.00000000
     atom  213 type  1   force =     0.00000000    0.00000000    0.00000000
     atom  214 type  1   force =     0.00000000    0.00000000    0.00000000
     atom  215 type  2   force =     0.00000000    0.00000000    0.00000000
     The SCF correction term to forces
     atom    1 type  1   force =    -0.00001851   -0.00000006    0.00000836
     atom    2 type  1   force =    -0.00000454    0.00000546   -0.00000141
     atom    3 type  1   force =     0.00000629   -0.00000347    0.00001200
     atom    4 type  1   force =     0.00000203    0.00001674    0.00000748
     atom    5 type  1   force =     0.00000479    0.00000249   -0.00000428
     atom    6 type  1   force =    -0.00000157   -0.00000005    0.00001157
     atom    7 type  1   force =    -0.00000910   -0.00000645   -0.00000970
     atom    8 type  1   force =     0.00001437   -0.00000779   -0.00000555
     atom    9 type  1   force =     0.00000271   -0.00000595   -0.00001067
     atom   10 type  1   force =    -0.00000192    0.00000663   -0.00000553
     atom   11 type  1   force =     0.00000753   -0.00000058    0.00000480
     atom   12 type  1   force =     0.00000927    0.00000952    0.00000127
     atom   13 type  1   force =     0.00000111    0.00000082   -0.00000425
     atom   14 type  1   force =     0.00000564   -0.00001611   -0.00000987
     atom   15 type  1   force =     0.00002828   -0.00000629   -0.00002281
     atom   16 type  1   force =    -0.00000354    0.00000426   -0.00000920
     atom   17 type  1   force =     0.00002459   -0.00000389    0.00002626
     atom   18 type  1   force =     0.00001248    0.00002861   -0.00003216
     atom   19 type  1   force =     0.00000490    0.00000338   -0.00001823
     atom   20 type  1   force =    -0.00000116    0.00000403   -0.00000170
     atom   21 type  1   force =     0.00000750   -0.00000617    0.00000941
     atom   22 type  1   force =     0.00000062    0.00001857    0.00000026
     atom   23 type  1   force =    -0.00000647   -0.00000676    0.00001549
     atom   24 type  1   force =    -0.00000922   -0.00000207    0.00000965
     atom   25 type  1   force =    -0.00001386   -0.00000478   -0.00000778
     atom   26 type  1   force =    -0.00000533   -0.00000753    0.00001971
     atom   27 type  1   force =    -0.00002089    0.00000387    0.00001696
     atom   28 type  1   force =    -0.00000921    0.00000506    0.00000865
     atom   29 type  1   force =    -0.00000344   -0.00000294   -0.00000346
     atom   30 type  1   force =     0.00000491    0.00000394    0.00000955
     atom   31 type  1   force =     0.00000124    0.00000287   -0.00000529
     atom   32 type  1   force =     0.00001833   -0.00002235   -0.00001263
     atom   33 type  1   force =    -0.00000948   -0.00002992   -0.00001460
     atom   34 type  1   force =    -0.00001134    0.00000114   -0.00000213
     atom   35 type  1   force =     0.00001357    0.00000341    0.00000800
     atom   36 type  1   force =     0.00000881    0.00000968   -0.00000001
     atom   37 type  1   force =     0.00000620    0.00000779   -0.00001346
     atom   38 type  1   force =    -0.00000086   -0.00001307   -0.00000189
     atom   39 type  1   force =     0.00000569   -0.00000642   -0.00000698
     atom   40 type  1   force =    -0.00000580    0.00000497   -0.00000325
     atom   41 type  1   force =     0.00000430   -0.00001667    0.00002400
     atom   42 type  1   force =    -0.00004154   -0.00000922   -0.00001684
     atom   43 type  1   force =    -0.00000100    0.00000305   -0.00001470
     atom   44 type  1   force =     0.00001092    0.00000422    0.00001330
     atom   45 type  1   force =     0.00000346    0.00001820    0.00001004
     atom   46 type  1   force =     0.00000202    0.00002062    0.00000424
     atom   47 type  1   force =    -0.00000345    0.00000682   -0.00000208
     atom   48 type  1   force =     0.00000617   -0.00000582    0.00001523
     atom   49 type  1   force =    -0.00000492    0.00000803   -0.00000107
     atom   50 type  1   force =     0.00000259   -0.00000474    0.00000892
     atom   51 type  1   force =    -0.00000698    0.00000063    0.00000532
     atom   52 type  1   force =    -0.00001608   -0.00001530   -0.00001171
     atom   53 type  1   force =    -0.00000412   -0.00000200   -0.00000251
     atom   54 type  1   force =     0.00000141   -0.00000862    0.00000640
     atom   55 type  1   force =    -0.00000894    0.00000118    0.00000624
     atom   56 type  1   force =     0.00000896    0.00000542    0.00000506
     atom   57 type  1   force =    -0.00000619    0.00000577    0.00000681
     atom   58 type  1   force =     0.00000676   -0.00000324    0.00000474
     atom   59 type  1   force =    -0.00001531    0.00001438   -0.00001003
     atom   60 type  1   force =     0.00000111    0.00000154    0.00000446
     atom   61 type  1   force =     0.00001202   -0.00000897    0.00000467
     atom   62 type  1   force =     0.00001920    0.00000755   -0.00001782
     atom   63 type  1   force =    -0.00000865    0.00000380   -0.00001850
     atom   64 type  1   force =     0.00000649    0.00000328   -0.00000930
     atom   65 type  1   force =     0.00000766    0.00000031    0.00000784
     atom   66 type  1   force =     0.00000782    0.00000599   -0.00001077
     atom   67 type  1   force =     0.00000532   -0.00000792    0.00000777
     atom   68 type  1   force =    -0.00000730   -0.00001733   -0.00000726
     atom   69 type  1   force =    -0.00000372    0.00000794   -0.00001464
     atom   70 type  1   force =     0.00000590   -0.00000805    0.00000938
     atom   71 type  1   force =     0.00000806    0.00000479    0.00004842
     atom   72 type  1   force =    -0.00002050    0.00001671   -0.00001454
     atom   73 type  1   force =    -0.00001263    0.00000892   -0.00001207
     atom   74 type  1   force =     0.00000375   -0.00000222    0.00000727
     atom   75 type  1   force =     0.00000237   -0.00001013    0.00000831
     atom   76 type  1   force =     0.00000457    0.00001499    0.00000455
     atom   77 type  1   force =    -0.00000255   -0.00000432    0.00000920
     atom   78 type  1   force =     0.00000088    0.00001569    0.00000948
     atom   79 type  1   force =    -0.00000635   -0.00001123   -0.00000365
     atom   80 type  1   force =     0.00000027   -0.00000562    0.00000689
     atom   81 type  1   force =    -0.00001305   -0.00000556   -0.00000665
     atom   82 type  1   force =    -0.00000761    0.00001158    0.00000317
     atom   83 type  1   force =     0.00000009    0.00000026    0.00000308
     atom   84 type  1   force =    -0.00000140    0.00000493    0.00001716
     atom   85 type  1   force =     0.00001152   -0.00000183   -0.00000006
     atom   86 type  1   force =     0.00000177   -0.00000690   -0.00000779
     atom   87 type  1   force =    -0.00000489    0.00000293   -0.00000723
     atom   88 type  1   force =    -0.00001055   -0.00000666   -0.00000319
     atom   89 type  1   force =     0.00001264    0.00000078    0.00000069
     atom   90 type  1   force =    -0.00000836   -0.00000591   -0.00000267
     atom   91 type  1   force =     0.00000127   -0.00000887   -0.00000051
     atom   92 type  1   force =     0.00000594   -0.00000175   -0.00000867
     atom   93 type  1   force =     0.00000378    0.00000387   -0.00000785
     atom   94 type  1   force =     0.00001375   -0.00001091    0.00000866
     atom   95 type  1   force =    -0.00000652    0.00000207   -0.00002455
     atom   96 type  1   force =     0.00000870    0.00000015    0.00000496
     atom   97 type  1   force =     0.00002036    0.00001418    0.00001230
     atom   98 type  1   force =    -0.00000353    0.00001826   -0.00001056
     atom   99 type  1   force =     0.00000210    0.00001164   -0.00000685
     atom  100 type  1   force =    -0.00000401   -0.00001057    0.00000825
     atom  101 type  1   force =     0.00000821    0.00000568   -0.00000084
     atom  102 type  1   force =    -0.00000269   -0.00000399    0.00001492
     atom  103 type  1   force =    -0.00001562   -0.00000834    0.00002415
     atom  104 type  1   force =    -0.00002038    0.00001123   -0.00000057
     atom  105 type  1   force =    -0.00000506   -0.00000454   -0.00000900
     atom  106 type  1   force =    -0.00000050    0.00000198    0.00001955
     atom  107 type  1   force =    -0.00000614   -0.00000547   -0.00000546
     atom  108 type  1   force =    -0.00001527    0.00000538    0.00000912
     atom  109 type  1   force =    -0.00000063    0.00000149   -0.00000079
     atom  110 type  1   force =    -0.00000011    0.00000051    0.00001470
     atom  111 type  1   force =     0.00000839    0.00000320    0.00000439
     atom  112 type  1   force =    -0.00000145   -0.00000295   -0.00001321
     atom  113 type  1   force =    -0.00000244   -0.00000388    0.00000667
     atom  114 type  1   force =    -0.00000759   -0.00000726   -0.00000265
     atom  115 type  1   force =     0.00001738   -0.00000017   -0.00000132
     atom  116 type  1   force =    -0.00000054    0.00000348   -0.00001163
     atom  117 type  1   force =     0.00000382    0.00000185   -0.00000867
     atom  118 type  1   force =     0.00000443   -0.00000685   -0.00000042
     atom  119 type  1   force =     0.00000736    0.00000270   -0.00000853
     atom  120 type  1   force =     0.00000503   -0.00000342    0.00000331
     atom  121 type  1   force =    -0.00000287   -0.00000429   -0.00002893
     atom  122 type  1   force =     0.00000446   -0.00000174   -0.00000127
     atom  123 type  1   force =     0.00002104    0.00000689    0.00002312
     atom  124 type  1   force =    -0.00000631    0.00002474   -0.00000844
     atom  125 type  1   force =     0.00000003    0.00001574   -0.00001200
     atom  126 type  1   force =    -0.00000221   -0.00000063    0.00000309
     atom  127 type  1   force =     0.00000909   -0.00000673    0.00001012
     atom  128 type  1   force =    -0.00000005    0.00001207    0.00000628
     atom  129 type  1   force =    -0.00000606   -0.00000574    0.00001661
     atom  130 type  1   force =    -0.00001186    0.00000786    0.00000993
     atom  131 type  1   force =    -0.00001281   -0.00001258   -0.00001058
     atom  132 type  1   force =    -0.00000512   -0.00000398    0.00001431
     atom  133 type  1   force =    -0.00001000   -0.00000680    0.00000263
     atom  134 type  1   force =     0.00000039   -0.00000391    0.00000449
     atom  135 type  1   force =    -0.00000029    0.00000133   -0.00001201
     atom  136 type  1   force =     0.00000966    0.00000194    0.00000358
     atom  137 type  1   force =     0.00000716   -0.00000361   -0.00000001
     atom  138 type  1   force =     0.00002473   -0.00000946   -0.00000778
     atom  139 type  1   force =    -0.00000361   -0.00000549   -0.00003096
     atom  140 type  1   force =    -0.00000355    0.00000275    0.00000183
     atom  141 type  1   force =     0.00001294    0.00000620    0.00000878
     atom  142 type  1   force =     0.00000394    0.00001521    0.00000122
     atom  143 type  1   force =     0.00000539    0.00000942   -0.00000372
     atom  144 type  1   force =    -0.00000599   -0.00001239    0.00000474
     atom  145 type  1   force =    -0.00000222   -0.00000007   -0.00000449
     atom  146 type  1   force =    -0.00000433   -0.00000511    0.00000535
     atom  147 type  1   force =    -0.00000536   -0.00001275    0.00003178
     atom  148 type  1   force =    -0.00002911    0.00001316    0.00000007
     atom  149 type  1   force =     0.00000278    0.00000120   -0.00001696
     atom  150 type  1   force =     0.00000613    0.00000579    0.00001254
     atom  151 type  1   force =     0.00000492    0.00000147    0.00000054
     atom  152 type  1   force =     0.00000090    0.00002119    0.00000594
     atom  153 type  1   force =     0.00000036    0.00000108   -0.00000164
     atom  154 type  1   force =     0.00000411    0.00000426    0.00001584
     atom  155 type  1   force =    -0.00000068   -0.00000401   -0.00000460
     atom  156 type  1   force =     0.00000712   -0.00000736   -0.00000087
     atom  157 type  1   force =    -0.00000531   -0.00000237   -0.00000861
     atom  158 type  1   force =    -0.00001962   -0.00000529   -0.00000587
     atom  159 type  1   force =     0.00000335    0.00000155    0.00000048
     atom  160 type  1   force =     0.00000113   -0.00001002    0.00000711
     atom  161 type  1   force =    -0.00000227   -0.00000591    0.00000175
     atom  162 type  1   force =     0.00000783    0.00000425    0.00000107
     atom  163 type  1   force =    -0.00000563    0.00000618    0.00000143
     atom  164 type  1   force =     0.00001137   -0.00001399    0.00000082
     atom  165 type  1   force =     0.00000088   -0.00001417   -0.00002360
     atom  166 type  1   force =    -0.00000091    0.00000252   -0.00000757
     atom  167 type  1   force =     0.00001665   -0.00000272    0.00001043
     atom  168 type  1   force =     0.00001920    0.00001328   -0.00000459
     atom  169 type  1   force =    -0.00001027    0.00001036   -0.00001417
     atom  170 type  1   force =     0.00000158    0.00000141   -0.00000711
     atom  171 type  1   force =     0.00000381   -0.00000889    0.00000500
     atom  172 type  1   force =     0.00001009    0.00000664   -0.00001429
     atom  173 type  1   force =     0.00000066   -0.00000780    0.00001746
     atom  174 type  1   force =    -0.00001843   -0.00001363    0.00000789
     atom  175 type  1   force =    -0.00001077    0.00001539   -0.00000732
     atom  176 type  1   force =     0.00000216   -0.00000494    0.00001263
     atom  177 type  1   force =    -0.00000629    0.00001169    0.00002470
     atom  178 type  1   force =    -0.00001147    0.00000099   -0.00001301
     atom  179 type  1   force =    -0.00000970    0.00001144   -0.00000497
     atom  180 type  1   force =     0.00000606   -0.00000477    0.00001122
     atom  181 type  1   force =    -0.00000459    0.00000366    0.00001291
     atom  182 type  1   force =     0.00001070    0.00000352    0.00000017
     atom  183 type  1   force =    -0.00000172   -0.00000281    0.00000523
     atom  184 type  1   force =    -0.00000072    0.00001527    0.00000262
     atom  185 type  1   force =    -0.00000313   -0.00000881   -0.00000557
     atom  186 type  1   force =     0.00000817   -0.00000543   -0.00000201
     atom  187 type  1   force =    -0.00001397   -0.00001122   -0.00000957
     atom  188 type  1   force =     0.00000076   -0.00000082   -0.00000105
     atom  189 type  1   force =    -0.00000104    0.00000425    0.00001144
     atom  190 type  1   force =    -0.00000407    0.00001025    0.00001194
     atom  191 type  1   force =     0.00001844   -0.00000929   -0.00000119
     atom  192 type  1   force =    -0.00000061   -0.00001224   -0.00001715
     atom  193 type  1   force =    -0.00000740    0.00000162   -0.00001406
     atom  194 type  1   force =    -0.00000532    0.00000135    0.00000324
     atom  195 type  1   force =     0.00001186    0.00000599    0.00000701
     atom  196 type  1   force =    -0.00001437   -0.00000061    0.00000360
     atom  197 type  1   force =     0.00000411   -0.00001333   -0.00000083
     atom  198 type  1   force =     0.00000973   -0.00000541   -0.00001555
     atom  199 type  1   force =     0.00000119    0.00000632   -0.00001419
     atom  200 type  1   force =     0.00001293   -0.00001343    0.00001794
     atom  201 type  1   force =    -0.00000669    0.00000770   -0.00000690
     atom  202 type  1   force =    -0.00001182    0.00000882   -0.00001606
     atom  203 type  1   force =     0.00001113    0.00000437    0.00000508
     atom  204 type  1   force =     0.00001273    0.00001135    0.00000920
     atom  205 type  1   force =    -0.00000018    0.00001115   -0.00001213
     atom  206 type  1   force =    -0.00000122    0.00000918    0.00000311
     atom  207 type  1   force =    -0.00000369   -0.00000758    0.00001421
     atom  208 type  1   force =     0.00000514    0.00001973    0.00000400
     atom  209 type  1   force =    -0.00000469   -0.00000890    0.00001291
     atom  210 type  1   force =    -0.00001250   -0.00000274    0.00001557
     atom  211 type  1   force =    -0.00001649    0.00000383   -0.00000443
     atom  212 type  1   force =    -0.00000774    0.00000284   -0.00000928
     atom  213 type  1   force =     0.00000312   -0.00000381    0.00001285
     atom  214 type  1   force =    -0.00000329   -0.00001150   -0.00000884
     atom  215 type  2   force =     0.00000158   -0.00003083   -0.00000759

     Total force =     0.002363     Total SCF correction =     0.000257
     SCF correction compared to forces is large: reduce conv_thr to get better values


     Computing stress (Cartesian axis) and pressure

          total   stress  (Ry/bohr**3)                   (kbar)     P=       50.50
   0.00033167   0.00001229  -0.00000767           48.79        1.81       -1.13
   0.00001229   0.00035864  -0.00001997            1.81       52.76       -2.94
  -0.00000767  -0.00001997   0.00033949           -1.13       -2.94       49.94

     kinetic stress (kbar)  18975.06      6.74     -4.27
                                6.74  18990.02    -11.01
                               -4.27    -11.01  18979.36

     local   stress (kbar)  -3544.17     14.23     -9.18
                               14.23  -3511.98    -23.43
                               -9.18    -23.43  -3535.03

     nonloc. stress (kbar)   4204.64     -0.20      0.13
                               -0.20   4204.17      0.33
                                0.13      0.33   4204.51

     hartree stress (kbar)   1294.26     -7.21      4.57
                               -7.21   1278.24     11.78
                                4.57     11.78   1289.65

     exc-cor stress (kbar)   -463.53      0.03     -0.02
                                0.03   -463.47     -0.05
                               -0.02     -0.05   -463.51

     corecor stress (kbar)  -4255.66     -0.17      0.10
                               -0.17  -4256.03      0.27
                                0.10      0.27  -4255.77

     ewald   stress (kbar) -16161.80    -11.62      7.54
                              -11.62 -16188.19     19.16
                                7.54     19.16 -16169.27

     hubbard stress (kbar)      0.00      0.00      0.00
                                0.00      0.00      0.00
                                0.00      0.00      0.00

     DFT-D   stress (kbar)      0.00      0.00      0.00
                                0.00      0.00      0.00
                                0.00      0.00      0.00

     XDM     stress (kbar)      0.00      0.00      0.00
                                0.00      0.00      0.00
                                0.00      0.00      0.00

     dft-nl  stress (kbar)      0.00      0.00      0.00
                                0.00      0.00      0.00
                                0.00      0.00      0.00

     TS-vdW  stress (kbar)      0.00      0.00      0.00
                                0.00      0.00      0.00
                                0.00      0.00      0.00

     MDB     stress (kbar)      0.00      0.00      0.00
                                0.00      0.00      0.00
                                0.00      0.00      0.00

     3D-RISM stress (kbar)      0.00      0.00      0.00
                                0.00      0.00      0.00
                                0.00      0.00      0.00


     Writing all to output data dir ../tmp/diamond_pd.save/ :
     XML data file, charge density, pseudopotentials, collected wavefunctions
 
     init_run     :      5.30s CPU      5.75s WALL (       1 calls)
     electrons    :    389.04s CPU    397.07s WALL (       1 calls)
     forces       :      3.36s CPU      3.49s WALL (       1 calls)
     stress       :     11.44s CPU     11.62s WALL (       1 calls)

     Called by init_run:
     wfcinit      :      4.31s CPU      4.52s WALL (       1 calls)
     wfcinit:wfcr :      4.11s CPU      4.24s WALL (       2 calls)
     potinit      :      0.69s CPU      0.87s WALL (       1 calls)
     hinit0       :      0.14s CPU      0.15s WALL (       1 calls)

     Called by electrons:
     c_bands      :    345.50s CPU    352.04s WALL (      20 calls)
     sum_band     :     26.93s CPU     27.78s WALL (      20 calls)
     v_of_rho     :      0.73s CPU      0.75s WALL (      21 calls)
     v_h          :      0.04s CPU      0.04s WALL (      21 calls)
     v_xc         :      0.76s CPU      0.77s WALL (      23 calls)
     newd         :      1.89s CPU      2.27s WALL (      21 calls)
     PAW_pot      :     14.21s CPU     14.46s WALL (      21 calls)
     mix_rho      :      0.46s CPU      0.46s WALL (      20 calls)

     Called by c_bands:
     init_us_2    :      4.54s CPU      4.62s WALL (      86 calls)
     cegterg      :    340.14s CPU    346.30s WALL (      40 calls)

     Called by sum_band:
     sum_band:wei :      0.02s CPU      0.02s WALL (      20 calls)
     sum_band:loo :     25.10s CPU     25.38s WALL (      20 calls)
     sum_band:buf :      0.72s CPU      0.73s WALL (      40 calls)
     sum_band:ini :      2.10s CPU      2.13s WALL (      40 calls)
     sum_band:cal :     12.37s CPU     12.47s WALL (      40 calls)
     sum_band:bec :      0.59s CPU      0.59s WALL (      40 calls)
     addusdens    :      1.56s CPU      1.92s WALL (      20 calls)
                                        0.00s GPU  (      20 calls)
     addusd:skk   :      0.31s CPU      0.65s WALL (      40 calls)
                                        0.00s GPU  (      40 calls)

     Called by *egterg:
     cdiaghg      :     65.31s CPU     66.39s WALL (     243 calls)
     cegterg:over :     34.81s CPU     35.13s WALL (     203 calls)
     cegterg:upda :     26.67s CPU     27.13s WALL (     203 calls)
     cegterg:last :     65.98s CPU     66.50s WALL (      90 calls)
     cdiaghg:chol :      4.62s CPU      4.66s WALL (     243 calls)
     cdiaghg:inve :      2.41s CPU      2.42s WALL (     243 calls)
     cdiaghg:para :     18.93s CPU     19.11s WALL (     486 calls)
     h_psi        :    104.53s CPU    106.86s WALL (     245 calls)
     s_psi        :     33.00s CPU     33.28s WALL (     245 calls)
     g_psi        :      0.64s CPU      0.65s WALL (     203 calls)

     Called by h_psi:
     h_psi:calbec :     31.20s CPU     31.43s WALL (     245 calls)
     vloc_psi     :     39.58s CPU     40.29s WALL (     245 calls)
     add_vuspsi   :     32.48s CPU     33.20s WALL (     245 calls)

     General routines
     calbec       :     54.44s CPU     54.85s WALL (     319 calls)
     fft          :      0.30s CPU      0.31s WALL (     483 calls)
     ffts         :      0.02s CPU      0.02s WALL (      40 calls)
     fftw         :     41.47s CPU     42.20s WALL (  198030 calls)
 
     Parallel routines

     PAW routines
     PAW_pot      :     14.21s CPU     14.46s WALL (      21 calls)
 
     PWSCF        :   6m49.93s CPU   7m 9.82s WALL

 
   This run was terminated on:  17:16:10   7Aug2026            

=------------------------------------------------------------------------------=
   JOB DONE.
=------------------------------------------------------------------------------=
